    57
unstable frequency at     -6.791 1/cm IR int. is 5.938 a.m.u.; force const. is 0.000 mDyne/Ang.
Fe        0.6734   -0.3855    0.1306    0.0000    0.0000   -0.0003
N         3.9138    0.5779    0.1328   -0.0000    0.0000    0.0052
N         1.6368   -3.6259    0.1334    0.0000    0.0000   -0.0056
N        -0.2395   -2.0709    0.1309    0.0000   -0.0000   -0.0053
N        -1.0120    0.5273    0.1286   -0.0000   -0.0000    0.0047
N         1.5863    1.2998    0.1304   -0.0000    0.0000   -0.0054
N         2.3588   -1.2984    0.1326    0.0000    0.0000    0.0049
N        -0.2900    2.8548    0.1277   -0.0000   -0.0000   -0.0059
N        -2.5670   -1.3489    0.1285    0.0000   -0.0000    0.0051
C        -2.6308    2.2050    0.1263   -0.0000   -0.0000    0.0297
C        -1.2119    1.9066    0.1276   -0.0000   -0.0000    0.0090
C         1.0001    2.5643    0.1290   -0.0000   -0.0000   -0.0163
C         2.0252    3.5895    0.1292   -0.0000   -0.0000   -0.0357
C        -3.3016    0.9663    0.1265   -0.0000   -0.0000    0.0349
C        -2.2764   -0.0588    0.1280   -0.0000   -0.0000    0.0155
C        -0.6092   -5.7583    0.1333    0.0001   -0.0001   -0.0584
C        -3.1252   -4.3959    0.1301    0.0001   -0.0001   -0.0470
C        -1.8137   -6.4621    0.1328    0.0001   -0.0001   -0.0763
C        -4.6993    0.8970    0.1255   -0.0001   -0.0000    0.0579
C        -3.3370    3.4131    0.1250   -0.0001   -0.0000    0.0463
C        -5.4031    2.1016    0.1242   -0.0001   -0.0000    0.0757
C        -3.0557   -5.7893    0.1313    0.0001   -0.0001   -0.0702
C        -1.6188   -2.2708    0.1299    0.0000   -0.0000   -0.0097
C        -1.9171   -3.6897    0.1307    0.0001   -0.0000   -0.0303
C         3.2639    2.9186    0.1308   -0.0000    0.0000   -0.0305
C         2.9656    1.4998    0.1315   -0.0000    0.0000   -0.0097
C        -4.7303    3.3435    0.1239   -0.0001   -0.0000    0.0696
C         3.6232   -0.7123    0.1333   -0.0000    0.0000    0.0157
C         4.6484   -1.7374    0.1346   -0.0000    0.0001    0.0351
C         2.5587   -2.6777    0.1336    0.0000    0.0000    0.0092
C         3.9776   -2.9761    0.1348   -0.0000    0.0000    0.0300
C        -0.6784   -4.3606    0.1322    0.0001   -0.0000   -0.0354
C         0.3466   -3.3353    0.1323    0.0000   -0.0000   -0.0161
C         1.9559    4.9872    0.1281   -0.0000   -0.0000   -0.0588
C         4.4720    3.6248    0.1315    0.0000    0.0000   -0.0472
C         3.1605    5.6910    0.1287    0.0000   -0.0000   -0.0767
C         4.4025    5.0182    0.1304    0.0000   -0.0000   -0.0706
C         6.0461   -1.6681    0.1356   -0.0000    0.0001    0.0581
C         4.6838   -4.1842    0.1359   -0.0000    0.0001    0.0467
C         6.7499   -2.8727    0.1368   -0.0000    0.0001    0.0761
C         6.0771   -4.1146    0.1369   -0.0000    0.0001    0.0700
H         6.5562   -0.7047    0.1355   -0.0000    0.0001    0.0648
H         4.1560   -5.1380    0.1360   -0.0000    0.0001    0.0442
H         6.6624   -5.0353    0.1378   -0.0000    0.0001    0.0860
H        -5.2094   -0.0664    0.1257   -0.0000   -0.0000    0.0646
H        -2.8092    4.3669    0.1248   -0.0001    0.0000    0.0437
H        -5.3156    4.2642    0.1229   -0.0001   -0.0000    0.0855
H        -6.4939    2.0893    0.1234   -0.0001   -0.0000    0.0978
H         0.3542   -6.2683    0.1345    0.0001   -0.0001   -0.0650
H        -4.0791   -3.8681    0.1290    0.0001   -0.0001   -0.0445
H        -3.9763   -6.3745    0.1309    0.0001   -0.0001   -0.0862
H        -1.8014   -7.5529    0.1337    0.0001   -0.0001   -0.0983
H         0.9926    5.4972    0.1268   -0.0000   -0.0000   -0.0655
H         5.4259    3.0971    0.1328    0.0000    0.0000   -0.0446
H         5.3231    5.6035    0.1309    0.0000   -0.0000   -0.0865
H         3.1482    6.7818    0.1279    0.0000   -0.0000   -0.0989
H         7.8407   -2.8603    0.1376   -0.0001    0.0001    0.0982
    57
unstable frequency at     -1.108 1/cm IR int. is 7.025 a.m.u.; force const. is 0.000 mDyne/Ang.
Fe        0.6734   -0.3855    0.1306   -0.0000   -0.0000    0.0002
N         3.9138    0.5779    0.1328   -0.0001    0.0002    0.0461
N         1.6368   -3.6259    0.1334    0.0002    0.0001   -0.0031
N        -0.2395   -2.0709    0.1309    0.0001   -0.0001   -0.0195
N        -1.0120    0.5273    0.1286   -0.0000   -0.0001   -0.0168
N         1.5863    1.2998    0.1304   -0.0001    0.0001    0.0199
N         2.3588   -1.2984    0.1326    0.0000    0.0001    0.0171
N        -0.2900    2.8548    0.1277   -0.0002   -0.0001    0.0035
N        -2.5670   -1.3489    0.1285    0.0001   -0.0002   -0.0457
C        -2.6308    2.2050    0.1263   -0.0001   -0.0002   -0.0291
C        -1.2119    1.9066    0.1276   -0.0001   -0.0001   -0.0125
C         1.0001    2.5643    0.1290   -0.0002    0.0000    0.0181
C         2.0252    3.5895    0.1292   -0.0003    0.0001    0.0351
C        -3.3016    0.9663    0.1265   -0.0000   -0.0003   -0.0442
C        -2.2764   -0.0588    0.1280    0.0000   -0.0002   -0.0360
C        -0.6092   -5.7583    0.1333    0.0004   -0.0001   -0.0393
C        -3.1252   -4.3959    0.1301    0.0003   -0.0003   -0.0654
C        -1.8137   -6.4621    0.1328    0.0004   -0.0002   -0.0571
C        -4.6993    0.8970    0.1255   -0.0000   -0.0004   -0.0631
C        -3.3370    3.4131    0.1250   -0.0002   -0.0003   -0.0319
C        -5.4031    2.1016    0.1242   -0.0001   -0.0004   -0.0662
C        -3.0557   -5.7893    0.1313    0.0004   -0.0003   -0.0700
C        -1.6188   -2.2708    0.1299    0.0001   -0.0002   -0.0378
C        -1.9171   -3.6897    0.1307    0.0002   -0.0002   -0.0475
C         3.2639    2.9186    0.1308   -0.0002    0.0002    0.0478
C         2.9656    1.4998    0.1315   -0.0001    0.0002    0.0381
C        -4.7303    3.3435    0.1239   -0.0002   -0.0004   -0.0506
C         3.6232   -0.7123    0.1333   -0.0000    0.0002    0.0363
C         4.6484   -1.7374    0.1346    0.0000    0.0003    0.0446
C         2.5587   -2.6777    0.1336    0.0001    0.0001    0.0128
C         3.9776   -2.9761    0.1348    0.0001    0.0002    0.0294
C        -0.6784   -4.3606    0.1322    0.0003   -0.0001   -0.0347
C         0.3466   -3.3353    0.1323    0.0002   -0.0000   -0.0177
C         1.9559    4.9872    0.1281   -0.0004    0.0001    0.0396
C         4.4720    3.6248    0.1315   -0.0003    0.0003    0.0657
C         3.1605    5.6910    0.1287   -0.0004    0.0002    0.0574
C         4.4025    5.0182    0.1304   -0.0004    0.0003    0.0703
C         6.0461   -1.6681    0.1356    0.0000    0.0004    0.0635
C         4.6838   -4.1842    0.1359    0.0002    0.0003    0.0322
C         6.7499   -2.8727    0.1368    0.0001    0.0004    0.0666
C         6.0771   -4.1146    0.1369    0.0002    0.0004    0.0510
H         6.5562   -0.7047    0.1355   -0.0000    0.0004    0.0753
H         4.1560   -5.1380    0.1360    0.0003    0.0002    0.0202
H         6.6624   -5.0353    0.1378    0.0003    0.0004    0.0537
H        -5.2094   -0.0664    0.1257    0.0000   -0.0004   -0.0749
H        -2.8092    4.3669    0.1248   -0.0003   -0.0002   -0.0198
H        -5.3156    4.2642    0.1229   -0.0002   -0.0004   -0.0534
H        -6.4939    2.0893    0.1234   -0.0001   -0.0005   -0.0807
H         0.3542   -6.2683    0.1345    0.0004   -0.0000   -0.0292
H        -4.0791   -3.8681    0.1290    0.0003   -0.0003   -0.0751
H        -3.9763   -6.3745    0.1309    0.0004   -0.0003   -0.0836
H        -1.8014   -7.5529    0.1337    0.0005   -0.0002   -0.0610
H         0.9926    5.4972    0.1268   -0.0004    0.0000    0.0295
H         5.4259    3.0971    0.1328   -0.0003    0.0003    0.0755
H         5.3231    5.6035    0.1309   -0.0004    0.0003    0.0840
H         3.1482    6.7818    0.1279   -0.0005    0.0002    0.0614
H         7.8407   -2.8603    0.1376    0.0001    0.0005    0.0811
    57
unstable frequency at     -1.087 1/cm IR int. is 7.025 a.m.u.; force const. is 0.000 mDyne/Ang.
Fe        0.6734   -0.3855    0.1306   -0.0000   -0.0000    0.0001
N         3.9138    0.5779    0.1328    0.0000   -0.0000    0.0034
N         1.6368   -3.6259    0.1334   -0.0001    0.0000    0.0460
N        -0.2395   -2.0709    0.1309   -0.0000    0.0000    0.0171
N        -1.0120    0.5273    0.1286    0.0000   -0.0000   -0.0196
N         1.5863    1.2998    0.1304    0.0000   -0.0000   -0.0169
N         2.3588   -1.2984    0.1326   -0.0000   -0.0000    0.0198
N        -0.2900    2.8548    0.1277    0.0001   -0.0000   -0.0458
N        -2.5670   -1.3489    0.1285   -0.0000    0.0000   -0.0032
C        -2.6308    2.2050    0.1263    0.0001   -0.0000   -0.0477
C        -1.2119    1.9066    0.1276    0.0000   -0.0000   -0.0379
C         1.0001    2.5643    0.1290    0.0000   -0.0000   -0.0360
C         2.0252    3.5895    0.1292    0.0001   -0.0000   -0.0442
C        -3.3016    0.9663    0.1265    0.0000    0.0000   -0.0349
C        -2.2764   -0.0588    0.1280    0.0000    0.0000   -0.0179
C        -0.6092   -5.7583    0.1333   -0.0001    0.0001    0.0635
C        -3.1252   -4.3959    0.1301   -0.0001    0.0000    0.0323
C        -1.8137   -6.4621    0.1328   -0.0001    0.0001    0.0667
C        -4.6993    0.8970    0.1255    0.0000    0.0000   -0.0396
C        -3.3370    3.4131    0.1250    0.0001   -0.0000   -0.0656
C        -5.4031    2.1016    0.1242    0.0001    0.0000   -0.0574
C        -3.0557   -5.7893    0.1313   -0.0001    0.0001    0.0511
C        -1.6188   -2.2708    0.1299   -0.0000    0.0000    0.0128
C        -1.9171   -3.6897    0.1307   -0.0000    0.0000    0.0294
C         3.2639    2.9186    0.1308    0.0000   -0.0000   -0.0291
C         2.9656    1.4998    0.1315    0.0000   -0.0000   -0.0125
C        -4.7303    3.3435    0.1239    0.0001    0.0000   -0.0703
C         3.6232   -0.7123    0.1333   -0.0000   -0.0000    0.0179
C         4.6484   -1.7374    0.1346   -0.0000   -0.0000    0.0349
C         2.5587   -2.6777    0.1336   -0.0000    0.0000    0.0380
C         3.9776   -2.9761    0.1348   -0.0001   -0.0000    0.0476
C        -0.6784   -4.3606    0.1322   -0.0001    0.0000    0.0446
C         0.3466   -3.3353    0.1323   -0.0001    0.0000    0.0363
C         1.9559    4.9872    0.1281    0.0001   -0.0001   -0.0630
C         4.4720    3.6248    0.1315    0.0001   -0.0000   -0.0318
C         3.1605    5.6910    0.1287    0.0001   -0.0001   -0.0660
C         4.4025    5.0182    0.1304    0.0001   -0.0001   -0.0505
C         6.0461   -1.6681    0.1356   -0.0000   -0.0000    0.0394
C         4.6838   -4.1842    0.1359   -0.0001    0.0000    0.0655
C         6.7499   -2.8727    0.1368   -0.0001   -0.0000    0.0571
C         6.0771   -4.1146    0.1369   -0.0001   -0.0000    0.0700
H         6.5562   -0.7047    0.1355   -0.0000   -0.0000    0.0293
H         4.1560   -5.1380    0.1360   -0.0001    0.0000    0.0752
H         6.6624   -5.0353    0.1378   -0.0001   -0.0000    0.0837
H        -5.2094   -0.0664    0.1257    0.0000    0.0000   -0.0295
H        -2.8092    4.3669    0.1248    0.0001   -0.0000   -0.0753
H        -5.3156    4.2642    0.1229    0.0001   -0.0000   -0.0841
H        -6.4939    2.0893    0.1234    0.0001    0.0000   -0.0615
H         0.3542   -6.2683    0.1345   -0.0001    0.0001    0.0753
H        -4.0791   -3.8681    0.1290   -0.0000    0.0000    0.0203
H        -3.9763   -6.3745    0.1309   -0.0001    0.0001    0.0539
H        -1.8014   -7.5529    0.1337   -0.0001    0.0001    0.0812
H         0.9926    5.4972    0.1268    0.0001   -0.0001   -0.0748
H         5.4259    3.0971    0.1328    0.0000   -0.0000   -0.0198
H         5.3231    5.6035    0.1309    0.0001   -0.0001   -0.0532
H         3.1482    6.7818    0.1279    0.0001   -0.0001   -0.0805
H         7.8407   -2.8603    0.1376   -0.0001   -0.0000    0.0610
    57
unstable frequency at     -0.727 1/cm IR int. is 7.009 a.m.u.; force const. is 0.000 mDyne/Ang.
Fe        0.6734   -0.3855    0.1306   -0.0000   -0.0000   -0.0000
N         3.9138    0.5779    0.1328   -0.0091    0.0306   -0.0004
N         1.6368   -3.6259    0.1334    0.0306    0.0091    0.0000
N        -0.2395   -2.0709    0.1309    0.0159   -0.0086    0.0001
N        -1.0120    0.5273    0.1286   -0.0086   -0.0159    0.0001
N         1.5863    1.2998    0.1304   -0.0160    0.0086   -0.0002
N         2.3588   -1.2984    0.1326    0.0086    0.0159   -0.0001
N        -0.2900    2.8548    0.1277   -0.0306   -0.0091   -0.0001
N        -2.5670   -1.3489    0.1285    0.0091   -0.0306    0.0003
C        -2.6308    2.2050    0.1263   -0.0245   -0.0312    0.0001
C        -1.2119    1.9066    0.1276   -0.0217   -0.0178    0.0000
C         1.0001    2.5643    0.1290   -0.0279    0.0031   -0.0002
C         2.0252    3.5895    0.1292   -0.0376    0.0127   -0.0003
C        -3.3016    0.9663    0.1265   -0.0128   -0.0376    0.0002
C        -2.2764   -0.0588    0.1280   -0.0031   -0.0279    0.0002
C        -0.6092   -5.7583    0.1333    0.0508   -0.0121    0.0004
C        -3.1252   -4.3959    0.1301    0.0378   -0.0358    0.0005
C        -1.8137   -6.4621    0.1328    0.0574   -0.0234    0.0005
C        -4.6993    0.8970    0.1255   -0.0121   -0.0508    0.0003
C        -3.3370    3.4131    0.1250   -0.0358   -0.0379    0.0001
C        -5.4031    2.1016    0.1242   -0.0235   -0.0575    0.0003
C        -3.0557   -5.7893    0.1313    0.0511   -0.0351    0.0006
C        -1.6188   -2.2708    0.1299    0.0178   -0.0216    0.0003
C        -1.9171   -3.6897    0.1307    0.0312   -0.0244    0.0004
C         3.2639    2.9186    0.1308   -0.0313    0.0244   -0.0004
C         2.9656    1.4998    0.1315   -0.0179    0.0216   -0.0003
C        -4.7303    3.3435    0.1239   -0.0352   -0.0511    0.0002
C         3.6232   -0.7123    0.1333    0.0030    0.0279   -0.0003
C         4.6484   -1.7374    0.1346    0.0127    0.0376   -0.0003
C         2.5587   -2.6777    0.1336    0.0216    0.0178   -0.0001
C         3.9776   -2.9761    0.1348    0.0244    0.0312   -0.0002
C        -0.6784   -4.3606    0.1322    0.0375   -0.0128    0.0003
C         0.3466   -3.3353    0.1323    0.0278   -0.0031    0.0001
C         1.9559    4.9872    0.1281   -0.0509    0.0121   -0.0003
C         4.4720    3.6248    0.1315   -0.0379    0.0358   -0.0005
C         3.1605    5.6910    0.1287   -0.0575    0.0234   -0.0005
C         4.4025    5.0182    0.1304   -0.0511    0.0351   -0.0005
C         6.0461   -1.6681    0.1356    0.0121    0.0508   -0.0005
C         4.6838   -4.1842    0.1359    0.0358    0.0379   -0.0002
C         6.7499   -2.8727    0.1368    0.0234    0.0575   -0.0005
C         6.0771   -4.1146    0.1369    0.0351    0.0511   -0.0004
H         6.5562   -0.7047    0.1355    0.0029    0.0556   -0.0006
H         4.1560   -5.1380    0.1360    0.0448    0.0329   -0.0001
H         6.6624   -5.0353    0.1378    0.0438    0.0567   -0.0004
H        -5.2094   -0.0664    0.1257   -0.0030   -0.0557    0.0004
H        -2.8092    4.3669    0.1248   -0.0449   -0.0329   -0.0000
H        -5.3156    4.2642    0.1229   -0.0439   -0.0567    0.0002
H        -6.4939    2.0893    0.1234   -0.0233   -0.0677    0.0004
H         0.3542   -6.2683    0.1345    0.0556   -0.0030    0.0003
H        -4.0791   -3.8681    0.1290    0.0329   -0.0448    0.0006
H        -3.9763   -6.3745    0.1309    0.0566   -0.0439    0.0007
H        -1.8014   -7.5529    0.1337    0.0677   -0.0233    0.0006
H         0.9926    5.4972    0.1268   -0.0557    0.0030   -0.0003
H         5.4259    3.0971    0.1328   -0.0329    0.0448   -0.0006
H         5.3231    5.6035    0.1309   -0.0567    0.0438   -0.0006
H         3.1482    6.7818    0.1279   -0.0677    0.0233   -0.0005
H         7.8407   -2.8603    0.1376    0.0233    0.0677   -0.0006
    57
unstable frequency at     -0.011 1/cm IR int. is 9.971 a.m.u.; force const. is 0.000 mDyne/Ang.
Fe        0.6734   -0.3855    0.1306    0.0331    0.0257    0.0009
N         3.9138    0.5779    0.1328    0.0331    0.0257    0.0009
N         1.6368   -3.6259    0.1334    0.0331    0.0257    0.0009
N        -0.2395   -2.0709    0.1309    0.0331    0.0257    0.0009
N        -1.0120    0.5273    0.1286    0.0331    0.0257    0.0009
N         1.5863    1.2998    0.1304    0.0331    0.0257    0.0009
N         2.3588   -1.2984    0.1326    0.0331    0.0257    0.0009
N        -0.2900    2.8548    0.1277    0.0331    0.0257    0.0009
N        -2.5670   -1.3489    0.1285    0.0331    0.0257    0.0009
C        -2.6308    2.2050    0.1263    0.0331    0.0257    0.0009
C        -1.2119    1.9066    0.1276    0.0331    0.0257    0.0009
C         1.0001    2.5643    0.1290    0.0331    0.0257    0.0009
C         2.0252    3.5895    0.1292    0.0331    0.0257    0.0009
C        -3.3016    0.9663    0.1265    0.0331    0.0257    0.0009
C        -2.2764   -0.0588    0.1280    0.0331    0.0257    0.0009
C        -0.6092   -5.7583    0.1333    0.0332    0.0257    0.0009
C        -3.1252   -4.3959    0.1301    0.0332    0.0257    0.0009
C        -1.8137   -6.4621    0.1328    0.0332    0.0257    0.0009
C        -4.6993    0.8970    0.1255    0.0331    0.0257    0.0009
C        -3.3370    3.4131    0.1250    0.0331    0.0257    0.0009
C        -5.4031    2.1016    0.1242    0.0331    0.0257    0.0009
C        -3.0557   -5.7893    0.1313    0.0332    0.0257    0.0009
C        -1.6188   -2.2708    0.1299    0.0331    0.0257    0.0009
C        -1.9171   -3.6897    0.1307    0.0331    0.0257    0.0009
C         3.2639    2.9186    0.1308    0.0331    0.0257    0.0009
C         2.9656    1.4998    0.1315    0.0331    0.0257    0.0009
C        -4.7303    3.3435    0.1239    0.0331    0.0257    0.0009
C         3.6232   -0.7123    0.1333    0.0331    0.0257    0.0009
C         4.6484   -1.7374    0.1346    0.0331    0.0257    0.0009
C         2.5587   -2.6777    0.1336    0.0331    0.0257    0.0009
C         3.9776   -2.9761    0.1348    0.0331    0.0257    0.0009
C        -0.6784   -4.3606    0.1322    0.0332    0.0257    0.0009
C         0.3466   -3.3353    0.1323    0.0331    0.0257    0.0009
C         1.9559    4.9872    0.1281    0.0331    0.0257    0.0009
C         4.4720    3.6248    0.1315    0.0331    0.0257    0.0009
C         3.1605    5.6910    0.1287    0.0331    0.0257    0.0009
C         4.4025    5.0182    0.1304    0.0331    0.0257    0.0009
C         6.0461   -1.6681    0.1356    0.0331    0.0258    0.0009
C         4.6838   -4.1842    0.1359    0.0331    0.0257    0.0009
C         6.7499   -2.8727    0.1368    0.0331    0.0258    0.0009
C         6.0771   -4.1146    0.1369    0.0331    0.0258    0.0009
H         6.5562   -0.7047    0.1355    0.0331    0.0258    0.0009
H         4.1560   -5.1380    0.1360    0.0332    0.0257    0.0009
H         6.6624   -5.0353    0.1378    0.0332    0.0258    0.0009
H        -5.2094   -0.0664    0.1257    0.0331    0.0257    0.0009
H        -2.8092    4.3669    0.1248    0.0331    0.0257    0.0009
H        -5.3156    4.2642    0.1229    0.0331    0.0257    0.0009
H        -6.4939    2.0893    0.1234    0.0331    0.0257    0.0009
H         0.3542   -6.2683    0.1345    0.0332    0.0257    0.0009
H        -4.0791   -3.8681    0.1290    0.0331    0.0257    0.0009
H        -3.9763   -6.3745    0.1309    0.0332    0.0257    0.0009
H        -1.8014   -7.5529    0.1337    0.0332    0.0257    0.0009
H         0.9926    5.4972    0.1268    0.0331    0.0257    0.0009
H         5.4259    3.0971    0.1328    0.0331    0.0257    0.0009
H         5.3231    5.6035    0.1309    0.0331    0.0257    0.0009
H         3.1482    6.7818    0.1279    0.0331    0.0257    0.0009
H         7.8407   -2.8603    0.1376    0.0331    0.0258    0.0009
    57
unstable frequency at     -0.007 1/cm IR int. is 9.971 a.m.u.; force const. is 0.000 mDyne/Ang.
Fe        0.6734   -0.3855    0.1306   -0.0257    0.0331    0.0004
N         3.9138    0.5779    0.1328   -0.0257    0.0331    0.0004
N         1.6368   -3.6259    0.1334   -0.0257    0.0331    0.0004
N        -0.2395   -2.0709    0.1309   -0.0257    0.0331    0.0004
N        -1.0120    0.5273    0.1286   -0.0257    0.0331    0.0004
N         1.5863    1.2998    0.1304   -0.0257    0.0331    0.0004
N         2.3588   -1.2984    0.1326   -0.0257    0.0331    0.0004
N        -0.2900    2.8548    0.1277   -0.0257    0.0331    0.0004
N        -2.5670   -1.3489    0.1285   -0.0257    0.0331    0.0004
C        -2.6308    2.2050    0.1263   -0.0257    0.0331    0.0004
C        -1.2119    1.9066    0.1276   -0.0257    0.0331    0.0004
C         1.0001    2.5643    0.1290   -0.0257    0.0331    0.0004
C         2.0252    3.5895    0.1292   -0.0257    0.0331    0.0004
C        -3.3016    0.9663    0.1265   -0.0257    0.0331    0.0004
C        -2.2764   -0.0588    0.1280   -0.0257    0.0331    0.0004
C        -0.6092   -5.7583    0.1333   -0.0257    0.0331    0.0004
C        -3.1252   -4.3959    0.1301   -0.0257    0.0331    0.0004
C        -1.8137   -6.4621    0.1328   -0.0257    0.0331    0.0004
C        -4.6993    0.8970    0.1255   -0.0257    0.0331    0.0004
C        -3.3370    3.4131    0.1250   -0.0257    0.0331    0.0004
C        -5.4031    2.1016    0.1242   -0.0257    0.0331    0.0004
C        -3.0557   -5.7893    0.1313   -0.0257    0.0331    0.0004
C        -1.6188   -2.2708    0.1299   -0.0257    0.0331    0.0004
C        -1.9171   -3.6897    0.1307   -0.0257    0.0331    0.0004
C         3.2639    2.9186    0.1308   -0.0257    0.0331    0.0004
C         2.9656    1.4998    0.1315   -0.0257    0.0331    0.0004
C        -4.7303    3.3435    0.1239   -0.0257    0.0331    0.0004
C         3.6232   -0.7123    0.1333   -0.0257    0.0331    0.0004
C         4.6484   -1.7374    0.1346   -0.0257    0.0331    0.0004
C         2.5587   -2.6777    0.1336   -0.0257    0.0331    0.0004
C         3.9776   -2.9761    0.1348   -0.0257    0.0331    0.0004
C        -0.6784   -4.3606    0.1322   -0.0257    0.0331    0.0004
C         0.3466   -3.3353    0.1323   -0.0257    0.0331    0.0004
C         1.9559    4.9872    0.1281   -0.0257    0.0331    0.0004
C         4.4720    3.6248    0.1315   -0.0257    0.0331    0.0004
C         3.1605    5.6910    0.1287   -0.0257    0.0331    0.0004
C         4.4025    5.0182    0.1304   -0.0257    0.0331    0.0004
C         6.0461   -1.6681    0.1356   -0.0257    0.0331    0.0004
C         4.6838   -4.1842    0.1359   -0.0257    0.0331    0.0004
C         6.7499   -2.8727    0.1368   -0.0257    0.0331    0.0004
C         6.0771   -4.1146    0.1369   -0.0257    0.0331    0.0004
H         6.5562   -0.7047    0.1355   -0.0257    0.0331    0.0004
H         4.1560   -5.1380    0.1360   -0.0257    0.0331    0.0004
H         6.6624   -5.0353    0.1378   -0.0257    0.0331    0.0004
H        -5.2094   -0.0664    0.1257   -0.0257    0.0331    0.0004
H        -2.8092    4.3669    0.1248   -0.0257    0.0331    0.0004
H        -5.3156    4.2642    0.1229   -0.0257    0.0331    0.0004
H        -6.4939    2.0893    0.1234   -0.0257    0.0332    0.0004
H         0.3542   -6.2683    0.1345   -0.0257    0.0331    0.0004
H        -4.0791   -3.8681    0.1290   -0.0257    0.0331    0.0004
H        -3.9763   -6.3745    0.1309   -0.0257    0.0331    0.0004
H        -1.8014   -7.5529    0.1337   -0.0257    0.0331    0.0004
H         0.9926    5.4972    0.1268   -0.0257    0.0331    0.0004
H         5.4259    3.0971    0.1328   -0.0257    0.0331    0.0004
H         5.3231    5.6035    0.1309   -0.0257    0.0331    0.0004
H         3.1482    6.7818    0.1279   -0.0257    0.0331    0.0004
H         7.8407   -2.8603    0.1376   -0.0257    0.0331    0.0004
    57
stable frequency at      0.014 1/cm IR int. is 9.960 a.m.u.; force const. is 0.000 mDyne/Ang.
Fe        0.6734   -0.3855    0.1306    0.0005    0.0008   -0.0419
N         3.9138    0.5779    0.1328    0.0005    0.0008   -0.0417
N         1.6368   -3.6259    0.1334    0.0005    0.0008   -0.0418
N        -0.2395   -2.0709    0.1309    0.0005    0.0008   -0.0419
N        -1.0120    0.5273    0.1286    0.0005    0.0009   -0.0420
N         1.5863    1.2998    0.1304    0.0005    0.0008   -0.0418
N         2.3588   -1.2984    0.1326    0.0005    0.0008   -0.0418
N        -0.2900    2.8548    0.1277    0.0005    0.0008   -0.0419
N        -2.5670   -1.3489    0.1285    0.0005    0.0009   -0.0421
C        -2.6308    2.2050    0.1263    0.0005    0.0009   -0.0423
C        -1.2119    1.9066    0.1276    0.0005    0.0009   -0.0421
C         1.0001    2.5643    0.1290    0.0005    0.0008   -0.0418
C         2.0252    3.5895    0.1292    0.0005    0.0008   -0.0416
C        -3.3016    0.9663    0.1265    0.0005    0.0009   -0.0424
C        -2.2764   -0.0588    0.1280    0.0005    0.0009   -0.0422
C        -0.6092   -5.7583    0.1333    0.0005    0.0009   -0.0416
C        -3.1252   -4.3959    0.1301    0.0005    0.0009   -0.0419
C        -1.8137   -6.4621    0.1328    0.0005    0.0009   -0.0416
C        -4.6993    0.8970    0.1255    0.0005    0.0009   -0.0427
C        -3.3370    3.4131    0.1250    0.0005    0.0009   -0.0425
C        -5.4031    2.1016    0.1242    0.0005    0.0009   -0.0429
C        -3.0557   -5.7893    0.1313    0.0005    0.0009   -0.0417
C        -1.6188   -2.2708    0.1299    0.0005    0.0009   -0.0420
C        -1.9171   -3.6897    0.1307    0.0005    0.0009   -0.0419
C         3.2639    2.9186    0.1308    0.0005    0.0008   -0.0416
C         2.9656    1.4998    0.1315    0.0005    0.0008   -0.0417
C        -4.7303    3.3435    0.1239    0.0005    0.0009   -0.0428
C         3.6232   -0.7123    0.1333    0.0005    0.0008   -0.0418
C         4.6484   -1.7374    0.1346    0.0005    0.0008   -0.0419
C         2.5587   -2.6777    0.1336    0.0005    0.0008   -0.0418
C         3.9776   -2.9761    0.1348    0.0005    0.0008   -0.0419
C        -0.6784   -4.3606    0.1322    0.0005    0.0009   -0.0417
C         0.3466   -3.3353    0.1323    0.0005    0.0008   -0.0418
C         1.9559    4.9872    0.1281    0.0005    0.0008   -0.0415
C         4.4720    3.6248    0.1315    0.0005    0.0008   -0.0414
C         3.1605    5.6910    0.1287    0.0005    0.0008   -0.0414
C         4.4025    5.0182    0.1304    0.0005    0.0008   -0.0413
C         6.0461   -1.6681    0.1356    0.0005    0.0008   -0.0420
C         4.6838   -4.1842    0.1359    0.0005    0.0008   -0.0420
C         6.7499   -2.8727    0.1368    0.0005    0.0008   -0.0421
C         6.0771   -4.1146    0.1369    0.0005    0.0008   -0.0421
H         6.5562   -0.7047    0.1355    0.0005    0.0008   -0.0421
H         4.1560   -5.1380    0.1360    0.0005    0.0008   -0.0420
H         6.6624   -5.0353    0.1378    0.0005    0.0008   -0.0422
H        -5.2094   -0.0664    0.1257    0.0005    0.0009   -0.0428
H        -2.8092    4.3669    0.1248    0.0005    0.0009   -0.0425
H        -5.3156    4.2642    0.1229    0.0005    0.0009   -0.0430
H        -6.4939    2.0893    0.1234    0.0005    0.0009   -0.0432
H         0.3542   -6.2683    0.1345    0.0005    0.0008   -0.0415
H        -4.0791   -3.8681    0.1290    0.0005    0.0009   -0.0420
H        -3.9763   -6.3745    0.1309    0.0005    0.0009   -0.0417
H        -1.8014   -7.5529    0.1337    0.0004    0.0009   -0.0415
H         0.9926    5.4972    0.1268    0.0005    0.0008   -0.0415
H         5.4259    3.0971    0.1328    0.0005    0.0008   -0.0414
H         5.3231    5.6035    0.1309    0.0005    0.0008   -0.0412
H         3.1482    6.7818    0.1279    0.0006    0.0008   -0.0412
H         7.8407   -2.8603    0.1376    0.0005    0.0008   -0.0422
    57
stable frequency at     36.091 1/cm IR int. is 5.258 a.m.u.; force const. is 0.004 mDyne/Ang.
Fe        0.6734   -0.3855    0.1306   -0.0000   -0.0000    0.0001
N         3.9138    0.5779    0.1328   -0.0001    0.0000    0.0625
N         1.6368   -3.6259    0.1334    0.0000   -0.0000   -0.0623
N        -0.2395   -2.0709    0.1309   -0.0000   -0.0000    0.0009
N        -1.0120    0.5273    0.1286   -0.0000   -0.0000   -0.0007
N         1.5863    1.2998    0.1304   -0.0000   -0.0000    0.0009
N         2.3588   -1.2984    0.1326   -0.0000   -0.0000   -0.0007
N        -0.2900    2.8548    0.1277    0.0001   -0.0000   -0.0623
N        -2.5670   -1.3489    0.1285   -0.0001    0.0000    0.0624
C        -2.6308    2.2050    0.1263    0.0000   -0.0000   -0.0320
C        -1.2119    1.9066    0.1276    0.0000   -0.0000   -0.0383
C         1.0001    2.5643    0.1290    0.0000   -0.0000   -0.0351
C         2.0252    3.5895    0.1292    0.0000   -0.0000   -0.0246
C        -3.3016    0.9663    0.1265   -0.0000    0.0000    0.0247
C        -2.2764   -0.0588    0.1280   -0.0000    0.0000    0.0352
C        -0.6092   -5.7583    0.1333    0.0001   -0.0000   -0.0556
C        -3.1252   -4.3959    0.1301   -0.0000    0.0000    0.0657
C        -1.8137   -6.4621    0.1328    0.0001   -0.0000   -0.0248
C        -4.6993    0.8970    0.1255   -0.0001    0.0001    0.0555
C        -3.3370    3.4131    0.1250    0.0001   -0.0000   -0.0658
C        -5.4031    2.1016    0.1242   -0.0000    0.0001    0.0246
C        -3.0557   -5.7893    0.1313   -0.0000   -0.0000    0.0372
C        -1.6188   -2.2708    0.1299   -0.0000    0.0000    0.0384
C        -1.9171   -3.6897    0.1307   -0.0000    0.0000    0.0320
C         3.2639    2.9186    0.1308   -0.0000    0.0000    0.0321
C         2.9656    1.4998    0.1315   -0.0000    0.0000    0.0385
C        -4.7303    3.3435    0.1239    0.0000    0.0000   -0.0375
C         3.6232   -0.7123    0.1333   -0.0000    0.0000    0.0353
C         4.6484   -1.7374    0.1346   -0.0000    0.0000    0.0247
C         2.5587   -2.6777    0.1336    0.0000   -0.0000   -0.0383
C         3.9776   -2.9761    0.1348    0.0000   -0.0000   -0.0321
C        -0.6784   -4.3606    0.1322    0.0000   -0.0000   -0.0246
C         0.3466   -3.3353    0.1323    0.0000   -0.0000   -0.0351
C         1.9559    4.9872    0.1281    0.0001   -0.0000   -0.0557
C         4.4720    3.6248    0.1315   -0.0001    0.0000    0.0657
C         3.1605    5.6910    0.1287    0.0001   -0.0000   -0.0249
C         4.4025    5.0182    0.1304   -0.0000   -0.0000    0.0372
C         6.0461   -1.6681    0.1356   -0.0001    0.0001    0.0555
C         4.6838   -4.1842    0.1359    0.0001   -0.0000   -0.0659
C         6.7499   -2.8727    0.1368   -0.0000    0.0001    0.0245
C         6.0771   -4.1146    0.1369    0.0000    0.0000   -0.0377
H         6.5562   -0.7047    0.1355   -0.0001    0.0001    0.1032
H         4.1560   -5.1380    0.1360    0.0001   -0.0001   -0.1137
H         6.6624   -5.0353    0.1378    0.0001    0.0000   -0.0634
H        -5.2094   -0.0664    0.1257   -0.0001    0.0001    0.1031
H        -2.8092    4.3669    0.1248    0.0001   -0.0001   -0.1136
H        -5.3156    4.2642    0.1229    0.0001    0.0000   -0.0632
H        -6.4939    2.0893    0.1234   -0.0000    0.0001    0.0484
H         0.3542   -6.2683    0.1345    0.0001   -0.0001   -0.1032
H        -4.0791   -3.8681    0.1290   -0.0001    0.0000    0.1134
H        -3.9763   -6.3745    0.1309   -0.0000    0.0000    0.0628
H        -1.8014   -7.5529    0.1337    0.0001   -0.0001   -0.0488
H         0.9926    5.4972    0.1268    0.0001   -0.0001   -0.1034
H         5.4259    3.0971    0.1328   -0.0001    0.0000    0.1135
H         5.3231    5.6035    0.1309   -0.0000    0.0000    0.0628
H         3.1482    6.7818    0.1279    0.0001   -0.0001   -0.0489
H         7.8407   -2.8603    0.1376   -0.0000    0.0001    0.0483
    57
stable frequency at     37.723 1/cm IR int. is 6.782 a.m.u.; force const. is 0.006 mDyne/Ang.
Fe        0.6734   -0.3855    0.1306   -0.0001    0.0000    0.0548
N         3.9138    0.5779    0.1328   -0.0000    0.0000    0.0266
N         1.6368   -3.6259    0.1334   -0.0000    0.0000    0.0268
N        -0.2395   -2.0709    0.1309   -0.0000    0.0000    0.0440
N        -1.0120    0.5273    0.1286   -0.0000    0.0000    0.0440
N         1.5863    1.2998    0.1304   -0.0000    0.0000    0.0441
N         2.3588   -1.2984    0.1326   -0.0000    0.0000    0.0440
N        -0.2900    2.8548    0.1277   -0.0000    0.0000    0.0269
N        -2.5670   -1.3489    0.1285   -0.0000    0.0000    0.0265
C        -2.6308    2.2050    0.1263    0.0000    0.0000    0.0051
C        -1.2119    1.9066    0.1276   -0.0000    0.0000    0.0303
C         1.0001    2.5643    0.1290   -0.0000    0.0000    0.0299
C         2.0252    3.5895    0.1292   -0.0000   -0.0000    0.0043
C        -3.3016    0.9663    0.1265   -0.0000    0.0000    0.0042
C        -2.2764   -0.0588    0.1280   -0.0000    0.0000    0.0297
C        -0.6092   -5.7583    0.1333    0.0000   -0.0000   -0.0314
C        -3.1252   -4.3959    0.1301    0.0000   -0.0000   -0.0292
C        -1.8137   -6.4621    0.1328    0.0000   -0.0001   -0.0669
C        -4.6993    0.8970    0.1255    0.0000    0.0000   -0.0317
C        -3.3370    3.4131    0.1250    0.0000   -0.0000   -0.0288
C        -5.4031    2.1016    0.1242    0.0001   -0.0000   -0.0672
C        -3.0557   -5.7893    0.1313    0.0000   -0.0001   -0.0656
C        -1.6188   -2.2708    0.1299   -0.0000    0.0000    0.0300
C        -1.9171   -3.6897    0.1307   -0.0000   -0.0000    0.0049
C         3.2639    2.9186    0.1308   -0.0000   -0.0000    0.0050
C         2.9656    1.4998    0.1315   -0.0000    0.0000    0.0301
C        -4.7303    3.3435    0.1239    0.0001   -0.0000   -0.0654
C         3.6232   -0.7123    0.1333   -0.0000    0.0000    0.0297
C         4.6484   -1.7374    0.1346   -0.0000    0.0000    0.0042
C         2.5587   -2.6777    0.1336   -0.0000    0.0000    0.0302
C         3.9776   -2.9761    0.1348   -0.0000    0.0000    0.0051
C        -0.6784   -4.3606    0.1322   -0.0000   -0.0000    0.0043
C         0.3466   -3.3353    0.1323   -0.0000    0.0000    0.0299
C         1.9559    4.9872    0.1281    0.0000   -0.0000   -0.0314
C         4.4720    3.6248    0.1315    0.0000   -0.0000   -0.0292
C         3.1605    5.6910    0.1287    0.0001   -0.0001   -0.0671
C         4.4025    5.0182    0.1304    0.0001   -0.0001   -0.0656
C         6.0461   -1.6681    0.1356    0.0000    0.0000   -0.0316
C         4.6838   -4.1842    0.1359    0.0000   -0.0000   -0.0290
C         6.7499   -2.8727    0.1368    0.0001   -0.0000   -0.0671
C         6.0771   -4.1146    0.1369    0.0001   -0.0000   -0.0654
H         6.5562   -0.7047    0.1355    0.0000    0.0000   -0.0349
H         4.1560   -5.1380    0.1360    0.0000   -0.0000   -0.0299
H         6.6624   -5.0353    0.1378    0.0001   -0.0000   -0.0952
H        -5.2094   -0.0664    0.1257    0.0000    0.0000   -0.0350
H        -2.8092    4.3669    0.1248    0.0001   -0.0000   -0.0297
H        -5.3156    4.2642    0.1229    0.0001   -0.0000   -0.0951
H        -6.4939    2.0893    0.1234    0.0001   -0.0000   -0.0992
H         0.3542   -6.2683    0.1345    0.0000   -0.0000   -0.0344
H        -4.0791   -3.8681    0.1290    0.0000   -0.0000   -0.0304
H        -3.9763   -6.3745    0.1309    0.0001   -0.0001   -0.0954
H        -1.8014   -7.5529    0.1337    0.0001   -0.0001   -0.0988
H         0.9926    5.4972    0.1268    0.0000   -0.0000   -0.0344
H         5.4259    3.0971    0.1328    0.0000   -0.0000   -0.0304
H         5.3231    5.6035    0.1309    0.0001   -0.0001   -0.0955
H         3.1482    6.7818    0.1279    0.0001   -0.0001   -0.0990
H         7.8407   -2.8603    0.1376    0.0001   -0.0000   -0.0991
    57
stable frequency at     53.893 1/cm IR int. is 5.430 a.m.u.; force const. is 0.009 mDyne/Ang.
Fe        0.6734   -0.3855    0.1306   -0.0000   -0.0000   -0.0001
N         3.9138    0.5779    0.1328   -0.0000    0.0000    0.0457
N         1.6368   -3.6259    0.1334    0.0000   -0.0000   -0.0571
N        -0.2395   -2.0709    0.1309    0.0000   -0.0000   -0.0438
N        -1.0120    0.5273    0.1286   -0.0000    0.0000    0.0052
N         1.5863    1.2998    0.1304   -0.0000    0.0000    0.0438
N         2.3588   -1.2984    0.1326   -0.0000   -0.0000   -0.0053
N        -0.2900    2.8548    0.1277   -0.0000    0.0000    0.0571
N        -2.5670   -1.3489    0.1285    0.0000   -0.0000   -0.0458
C        -2.6308    2.2050    0.1263   -0.0000    0.0000    0.0321
C        -1.2119    1.9066    0.1276   -0.0000    0.0000    0.0403
C         1.0001    2.5643    0.1290   -0.0000    0.0000    0.0453
C         2.0252    3.5895    0.1292   -0.0000    0.0000    0.0209
C        -3.3016    0.9663    0.1265    0.0000   -0.0000   -0.0255
C        -2.2764   -0.0588    0.1280    0.0000   -0.0000   -0.0299
C        -0.6092   -5.7583    0.1333   -0.0000    0.0000    0.0160
C        -3.1252   -4.3959    0.1301   -0.0000    0.0000    0.0271
C        -1.8137   -6.4621    0.1328   -0.0001    0.0001    0.0620
C        -4.6993    0.8970    0.1255    0.0001   -0.0000   -0.0654
C        -3.3370    3.4131    0.1250   -0.0000    0.0000    0.0636
C        -5.4031    2.1016    0.1242    0.0000   -0.0000   -0.0394
C        -3.0557   -5.7893    0.1313   -0.0001    0.0001    0.0675
C        -1.6188   -2.2708    0.1299    0.0000   -0.0000   -0.0381
C        -1.9171   -3.6897    0.1307    0.0000   -0.0000   -0.0155
C         3.2639    2.9186    0.1308   -0.0000    0.0000    0.0155
C         2.9656    1.4998    0.1315   -0.0000    0.0000    0.0381
C        -4.7303    3.3435    0.1239   -0.0000    0.0000    0.0279
C         3.6232   -0.7123    0.1333   -0.0000    0.0000    0.0298
C         4.6484   -1.7374    0.1346   -0.0000    0.0000    0.0255
C         2.5587   -2.6777    0.1336    0.0000   -0.0000   -0.0403
C         3.9776   -2.9761    0.1348    0.0000   -0.0000   -0.0321
C        -0.6784   -4.3606    0.1322    0.0000   -0.0000   -0.0208
C         0.3466   -3.3353    0.1323    0.0000   -0.0000   -0.0453
C         1.9559    4.9872    0.1281    0.0000   -0.0000   -0.0159
C         4.4720    3.6248    0.1315    0.0000   -0.0000   -0.0270
C         3.1605    5.6910    0.1287    0.0001   -0.0001   -0.0619
C         4.4025    5.0182    0.1304    0.0001   -0.0001   -0.0674
C         6.0461   -1.6681    0.1356   -0.0001    0.0000    0.0654
C         4.6838   -4.1842    0.1359    0.0000   -0.0000   -0.0635
C         6.7499   -2.8727    0.1368   -0.0000    0.0000    0.0395
C         6.0771   -4.1146    0.1369    0.0000   -0.0000   -0.0278
H         6.5562   -0.7047    0.1355   -0.0001    0.0001    0.1166
H         4.1560   -5.1380    0.1360    0.0001   -0.0001   -0.1141
H         6.6624   -5.0353    0.1378    0.0000   -0.0000   -0.0505
H        -5.2094   -0.0664    0.1257    0.0001   -0.0001   -0.1166
H        -2.8092    4.3669    0.1248   -0.0001    0.0001    0.1142
H        -5.3156    4.2642    0.1229   -0.0000    0.0000    0.0507
H        -6.4939    2.0893    0.1234    0.0001   -0.0001   -0.0712
H         0.3542   -6.2683    0.1345   -0.0000    0.0000    0.0142
H        -4.0791   -3.8681    0.1290   -0.0000    0.0000    0.0340
H        -3.9763   -6.3745    0.1309   -0.0001    0.0001    0.1064
H        -1.8014   -7.5529    0.1337   -0.0001    0.0001    0.0974
H         0.9926    5.4972    0.1268    0.0000   -0.0000   -0.0141
H         5.4259    3.0971    0.1328    0.0000   -0.0000   -0.0340
H         5.3231    5.6035    0.1309    0.0001   -0.0001   -0.1063
H         3.1482    6.7818    0.1279    0.0001   -0.0001   -0.0972
H         7.8407   -2.8603    0.1376   -0.0001    0.0001    0.0713
    57
stable frequency at     53.935 1/cm IR int. is 5.431 a.m.u.; force const. is 0.009 mDyne/Ang.
Fe        0.6734   -0.3855    0.1306   -0.0000    0.0000    0.0000
N         3.9138    0.5779    0.1328    0.0001   -0.0000   -0.0571
N         1.6368   -3.6259    0.1334    0.0000   -0.0000   -0.0458
N        -0.2395   -2.0709    0.1309   -0.0000    0.0000    0.0052
N        -1.0120    0.5273    0.1286   -0.0000    0.0000    0.0438
N         1.5863    1.2998    0.1304    0.0000   -0.0000   -0.0052
N         2.3588   -1.2984    0.1326    0.0000   -0.0000   -0.0438
N        -0.2900    2.8548    0.1277   -0.0000    0.0000    0.0457
N        -2.5670   -1.3489    0.1285   -0.0001    0.0000    0.0572
C        -2.6308    2.2050    0.1263   -0.0000    0.0000    0.0155
C        -1.2119    1.9066    0.1276   -0.0000    0.0000    0.0381
C         1.0001    2.5643    0.1290   -0.0000    0.0000    0.0299
C         2.0252    3.5895    0.1292   -0.0000    0.0000    0.0255
C        -3.3016    0.9663    0.1265   -0.0000    0.0000    0.0209
C        -2.2764   -0.0588    0.1280   -0.0000    0.0000    0.0453
C        -0.6092   -5.7583    0.1333    0.0001   -0.0000   -0.0655
C        -3.1252   -4.3959    0.1301   -0.0000    0.0000    0.0636
C        -1.8137   -6.4621    0.1328    0.0001   -0.0000   -0.0396
C        -4.6993    0.8970    0.1255    0.0000    0.0000   -0.0159
C        -3.3370    3.4131    0.1250    0.0000    0.0000   -0.0271
C        -5.4031    2.1016    0.1242    0.0001    0.0000   -0.0619
C        -3.0557   -5.7893    0.1313    0.0000   -0.0000    0.0278
C        -1.6188   -2.2708    0.1299   -0.0000    0.0000    0.0403
C        -1.9171   -3.6897    0.1307   -0.0000    0.0000    0.0321
C         3.2639    2.9186    0.1308    0.0000   -0.0000   -0.0321
C         2.9656    1.4998    0.1315    0.0000   -0.0000   -0.0403
C        -4.7303    3.3435    0.1239    0.0001    0.0000   -0.0674
C         3.6232   -0.7123    0.1333    0.0000   -0.0000   -0.0453
C         4.6484   -1.7374    0.1346    0.0000   -0.0000   -0.0208
C         2.5587   -2.6777    0.1336    0.0000   -0.0000   -0.0381
C         3.9776   -2.9761    0.1348    0.0000   -0.0000   -0.0155
C        -0.6784   -4.3606    0.1322    0.0000   -0.0000   -0.0255
C         0.3466   -3.3353    0.1323    0.0000   -0.0000   -0.0299
C         1.9559    4.9872    0.1281   -0.0001    0.0000    0.0654
C         4.4720    3.6248    0.1315    0.0000   -0.0000   -0.0635
C         3.1605    5.6910    0.1287   -0.0001    0.0000    0.0395
C         4.4025    5.0182    0.1304   -0.0000    0.0000   -0.0278
C         6.0461   -1.6681    0.1356   -0.0000   -0.0000    0.0159
C         4.6838   -4.1842    0.1359   -0.0000   -0.0000    0.0270
C         6.7499   -2.8727    0.1368   -0.0001   -0.0000    0.0619
C         6.0771   -4.1146    0.1369   -0.0001   -0.0000    0.0674
H         6.5562   -0.7047    0.1355    0.0000   -0.0000    0.0142
H         4.1560   -5.1380    0.1360   -0.0001    0.0000    0.0339
H         6.6624   -5.0353    0.1378   -0.0001   -0.0000    0.1063
H        -5.2094   -0.0664    0.1257   -0.0000    0.0000   -0.0141
H        -2.8092    4.3669    0.1248    0.0001   -0.0000   -0.0340
H        -5.3156    4.2642    0.1229    0.0001   -0.0000   -0.1064
H        -6.4939    2.0893    0.1234    0.0001   -0.0000   -0.0972
H         0.3542   -6.2683    0.1345    0.0002   -0.0001   -0.1167
H        -4.0791   -3.8681    0.1290   -0.0001    0.0000    0.1142
H        -3.9763   -6.3745    0.1309    0.0000   -0.0000    0.0506
H        -1.8014   -7.5529    0.1337    0.0001   -0.0001   -0.0713
H         0.9926    5.4972    0.1268   -0.0002    0.0001    0.1165
H         5.4259    3.0971    0.1328    0.0001   -0.0000   -0.1141
H         5.3231    5.6035    0.1309   -0.0000    0.0000   -0.0506
H         3.1482    6.7818    0.1279   -0.0001    0.0001    0.0712
H         7.8407   -2.8603    0.1376   -0.0001   -0.0000    0.0973
    57
stable frequency at    104.129 1/cm IR int. is 3.836 a.m.u.; force const. is 0.025 mDyne/Ang.
Fe        0.6734   -0.3855    0.1306   -0.0000   -0.0000    0.0019
N         3.9138    0.5779    0.1328   -0.0000   -0.0000    0.0001
N         1.6368   -3.6259    0.1334   -0.0000   -0.0000    0.0001
N        -0.2395   -2.0709    0.1309   -0.0000   -0.0000    0.0011
N        -1.0120    0.5273    0.1286   -0.0000   -0.0000    0.0010
N         1.5863    1.2998    0.1304   -0.0000   -0.0000    0.0010
N         2.3588   -1.2984    0.1326   -0.0000   -0.0000    0.0011
N        -0.2900    2.8548    0.1277    0.0000   -0.0000    0.0001
N        -2.5670   -1.3489    0.1285   -0.0000   -0.0000    0.0001
C        -2.6308    2.2050    0.1263    0.0000   -0.0000   -0.0269
C        -1.2119    1.9066    0.1276    0.0000   -0.0000   -0.0166
C         1.0001    2.5643    0.1290   -0.0000   -0.0000    0.0173
C         2.0252    3.5895    0.1292   -0.0000   -0.0000    0.0260
C        -3.3016    0.9663    0.1265   -0.0000    0.0000    0.0259
C        -2.2764   -0.0588    0.1280   -0.0000   -0.0000    0.0172
C        -0.6092   -5.7583    0.1333   -0.0001    0.0000    0.0736
C        -3.1252   -4.3959    0.1301    0.0001   -0.0001   -0.0752
C        -1.8137   -6.4621    0.1328   -0.0000    0.0000    0.0423
C        -4.6993    0.8970    0.1255   -0.0001    0.0001    0.0736
C        -3.3370    3.4131    0.1250    0.0001   -0.0000   -0.0752
C        -5.4031    2.1016    0.1242    0.0000    0.0002    0.0423
C        -3.0557   -5.7893    0.1313    0.0000   -0.0001   -0.0438
C        -1.6188   -2.2708    0.1299    0.0000   -0.0000   -0.0166
C        -1.9171   -3.6897    0.1307    0.0000   -0.0000   -0.0269
C         3.2639    2.9186    0.1308    0.0000   -0.0000   -0.0269
C         2.9656    1.4998    0.1315    0.0000   -0.0000   -0.0166
C        -4.7303    3.3435    0.1239    0.0001    0.0001   -0.0438
C         3.6232   -0.7123    0.1333   -0.0000   -0.0000    0.0173
C         4.6484   -1.7374    0.1346   -0.0000    0.0000    0.0260
C         2.5587   -2.6777    0.1336    0.0000   -0.0000   -0.0166
C         3.9776   -2.9761    0.1348    0.0000   -0.0000   -0.0269
C        -0.6784   -4.3606    0.1322   -0.0000    0.0000    0.0260
C         0.3466   -3.3353    0.1323   -0.0000   -0.0000    0.0173
C         1.9559    4.9872    0.1281   -0.0001    0.0000    0.0736
C         4.4720    3.6248    0.1315    0.0001   -0.0000   -0.0752
C         3.1605    5.6910    0.1287   -0.0001    0.0000    0.0423
C         4.4025    5.0182    0.1304   -0.0000   -0.0000   -0.0438
C         6.0461   -1.6681    0.1356   -0.0001    0.0001    0.0736
C         4.6838   -4.1842    0.1359    0.0001   -0.0000   -0.0752
C         6.7499   -2.8727    0.1368   -0.0000    0.0001    0.0423
C         6.0771   -4.1146    0.1369    0.0001    0.0000   -0.0438
H         6.5562   -0.7047    0.1355   -0.0001    0.0001    0.1324
H         4.1560   -5.1380    0.1360    0.0002   -0.0001   -0.1340
H         6.6624   -5.0353    0.1378    0.0001    0.0000   -0.0808
H        -5.2094   -0.0664    0.1257   -0.0002    0.0002    0.1324
H        -2.8092    4.3669    0.1248    0.0002   -0.0001   -0.1340
H        -5.3156    4.2642    0.1229    0.0002    0.0001   -0.0807
H        -6.4939    2.0893    0.1234   -0.0000    0.0002    0.0801
H         0.3542   -6.2683    0.1345   -0.0001    0.0001    0.1324
H        -4.0791   -3.8681    0.1290    0.0001   -0.0001   -0.1340
H        -3.9763   -6.3745    0.1309    0.0001   -0.0001   -0.0808
H        -1.8014   -7.5529    0.1337   -0.0001    0.0000    0.0801
H         0.9926    5.4972    0.1268   -0.0002    0.0001    0.1324
H         5.4259    3.0971    0.1328    0.0001   -0.0001   -0.1341
H         5.3231    5.6035    0.1309    0.0000   -0.0000   -0.0808
H         3.1482    6.7818    0.1279   -0.0001    0.0001    0.0801
H         7.8407   -2.8603    0.1376   -0.0000    0.0001    0.0801
    57
stable frequency at    111.126 1/cm IR int. is 5.039 a.m.u.; force const. is 0.037 mDyne/Ang.
Fe        0.6734   -0.3855    0.1306    0.0000   -0.0000   -0.0000
N         3.9138    0.5779    0.1328    0.0173    0.0050    0.0001
N         1.6368   -3.6259    0.1334   -0.0050    0.0173   -0.0001
N        -0.2395   -2.0709    0.1309   -0.0129    0.0072   -0.0002
N        -1.0120    0.5273    0.1286   -0.0072   -0.0129    0.0000
N         1.5863    1.2998    0.1304    0.0129   -0.0073    0.0002
N         2.3588   -1.2984    0.1326    0.0072    0.0129   -0.0000
N        -0.2900    2.8548    0.1277    0.0050   -0.0173    0.0001
N        -2.5670   -1.3489    0.1285   -0.0173   -0.0050   -0.0001
C        -2.6308    2.2050    0.1263    0.0132    0.0025   -0.0000
C        -1.2119    1.9066    0.1276    0.0045   -0.0142    0.0000
C         1.0001    2.5643    0.1290    0.0037   -0.0148    0.0002
C         2.0252    3.5895    0.1292   -0.0127   -0.0056    0.0002
C        -3.3016    0.9663    0.1265   -0.0056    0.0127    0.0001
C        -2.2764   -0.0588    0.1280   -0.0148   -0.0037    0.0000
C        -0.6092   -5.7583    0.1333    0.0522    0.0086    0.0000
C        -3.1252   -4.3959    0.1301    0.0214   -0.0476   -0.0001
C        -1.8137   -6.4621    0.1328    0.0717   -0.0217    0.0003
C        -4.6993    0.8970    0.1255   -0.0086    0.0522    0.0002
C        -3.3370    3.4131    0.1250    0.0476    0.0214   -0.0002
C        -5.4031    2.1016    0.1242    0.0217    0.0717    0.0001
C        -3.0557   -5.7893    0.1313    0.0578   -0.0472    0.0002
C        -1.6188   -2.2708    0.1299   -0.0142   -0.0045   -0.0003
C        -1.9171   -3.6897    0.1307    0.0025   -0.0132   -0.0002
C         3.2639    2.9186    0.1308   -0.0025    0.0132    0.0003
C         2.9656    1.4998    0.1315    0.0142    0.0045    0.0003
C        -4.7303    3.3435    0.1239    0.0472    0.0578   -0.0002
C         3.6232   -0.7123    0.1333    0.0148    0.0037   -0.0000
C         4.6484   -1.7374    0.1346    0.0056   -0.0127   -0.0001
C         2.5587   -2.6777    0.1336   -0.0045    0.0142    0.0000
C         3.9776   -2.9761    0.1348   -0.0132   -0.0025    0.0001
C        -0.6784   -4.3606    0.1322    0.0127    0.0056   -0.0002
C         0.3466   -3.3353    0.1323   -0.0037    0.0148   -0.0002
C         1.9559    4.9872    0.1281   -0.0522   -0.0086   -0.0001
C         4.4720    3.6248    0.1315   -0.0214    0.0476    0.0001
C         3.1605    5.6910    0.1287   -0.0717    0.0217   -0.0003
C         4.4025    5.0182    0.1304   -0.0578    0.0472   -0.0002
C         6.0461   -1.6681    0.1356    0.0086   -0.0522   -0.0003
C         4.6838   -4.1842    0.1359   -0.0476   -0.0214    0.0003
C         6.7499   -2.8727    0.1368   -0.0217   -0.0717   -0.0002
C         6.0771   -4.1146    0.1369   -0.0472   -0.0578    0.0002
H         6.5562   -0.7047    0.1355    0.0386   -0.0681   -0.0005
H         4.1560   -5.1380    0.1360   -0.0759   -0.0056    0.0005
H         6.6624   -5.0353    0.1378   -0.0685   -0.0714    0.0004
H        -5.2094   -0.0664    0.1257   -0.0386    0.0682    0.0004
H        -2.8092    4.3669    0.1248    0.0760    0.0056   -0.0004
H        -5.3156    4.2642    0.1229    0.0685    0.0714   -0.0004
H        -6.4939    2.0893    0.1234    0.0214    0.0967    0.0002
H         0.3542   -6.2683    0.1345    0.0681    0.0386    0.0001
H        -4.0791   -3.8681    0.1290    0.0056   -0.0760   -0.0001
H        -3.9763   -6.3745    0.1309    0.0714   -0.0685    0.0004
H        -1.8014   -7.5529    0.1337    0.0967   -0.0214    0.0005
H         0.9926    5.4972    0.1268   -0.0682   -0.0386   -0.0002
H         5.4259    3.0971    0.1328   -0.0056    0.0760    0.0002
H         5.3231    5.6035    0.1309   -0.0714    0.0685   -0.0004
H         3.1482    6.7818    0.1279   -0.0967    0.0214   -0.0006
H         7.8407   -2.8603    0.1376   -0.0214   -0.0967   -0.0003
    57
stable frequency at    115.486 1/cm IR int. is 4.973 a.m.u.; force const. is 0.039 mDyne/Ang.
Fe        0.6734   -0.3855    0.1306    0.0000    0.0000    0.0000
N         3.9138    0.5779    0.1328    0.0001    0.0000   -0.0184
N         1.6368   -3.6259    0.1334   -0.0000    0.0001    0.0151
N        -0.2395   -2.0709    0.1309   -0.0001    0.0001    0.0530
N        -1.0120    0.5273    0.1286   -0.0000   -0.0000    0.0071
N         1.5863    1.2998    0.1304    0.0001   -0.0000   -0.0530
N         2.3588   -1.2984    0.1326    0.0000    0.0001   -0.0071
N        -0.2900    2.8548    0.1277    0.0000   -0.0001   -0.0152
N        -2.5670   -1.3489    0.1285   -0.0001   -0.0000    0.0184
C        -2.6308    2.2050    0.1263    0.0000    0.0000    0.0322
C        -1.2119    1.9066    0.1276    0.0000   -0.0000    0.0158
C         1.0001    2.5643    0.1290    0.0001   -0.0001   -0.0544
C         2.0252    3.5895    0.1292    0.0000   -0.0000   -0.0598
C        -3.3016    0.9663    0.1265    0.0000    0.0000   -0.0155
C        -2.2764   -0.0588    0.1280   -0.0000   -0.0000   -0.0013
C        -0.6092   -5.7583    0.1333    0.0002    0.0000    0.0229
C        -3.1252   -4.3959    0.1301    0.0001   -0.0002   -0.0008
C        -1.8137   -6.4621    0.1328    0.0003   -0.0001   -0.0363
C        -4.6993    0.8970    0.1255    0.0001    0.0001   -0.0710
C        -3.3370    3.4131    0.1250    0.0001    0.0001    0.0752
C        -5.4031    2.1016    0.1242    0.0001    0.0001   -0.0495
C        -3.0557   -5.7893    0.1313    0.0003   -0.0002   -0.0501
C        -1.6188   -2.2708    0.1299   -0.0001    0.0000    0.0504
C        -1.9171   -3.6897    0.1307   -0.0000   -0.0000    0.0516
C         3.2639    2.9186    0.1308    0.0001    0.0000   -0.0517
C         2.9656    1.4998    0.1315    0.0001    0.0000   -0.0504
C        -4.7303    3.3435    0.1239    0.0001    0.0002    0.0379
C         3.6232   -0.7123    0.1333    0.0001    0.0000    0.0014
C         4.6484   -1.7374    0.1346    0.0000   -0.0000    0.0155
C         2.5587   -2.6777    0.1336   -0.0000    0.0001   -0.0157
C         3.9776   -2.9761    0.1348   -0.0001   -0.0000   -0.0321
C        -0.6784   -4.3606    0.1322   -0.0000    0.0001    0.0597
C         0.3466   -3.3353    0.1323   -0.0001    0.0001    0.0544
C         1.9559    4.9872    0.1281   -0.0002   -0.0000   -0.0229
C         4.4720    3.6248    0.1315   -0.0001    0.0002    0.0008
C         3.1605    5.6910    0.1287   -0.0003    0.0001    0.0364
C         4.4025    5.0182    0.1304   -0.0003    0.0003    0.0501
C         6.0461   -1.6681    0.1356   -0.0000   -0.0002    0.0710
C         4.6838   -4.1842    0.1359   -0.0002   -0.0001   -0.0752
C         6.7499   -2.8727    0.1368   -0.0002   -0.0003    0.0494
C         6.0771   -4.1146    0.1369   -0.0002   -0.0003   -0.0379
H         6.5562   -0.7047    0.1355    0.0001   -0.0003    0.1287
H         4.1560   -5.1380    0.1360   -0.0003   -0.0001   -0.1317
H         6.6624   -5.0353    0.1378   -0.0003   -0.0004   -0.0694
H        -5.2094   -0.0664    0.1257    0.0000    0.0001   -0.1288
H        -2.8092    4.3669    0.1248    0.0001    0.0001    0.1318
H        -5.3156    4.2642    0.1229    0.0001    0.0002    0.0693
H        -6.4939    2.0893    0.1234    0.0002    0.0002   -0.0948
H         0.3542   -6.2683    0.1345    0.0002    0.0002    0.0281
H        -4.0791   -3.8681    0.1290    0.0000   -0.0003   -0.0139
H        -3.9763   -6.3745    0.1309    0.0004   -0.0003   -0.1019
H        -1.8014   -7.5529    0.1337    0.0004   -0.0001   -0.0763
H         0.9926    5.4972    0.1268   -0.0002   -0.0001   -0.0282
H         5.4259    3.0971    0.1328   -0.0000    0.0003    0.0140
H         5.3231    5.6035    0.1309   -0.0004    0.0004    0.1020
H         3.1482    6.7818    0.1279   -0.0004    0.0002    0.0763
H         7.8407   -2.8603    0.1376   -0.0002   -0.0004    0.0947
    57
stable frequency at    115.499 1/cm IR int. is 4.974 a.m.u.; force const. is 0.039 mDyne/Ang.
Fe        0.6734   -0.3855    0.1306   -0.0000    0.0000   -0.0000
N         3.9138    0.5779    0.1328   -0.0000   -0.0000   -0.0152
N         1.6368   -3.6259    0.1334    0.0000   -0.0000   -0.0184
N        -0.2395   -2.0709    0.1309    0.0000    0.0000   -0.0071
N        -1.0120    0.5273    0.1286   -0.0001    0.0001    0.0530
N         1.5863    1.2998    0.1304   -0.0000    0.0000    0.0071
N         2.3588   -1.2984    0.1326    0.0000   -0.0000   -0.0530
N        -0.2900    2.8548    0.1277   -0.0000    0.0000    0.0184
N        -2.5670   -1.3489    0.1285   -0.0000    0.0000    0.0152
C        -2.6308    2.2050    0.1263   -0.0001    0.0000    0.0516
C        -1.2119    1.9066    0.1276   -0.0001    0.0001    0.0504
C         1.0001    2.5643    0.1290   -0.0000    0.0000   -0.0013
C         2.0252    3.5895    0.1292    0.0000   -0.0000   -0.0155
C        -3.3016    0.9663    0.1265   -0.0001    0.0000    0.0598
C        -2.2764   -0.0588    0.1280   -0.0000    0.0001    0.0544
C        -0.6092   -5.7583    0.1333   -0.0001    0.0001    0.0710
C        -3.1252   -4.3959    0.1301    0.0001   -0.0001   -0.0752
C        -1.8137   -6.4621    0.1328   -0.0000    0.0000    0.0494
C        -4.6993    0.8970    0.1255   -0.0000   -0.0000    0.0229
C        -3.3370    3.4131    0.1250   -0.0001   -0.0000   -0.0008
C        -5.4031    2.1016    0.1242   -0.0000   -0.0001   -0.0363
C        -3.0557   -5.7893    0.1313    0.0000   -0.0000   -0.0379
C        -1.6188   -2.2708    0.1299    0.0000   -0.0000   -0.0157
C        -1.9171   -3.6897    0.1307    0.0000   -0.0000   -0.0321
C         3.2639    2.9186    0.1308   -0.0000   -0.0000    0.0321
C         2.9656    1.4998    0.1315   -0.0001   -0.0000    0.0158
C        -4.7303    3.3435    0.1239   -0.0001   -0.0001   -0.0501
C         3.6232   -0.7123    0.1333    0.0000   -0.0000   -0.0544
C         4.6484   -1.7374    0.1346    0.0000   -0.0000   -0.0598
C         2.5587   -2.6777    0.1336    0.0000   -0.0000   -0.0504
C         3.9776   -2.9761    0.1348    0.0001   -0.0000   -0.0517
C        -0.6784   -4.3606    0.1322   -0.0000    0.0000    0.0155
C         0.3466   -3.3353    0.1323   -0.0000    0.0000    0.0014
C         1.9559    4.9872    0.1281    0.0002   -0.0000   -0.0710
C         4.4720    3.6248    0.1315   -0.0000   -0.0001    0.0752
C         3.1605    5.6910    0.1287    0.0002   -0.0001   -0.0494
C         4.4025    5.0182    0.1304    0.0001   -0.0001    0.0379
C         6.0461   -1.6681    0.1356    0.0000    0.0001   -0.0229
C         4.6838   -4.1842    0.1359    0.0001    0.0000    0.0007
C         6.7499   -2.8727    0.1368   -0.0000    0.0001    0.0364
C         6.0771   -4.1146    0.1369    0.0000    0.0001    0.0501
H         6.5562   -0.7047    0.1355   -0.0000    0.0001   -0.0281
H         4.1560   -5.1380    0.1360    0.0001    0.0000    0.0139
H         6.6624   -5.0353    0.1378    0.0000    0.0001    0.1020
H        -5.2094   -0.0664    0.1257    0.0000   -0.0001    0.0282
H        -2.8092    4.3669    0.1248   -0.0001    0.0000   -0.0140
H        -5.3156    4.2642    0.1229   -0.0001   -0.0001   -0.1019
H        -6.4939    2.0893    0.1234   -0.0000   -0.0002   -0.0763
H         0.3542   -6.2683    0.1345   -0.0001    0.0001    0.1287
H        -4.0791   -3.8681    0.1290    0.0001   -0.0001   -0.1318
H        -3.9763   -6.3745    0.1309    0.0001   -0.0001   -0.0694
H        -1.8014   -7.5529    0.1337   -0.0001    0.0001    0.0948
H         0.9926    5.4972    0.1268    0.0003   -0.0000   -0.1287
H         5.4259    3.0971    0.1328   -0.0001   -0.0001    0.1317
H         5.3231    5.6035    0.1309    0.0001   -0.0001    0.0693
H         3.1482    6.7818    0.1279    0.0003   -0.0001   -0.0948
H         7.8407   -2.8603    0.1376   -0.0000    0.0002    0.0764
    57
stable frequency at    118.455 1/cm IR int. is 5.346 a.m.u.; force const. is 0.044 mDyne/Ang.
Fe        0.6734   -0.3855    0.1306    0.0236    0.0139    0.0001
N         3.9138    0.5779    0.1328    0.0218    0.0087    0.0001
N         1.6368   -3.6259    0.1334    0.0062    0.0079   -0.0001
N        -0.2395   -2.0709    0.1309    0.0190    0.0095    0.0000
N        -1.0120    0.5273    0.1286    0.0189    0.0128   -0.0000
N         1.5863    1.2998    0.1304    0.0190    0.0095    0.0001
N         2.3588   -1.2984    0.1326    0.0189    0.0128   -0.0000
N        -0.2900    2.8548    0.1277    0.0062    0.0079   -0.0000
N        -2.5670   -1.3489    0.1285    0.0218    0.0087    0.0000
C        -2.6308    2.2050    0.1263   -0.0054   -0.0033   -0.0002
C        -1.2119    1.9066    0.1276    0.0039    0.0116   -0.0001
C         1.0001    2.5643    0.1290    0.0081    0.0051    0.0001
C         2.0252    3.5895    0.1292    0.0001    0.0085    0.0001
C        -3.3016    0.9663    0.1265    0.0165   -0.0141   -0.0000
C        -2.2764   -0.0588    0.1280    0.0259    0.0052    0.0000
C        -0.6092   -5.7583    0.1333   -0.0267    0.0071    0.0000
C        -3.1252   -4.3959    0.1301   -0.0057    0.0476   -0.0001
C        -1.8137   -6.4621    0.1328   -0.0412    0.0294   -0.0000
C        -4.6993    0.8970    0.1255    0.0205   -0.0626    0.0002
C        -3.3370    3.4131    0.1250   -0.0455   -0.0258   -0.0002
C        -5.4031    2.1016    0.1242   -0.0153   -0.0858    0.0001
C        -3.0557   -5.7893    0.1313   -0.0313    0.0474   -0.0001
C        -1.6188   -2.2708    0.1299    0.0215    0.0132    0.0000
C        -1.9171   -3.6897    0.1307    0.0085    0.0207    0.0000
C         3.2639    2.9186    0.1308    0.0085    0.0207    0.0001
C         2.9656    1.4998    0.1315    0.0215    0.0132    0.0001
C        -4.7303    3.3435    0.1239   -0.0454   -0.0696   -0.0001
C         3.6232   -0.7123    0.1333    0.0259    0.0052   -0.0000
C         4.6484   -1.7374    0.1346    0.0165   -0.0141   -0.0001
C         2.5587   -2.6777    0.1336    0.0039    0.0116   -0.0001
C         3.9776   -2.9761    0.1348   -0.0054   -0.0033   -0.0002
C        -0.6784   -4.3606    0.1322    0.0001    0.0085    0.0000
C         0.3466   -3.3353    0.1323    0.0081    0.0051    0.0000
C         1.9559    4.9872    0.1281   -0.0267    0.0071    0.0000
C         4.4720    3.6248    0.1315   -0.0057    0.0476   -0.0000
C         3.1605    5.6910    0.1287   -0.0412    0.0294   -0.0001
C         4.4025    5.0182    0.1304   -0.0313    0.0474   -0.0002
C         6.0461   -1.6681    0.1356    0.0205   -0.0626    0.0000
C         4.6838   -4.1842    0.1359   -0.0455   -0.0258   -0.0001
C         6.7499   -2.8727    0.1368   -0.0153   -0.0858    0.0001
C         6.0771   -4.1146    0.1369   -0.0454   -0.0696    0.0001
H         6.5562   -0.7047    0.1355    0.0567   -0.0819    0.0001
H         4.1560   -5.1380    0.1360   -0.0800   -0.0066   -0.0001
H         6.6624   -5.0353    0.1378   -0.0707   -0.0858    0.0002
H        -5.2094   -0.0664    0.1257    0.0567   -0.0819    0.0003
H        -2.8092    4.3669    0.1248   -0.0800   -0.0066   -0.0004
H        -5.3156    4.2642    0.1229   -0.0707   -0.0858    0.0000
H        -6.4939    2.0893    0.1234   -0.0149   -0.1151    0.0003
H         0.3542   -6.2683    0.1345   -0.0381   -0.0145    0.0001
H        -4.0791   -3.8681    0.1290    0.0064    0.0688   -0.0001
H        -3.9763   -6.3745    0.1309   -0.0405    0.0617   -0.0002
H        -1.8014   -7.5529    0.1337   -0.0591    0.0292   -0.0000
H         0.9926    5.4972    0.1268   -0.0381   -0.0145    0.0000
H         5.4259    3.0971    0.1328    0.0064    0.0688   -0.0000
H         5.3231    5.6035    0.1309   -0.0405    0.0617   -0.0003
H         3.1482    6.7818    0.1279   -0.0592    0.0292   -0.0002
H         7.8407   -2.8603    0.1376   -0.0149   -0.1151    0.0002
    57
stable frequency at    118.459 1/cm IR int. is 5.346 a.m.u.; force const. is 0.044 mDyne/Ang.
Fe        0.6734   -0.3855    0.1306   -0.0139    0.0236    0.0000
N         3.9138    0.5779    0.1328   -0.0079    0.0062   -0.0000
N         1.6368   -3.6259    0.1334   -0.0087    0.0218   -0.0000
N        -0.2395   -2.0709    0.1309   -0.0128    0.0189   -0.0000
N        -1.0120    0.5273    0.1286   -0.0095    0.0190   -0.0001
N         1.5863    1.2998    0.1304   -0.0128    0.0189   -0.0000
N         2.3588   -1.2984    0.1326   -0.0095    0.0190    0.0001
N        -0.2900    2.8548    0.1277   -0.0087    0.0218   -0.0000
N        -2.5670   -1.3489    0.1285   -0.0079    0.0062   -0.0001
C        -2.6308    2.2050    0.1263   -0.0207    0.0085   -0.0001
C        -1.2119    1.9066    0.1276   -0.0132    0.0215   -0.0001
C         1.0001    2.5643    0.1290   -0.0052    0.0259    0.0000
C         2.0252    3.5895    0.1292    0.0141    0.0165    0.0000
C        -3.3016    0.9663    0.1265   -0.0085    0.0001   -0.0000
C        -2.2764   -0.0588    0.1280   -0.0051    0.0081   -0.0000
C        -0.6092   -5.7583    0.1333    0.0626    0.0205   -0.0000
C        -3.1252   -4.3959    0.1301    0.0258   -0.0455    0.0000
C        -1.8137   -6.4621    0.1328    0.0858   -0.0153    0.0001
C        -4.6993    0.8970    0.1255   -0.0071   -0.0267    0.0001
C        -3.3370    3.4131    0.1250   -0.0476   -0.0057   -0.0001
C        -5.4031    2.1016    0.1242   -0.0294   -0.0412    0.0001
C        -3.0557   -5.7893    0.1313    0.0696   -0.0454    0.0001
C        -1.6188   -2.2708    0.1299   -0.0116    0.0039   -0.0001
C        -1.9171   -3.6897    0.1307    0.0033   -0.0054   -0.0000
C         3.2639    2.9186    0.1308    0.0033   -0.0054   -0.0000
C         2.9656    1.4998    0.1315   -0.0116    0.0039   -0.0000
C        -4.7303    3.3435    0.1239   -0.0474   -0.0313   -0.0000
C         3.6232   -0.7123    0.1333   -0.0051    0.0081    0.0001
C         4.6484   -1.7374    0.1346   -0.0085    0.0001    0.0001
C         2.5587   -2.6777    0.1336   -0.0132    0.0215    0.0000
C         3.9776   -2.9761    0.1348   -0.0207    0.0085    0.0000
C        -0.6784   -4.3606    0.1322    0.0141    0.0165   -0.0000
C         0.3466   -3.3353    0.1323   -0.0052    0.0259   -0.0000
C         1.9559    4.9872    0.1281    0.0626    0.0205    0.0001
C         4.4720    3.6248    0.1315    0.0258   -0.0455   -0.0001
C         3.1605    5.6910    0.1287    0.0858   -0.0153    0.0001
C         4.4025    5.0182    0.1304    0.0696   -0.0454    0.0000
C         6.0461   -1.6681    0.1356   -0.0071   -0.0267    0.0000
C         4.6838   -4.1842    0.1359   -0.0476   -0.0057   -0.0000
C         6.7499   -2.8727    0.1368   -0.0294   -0.0412   -0.0000
C         6.0771   -4.1146    0.1369   -0.0474   -0.0313   -0.0001
H         6.5562   -0.7047    0.1355    0.0145   -0.0381    0.0001
H         4.1560   -5.1380    0.1360   -0.0689    0.0064   -0.0001
H         6.6624   -5.0353    0.1378   -0.0617   -0.0405   -0.0001
H        -5.2094   -0.0664    0.1257    0.0145   -0.0381    0.0001
H        -2.8092    4.3669    0.1248   -0.0688    0.0064   -0.0002
H        -5.3156    4.2642    0.1229   -0.0617   -0.0405   -0.0000
H        -6.4939    2.0893    0.1234   -0.0292   -0.0591    0.0002
H         0.3542   -6.2683    0.1345    0.0819    0.0567   -0.0000
H        -4.0791   -3.8681    0.1290    0.0066   -0.0800    0.0001
H        -3.9763   -6.3745    0.1309    0.0858   -0.0708    0.0002
H        -1.8014   -7.5529    0.1337    0.1151   -0.0149    0.0001
H         0.9926    5.4972    0.1268    0.0819    0.0567    0.0002
H         5.4259    3.0971    0.1328    0.0066   -0.0800   -0.0002
H         5.3231    5.6035    0.1309    0.0858   -0.0707    0.0000
H         3.1482    6.7818    0.1279    0.1151   -0.0149    0.0002
H         7.8407   -2.8603    0.1376   -0.0292   -0.0592   -0.0001
    57
stable frequency at    126.882 1/cm IR int. is 6.821 a.m.u.; force const. is 0.065 mDyne/Ang.
Fe        0.6734   -0.3855    0.1306   -0.0000   -0.0000    0.0000
N         3.9138    0.5779    0.1328   -0.0000   -0.0000   -0.0011
N         1.6368   -3.6259    0.1334   -0.0000   -0.0000    0.0011
N        -0.2395   -2.0709    0.1309   -0.0001    0.0000    0.0451
N        -1.0120    0.5273    0.1286    0.0000   -0.0000   -0.0451
N         1.5863    1.2998    0.1304   -0.0001    0.0000    0.0451
N         2.3588   -1.2984    0.1326    0.0000   -0.0000   -0.0451
N        -0.2900    2.8548    0.1277   -0.0000   -0.0000    0.0011
N        -2.5670   -1.3489    0.1285   -0.0000   -0.0000   -0.0011
C        -2.6308    2.2050    0.1263    0.0001   -0.0000   -0.0638
C        -1.2119    1.9066    0.1276    0.0000   -0.0000   -0.0477
C         1.0001    2.5643    0.1290   -0.0001    0.0000    0.0490
C         2.0252    3.5895    0.1292   -0.0001    0.0000    0.0645
C        -3.3016    0.9663    0.1265    0.0000   -0.0000   -0.0646
C        -2.2764   -0.0588    0.1280    0.0000   -0.0000   -0.0491
C        -0.6092   -5.7583    0.1333    0.0000    0.0000    0.0171
C        -3.1252   -4.3959    0.1301    0.0000   -0.0001    0.0164
C        -1.8137   -6.4621    0.1328    0.0001   -0.0001   -0.0417
C        -4.6993    0.8970    0.1255   -0.0000    0.0001   -0.0172
C        -3.3370    3.4131    0.1250    0.0001    0.0000   -0.0163
C        -5.4031    2.1016    0.1242   -0.0000    0.0001    0.0417
C        -3.0557   -5.7893    0.1313    0.0001   -0.0001   -0.0417
C        -1.6188   -2.2708    0.1299   -0.0001    0.0000    0.0477
C        -1.9171   -3.6897    0.1307   -0.0001    0.0000    0.0638
C         3.2639    2.9186    0.1308   -0.0001    0.0000    0.0638
C         2.9656    1.4998    0.1315   -0.0001    0.0000    0.0477
C        -4.7303    3.3435    0.1239    0.0000    0.0001    0.0418
C         3.6232   -0.7123    0.1333    0.0000   -0.0000   -0.0490
C         4.6484   -1.7374    0.1346    0.0000   -0.0000   -0.0645
C         2.5587   -2.6777    0.1336    0.0000   -0.0000   -0.0477
C         3.9776   -2.9761    0.1348    0.0001   -0.0000   -0.0638
C        -0.6784   -4.3606    0.1322   -0.0000    0.0000    0.0645
C         0.3466   -3.3353    0.1323   -0.0001    0.0000    0.0491
C         1.9559    4.9872    0.1281    0.0000   -0.0000    0.0171
C         4.4720    3.6248    0.1315    0.0000   -0.0001    0.0163
C         3.1605    5.6910    0.1287    0.0001   -0.0001   -0.0417
C         4.4025    5.0182    0.1304    0.0001   -0.0001   -0.0417
C         6.0461   -1.6681    0.1356   -0.0000    0.0001   -0.0171
C         4.6838   -4.1842    0.1359    0.0001    0.0000   -0.0164
C         6.7499   -2.8727    0.1368   -0.0000    0.0001    0.0417
C         6.0771   -4.1146    0.1369    0.0000    0.0001    0.0417
H         6.5562   -0.7047    0.1355   -0.0001    0.0001   -0.0098
H         4.1560   -5.1380    0.1360    0.0001    0.0000   -0.0086
H         6.6624   -5.0353    0.1378    0.0000    0.0001    0.0932
H        -5.2094   -0.0664    0.1257   -0.0001    0.0001   -0.0099
H        -2.8092    4.3669    0.1248    0.0001    0.0000   -0.0085
H        -5.3156    4.2642    0.1229    0.0000    0.0002    0.0932
H        -6.4939    2.0893    0.1234   -0.0001    0.0002    0.0939
H         0.3542   -6.2683    0.1345    0.0001    0.0000    0.0098
H        -4.0791   -3.8681    0.1290   -0.0000   -0.0001    0.0086
H        -3.9763   -6.3745    0.1309    0.0001   -0.0002   -0.0932
H        -1.8014   -7.5529    0.1337    0.0002   -0.0001   -0.0939
H         0.9926    5.4972    0.1268    0.0001    0.0000    0.0099
H         5.4259    3.0971    0.1328   -0.0000   -0.0001    0.0085
H         5.3231    5.6035    0.1309    0.0002   -0.0002   -0.0931
H         3.1482    6.7818    0.1279    0.0002   -0.0001   -0.0938
H         7.8407   -2.8603    0.1376   -0.0001    0.0002    0.0939
    57
stable frequency at    155.508 1/cm IR int. is 11.623 a.m.u.; force const. is 0.166 mDyne/Ang.
Fe        0.6734   -0.3855    0.1306    0.0001   -0.0000   -0.0959
N         3.9138    0.5779    0.1328   -0.0000    0.0000    0.0394
N         1.6368   -3.6259    0.1334   -0.0000    0.0000    0.0395
N        -0.2395   -2.0709    0.1309    0.0000   -0.0000   -0.0200
N        -1.0120    0.5273    0.1286    0.0000    0.0000   -0.0200
N         1.5863    1.2998    0.1304    0.0000   -0.0000   -0.0200
N         2.3588   -1.2984    0.1326    0.0000    0.0000   -0.0200
N        -0.2900    2.8548    0.1277   -0.0000    0.0000    0.0395
N        -2.5670   -1.3489    0.1285   -0.0000    0.0000    0.0395
C        -2.6308    2.2050    0.1263   -0.0000    0.0000    0.0424
C        -1.2119    1.9066    0.1276   -0.0000    0.0000    0.0214
C         1.0001    2.5643    0.1290   -0.0000    0.0000    0.0219
C         2.0252    3.5895    0.1292   -0.0000    0.0000    0.0431
C        -3.3016    0.9663    0.1265   -0.0000    0.0000    0.0431
C        -2.2764   -0.0588    0.1280   -0.0000    0.0000    0.0219
C        -0.6092   -5.7583    0.1333   -0.0000    0.0000    0.0165
C        -3.1252   -4.3959    0.1301   -0.0000    0.0000    0.0147
C        -1.8137   -6.4621    0.1328    0.0000   -0.0000   -0.0304
C        -4.6993    0.8970    0.1255   -0.0000   -0.0000    0.0165
C        -3.3370    3.4131    0.1250   -0.0001    0.0000    0.0147
C        -5.4031    2.1016    0.1242    0.0000   -0.0001   -0.0304
C        -3.0557   -5.7893    0.1313    0.0000   -0.0000   -0.0313
C        -1.6188   -2.2708    0.1299   -0.0000    0.0000    0.0214
C        -1.9171   -3.6897    0.1307   -0.0000    0.0000    0.0424
C         3.2639    2.9186    0.1308   -0.0000    0.0000    0.0424
C         2.9656    1.4998    0.1315   -0.0000    0.0000    0.0214
C        -4.7303    3.3435    0.1239   -0.0000   -0.0000   -0.0313
C         3.6232   -0.7123    0.1333   -0.0000    0.0000    0.0219
C         4.6484   -1.7374    0.1346   -0.0000    0.0000    0.0431
C         2.5587   -2.6777    0.1336   -0.0000    0.0000    0.0214
C         3.9776   -2.9761    0.1348   -0.0000    0.0000    0.0424
C        -0.6784   -4.3606    0.1322   -0.0000    0.0000    0.0431
C         0.3466   -3.3353    0.1323   -0.0000    0.0000    0.0219
C         1.9559    4.9872    0.1281   -0.0000    0.0000    0.0165
C         4.4720    3.6248    0.1315   -0.0000    0.0000    0.0147
C         3.1605    5.6910    0.1287    0.0000   -0.0000   -0.0304
C         4.4025    5.0182    0.1304    0.0000   -0.0000   -0.0313
C         6.0461   -1.6681    0.1356   -0.0000   -0.0000    0.0165
C         4.6838   -4.1842    0.1359   -0.0000   -0.0000    0.0147
C         6.7499   -2.8727    0.1368    0.0000   -0.0001   -0.0304
C         6.0771   -4.1146    0.1369   -0.0000   -0.0000   -0.0313
H         6.5562   -0.7047    0.1355    0.0000   -0.0000    0.0153
H         4.1560   -5.1380    0.1360   -0.0001    0.0000    0.0122
H         6.6624   -5.0353    0.1378    0.0000   -0.0001   -0.0709
H        -5.2094   -0.0664    0.1257    0.0000   -0.0000    0.0153
H        -2.8092    4.3669    0.1248   -0.0001    0.0000    0.0122
H        -5.3156    4.2642    0.1229    0.0000   -0.0001   -0.0708
H        -6.4939    2.0893    0.1234    0.0000   -0.0001   -0.0697
H         0.3542   -6.2683    0.1345   -0.0000    0.0000    0.0153
H        -4.0791   -3.8681    0.1290   -0.0000    0.0000    0.0122
H        -3.9763   -6.3745    0.1309    0.0001   -0.0000   -0.0709
H        -1.8014   -7.5529    0.1337    0.0001   -0.0001   -0.0697
H         0.9926    5.4972    0.1268   -0.0000    0.0000    0.0153
H         5.4259    3.0971    0.1328   -0.0000    0.0000    0.0122
H         5.3231    5.6035    0.1309    0.0001   -0.0001   -0.0709
H         3.1482    6.7818    0.1279    0.0001   -0.0001   -0.0697
H         7.8407   -2.8603    0.1376    0.0000   -0.0001   -0.0697
    57
stable frequency at    185.833 1/cm IR int. is 8.096 a.m.u.; force const. is 0.165 mDyne/Ang.
Fe        0.6734   -0.3855    0.1306    0.0000   -0.0000   -0.0000
N         3.9138    0.5779    0.1328   -0.0053    0.0182   -0.0000
N         1.6368   -3.6259    0.1334   -0.0182   -0.0053   -0.0000
N        -0.2395   -2.0709    0.1309   -0.0169   -0.0310   -0.0000
N        -1.0120    0.5273    0.1286    0.0310   -0.0169    0.0000
N         1.5863    1.2998    0.1304    0.0169    0.0310    0.0000
N         2.3588   -1.2984    0.1326   -0.0310    0.0169   -0.0001
N        -0.2900    2.8548    0.1277    0.0182    0.0053    0.0000
N        -2.5670   -1.3489    0.1285    0.0053   -0.0182    0.0000
C        -2.6308    2.2050    0.1263    0.0404   -0.0221    0.0000
C        -1.2119    1.9066    0.1276    0.0348   -0.0131    0.0000
C         1.0001    2.5643    0.1290    0.0220    0.0297    0.0000
C         2.0252    3.5895    0.1292    0.0216    0.0406    0.0000
C        -3.3016    0.9663    0.1265    0.0406   -0.0216    0.0001
C        -2.2764   -0.0588    0.1280    0.0297   -0.0220    0.0001
C        -0.6092   -5.7583    0.1333   -0.0261   -0.0432    0.0000
C        -3.1252   -4.3959    0.1301   -0.0213   -0.0462    0.0000
C        -1.8137   -6.4621    0.1328   -0.0257   -0.0476    0.0000
C        -4.6993    0.8970    0.1255    0.0432   -0.0261    0.0001
C        -3.3370    3.4131    0.1250    0.0462   -0.0213    0.0000
C        -5.4031    2.1016    0.1242    0.0476   -0.0257    0.0001
C        -3.0557   -5.7893    0.1313   -0.0247   -0.0483    0.0000
C        -1.6188   -2.2708    0.1299   -0.0131   -0.0348   -0.0000
C        -1.9171   -3.6897    0.1307   -0.0221   -0.0404   -0.0000
C         3.2639    2.9186    0.1308    0.0221    0.0404    0.0000
C         2.9656    1.4998    0.1315    0.0131    0.0348    0.0000
C        -4.7303    3.3435    0.1239    0.0483   -0.0247    0.0000
C         3.6232   -0.7123    0.1333   -0.0297    0.0220   -0.0001
C         4.6484   -1.7374    0.1346   -0.0406    0.0216   -0.0001
C         2.5587   -2.6777    0.1336   -0.0348    0.0131   -0.0000
C         3.9776   -2.9761    0.1348   -0.0404    0.0221   -0.0000
C        -0.6784   -4.3606    0.1322   -0.0216   -0.0406   -0.0000
C         0.3466   -3.3353    0.1323   -0.0220   -0.0297   -0.0000
C         1.9559    4.9872    0.1281    0.0261    0.0432   -0.0000
C         4.4720    3.6248    0.1315    0.0213    0.0462   -0.0000
C         3.1605    5.6910    0.1287    0.0257    0.0476   -0.0000
C         4.4025    5.0182    0.1304    0.0247    0.0483   -0.0000
C         6.0461   -1.6681    0.1356   -0.0432    0.0261   -0.0001
C         4.6838   -4.1842    0.1359   -0.0462    0.0213   -0.0000
C         6.7499   -2.8727    0.1368   -0.0476    0.0257   -0.0000
C         6.0771   -4.1146    0.1369   -0.0483    0.0247   -0.0000
H         6.5562   -0.7047    0.1355   -0.0454    0.0272   -0.0001
H         4.1560   -5.1380    0.1360   -0.0489    0.0232   -0.0000
H         6.6624   -5.0353    0.1378   -0.0450    0.0267   -0.0001
H        -5.2094   -0.0664    0.1257    0.0454   -0.0272    0.0001
H        -2.8092    4.3669    0.1248    0.0489   -0.0232    0.0000
H        -5.3156    4.2642    0.1229    0.0450   -0.0267    0.0001
H        -6.4939    2.0893    0.1234    0.0477   -0.0229    0.0000
H         0.3542   -6.2683    0.1345   -0.0272   -0.0454    0.0000
H        -4.0791   -3.8681    0.1290   -0.0232   -0.0489   -0.0000
H        -3.9763   -6.3745    0.1309   -0.0267   -0.0450    0.0000
H        -1.8014   -7.5529    0.1337   -0.0229   -0.0477    0.0000
H         0.9926    5.4972    0.1268    0.0272    0.0454   -0.0000
H         5.4259    3.0971    0.1328    0.0232    0.0489    0.0000
H         5.3231    5.6035    0.1309    0.0267    0.0450   -0.0000
H         3.1482    6.7818    0.1279    0.0229    0.0477   -0.0000
H         7.8407   -2.8603    0.1376   -0.0477    0.0229   -0.0000
    57
stable frequency at    209.000 1/cm IR int. is 6.038 a.m.u.; force const. is 0.155 mDyne/Ang.
Fe        0.6734   -0.3855    0.1306   -0.0000   -0.0000   -0.0000
N         3.9138    0.5779    0.1328   -0.0001    0.0000    0.0871
N         1.6368   -3.6259    0.1334    0.0000   -0.0001   -0.0871
N        -0.2395   -2.0709    0.1309   -0.0000    0.0000    0.0006
N        -1.0120    0.5273    0.1286    0.0000    0.0000   -0.0006
N         1.5863    1.2998    0.1304    0.0000   -0.0000    0.0006
N         2.3588   -1.2984    0.1326   -0.0000   -0.0000   -0.0006
N        -0.2900    2.8548    0.1277    0.0001   -0.0000   -0.0871
N        -2.5670   -1.3489    0.1285   -0.0001    0.0001    0.0870
C        -2.6308    2.2050    0.1263    0.0000    0.0000   -0.0057
C        -1.2119    1.9066    0.1276    0.0001    0.0000   -0.0415
C         1.0001    2.5643    0.1290    0.0001   -0.0000   -0.0407
C         2.0252    3.5895    0.1292    0.0000   -0.0000   -0.0054
C        -3.3016    0.9663    0.1265    0.0000    0.0000    0.0054
C        -2.2764   -0.0588    0.1280   -0.0000    0.0001    0.0407
C        -0.6092   -5.7583    0.1333   -0.0000    0.0001    0.0425
C        -3.1252   -4.3959    0.1301    0.0000   -0.0001   -0.0430
C        -1.8137   -6.4621    0.1328    0.0000    0.0000    0.0374
C        -4.6993    0.8970    0.1255    0.0001   -0.0000   -0.0425
C        -3.3370    3.4131    0.1250   -0.0000    0.0000    0.0430
C        -5.4031    2.1016    0.1242    0.0000   -0.0001   -0.0374
C        -3.0557   -5.7893    0.1313    0.0001   -0.0001   -0.0385
C        -1.6188   -2.2708    0.1299   -0.0001    0.0000    0.0415
C        -1.9171   -3.6897    0.1307   -0.0000    0.0000    0.0057
C         3.2639    2.9186    0.1308    0.0000   -0.0000    0.0057
C         2.9656    1.4998    0.1315   -0.0000    0.0000    0.0415
C        -4.7303    3.3435    0.1239   -0.0000   -0.0000    0.0385
C         3.6232   -0.7123    0.1333   -0.0001   -0.0000    0.0407
C         4.6484   -1.7374    0.1346   -0.0000   -0.0000    0.0054
C         2.5587   -2.6777    0.1336    0.0000   -0.0001   -0.0415
C         3.9776   -2.9761    0.1348   -0.0000   -0.0000   -0.0058
C        -0.6784   -4.3606    0.1322   -0.0000    0.0000   -0.0054
C         0.3466   -3.3353    0.1323   -0.0000   -0.0000   -0.0407
C         1.9559    4.9872    0.1281   -0.0001    0.0000    0.0425
C         4.4720    3.6248    0.1315    0.0001   -0.0000   -0.0430
C         3.1605    5.6910    0.1287   -0.0001    0.0000    0.0374
C         4.4025    5.0182    0.1304    0.0000   -0.0000   -0.0385
C         6.0461   -1.6681    0.1356    0.0000   -0.0000   -0.0425
C         4.6838   -4.1842    0.1359    0.0000    0.0000    0.0430
C         6.7499   -2.8727    0.1368    0.0000    0.0000   -0.0374
C         6.0771   -4.1146    0.1369    0.0000    0.0000    0.0385
H         6.5562   -0.7047    0.1355   -0.0000    0.0000   -0.0766
H         4.1560   -5.1380    0.1360    0.0000    0.0000    0.0770
H         6.6624   -5.0353    0.1378    0.0000    0.0001    0.0780
H        -5.2094   -0.0664    0.1257    0.0001   -0.0001   -0.0766
H        -2.8092    4.3669    0.1248   -0.0001    0.0001    0.0770
H        -5.3156    4.2642    0.1229   -0.0001   -0.0000    0.0780
H        -6.4939    2.0893    0.1234    0.0001   -0.0001   -0.0772
H         0.3542   -6.2683    0.1345   -0.0000    0.0001    0.0766
H        -4.0791   -3.8681    0.1290    0.0000   -0.0001   -0.0771
H        -3.9763   -6.3745    0.1309    0.0001   -0.0001   -0.0780
H        -1.8014   -7.5529    0.1337    0.0000    0.0001    0.0772
H         0.9926    5.4972    0.1268   -0.0001   -0.0000    0.0766
H         5.4259    3.0971    0.1328    0.0001   -0.0000   -0.0771
H         5.3231    5.6035    0.1309    0.0000   -0.0000   -0.0780
H         3.1482    6.7818    0.1279   -0.0001    0.0001    0.0772
H         7.8407   -2.8603    0.1376    0.0001    0.0000   -0.0772
    57
stable frequency at    211.440 1/cm IR int. is 5.554 a.m.u.; force const. is 0.146 mDyne/Ang.
Fe        0.6734   -0.3855    0.1306   -0.0000    0.0000   -0.0000
N         3.9138    0.5779    0.1328    0.0125   -0.0423   -0.0000
N         1.6368   -3.6259    0.1334   -0.0423   -0.0125    0.0000
N        -0.2395   -2.0709    0.1309   -0.0327    0.0180   -0.0000
N        -1.0120    0.5273    0.1286    0.0179    0.0327   -0.0000
N         1.5863    1.2998    0.1304    0.0327   -0.0180    0.0000
N         2.3588   -1.2984    0.1326   -0.0179   -0.0327    0.0000
N        -0.2900    2.8548    0.1277    0.0423    0.0125    0.0001
N        -2.5670   -1.3489    0.1285   -0.0125    0.0423   -0.0001
C        -2.6308    2.2050    0.1263    0.0127    0.0416   -0.0000
C        -1.2119    1.9066    0.1276    0.0197    0.0373    0.0000
C         1.0001    2.5643    0.1290    0.0368   -0.0208    0.0001
C         2.0252    3.5895    0.1292    0.0330   -0.0284    0.0000
C        -3.3016    0.9663    0.1265    0.0284    0.0330   -0.0000
C        -2.2764   -0.0588    0.1280    0.0208    0.0368   -0.0000
C        -0.6092   -5.7583    0.1333    0.0193    0.0346   -0.0000
C        -3.1252   -4.3959    0.1301   -0.0184   -0.0340    0.0001
C        -1.8137   -6.4621    0.1328    0.0461   -0.0047   -0.0000
C        -4.6993    0.8970    0.1255    0.0346   -0.0193    0.0001
C        -3.3370    3.4131    0.1250   -0.0340    0.0184   -0.0001
C        -5.4031    2.1016    0.1242   -0.0047   -0.0461    0.0001
C        -3.0557   -5.7893    0.1313    0.0297   -0.0349    0.0001
C        -1.6188   -2.2708    0.1299   -0.0373    0.0197   -0.0001
C        -1.9171   -3.6897    0.1307   -0.0416    0.0127   -0.0000
C         3.2639    2.9186    0.1308    0.0416   -0.0127    0.0000
C         2.9656    1.4998    0.1315    0.0373   -0.0197    0.0000
C        -4.7303    3.3435    0.1239   -0.0349   -0.0297   -0.0000
C         3.6232   -0.7123    0.1333   -0.0208   -0.0368   -0.0000
C         4.6484   -1.7374    0.1346   -0.0284   -0.0330   -0.0000
C         2.5587   -2.6777    0.1336   -0.0197   -0.0373    0.0000
C         3.9776   -2.9761    0.1348   -0.0127   -0.0416    0.0000
C        -0.6784   -4.3606    0.1322   -0.0330    0.0284   -0.0000
C         0.3466   -3.3353    0.1323   -0.0368    0.0208   -0.0000
C         1.9559    4.9872    0.1281   -0.0193   -0.0346   -0.0000
C         4.4720    3.6248    0.1315    0.0184    0.0340    0.0000
C         3.1605    5.6910    0.1287   -0.0461    0.0047   -0.0001
C         4.4025    5.0182    0.1304   -0.0297    0.0349   -0.0000
C         6.0461   -1.6681    0.1356   -0.0346    0.0193   -0.0000
C         4.6838   -4.1842    0.1359    0.0340   -0.0184    0.0000
C         6.7499   -2.8727    0.1368    0.0047    0.0461    0.0000
C         6.0771   -4.1146    0.1369    0.0349    0.0297   -0.0000
H         6.5562   -0.7047    0.1355   -0.0770    0.0417   -0.0000
H         4.1560   -5.1380    0.1360    0.0766   -0.0423    0.0000
H         6.6624   -5.0353    0.1378    0.0607    0.0461   -0.0001
H        -5.2094   -0.0664    0.1257    0.0770   -0.0417    0.0002
H        -2.8092    4.3669    0.1248   -0.0767    0.0423   -0.0002
H        -5.3156    4.2642    0.1229   -0.0607   -0.0461   -0.0001
H        -6.4939    2.0893    0.1234   -0.0043   -0.0766    0.0001
H         0.3542   -6.2683    0.1345    0.0417    0.0770   -0.0001
H        -4.0791   -3.8681    0.1290   -0.0423   -0.0766    0.0001
H        -3.9763   -6.3745    0.1309    0.0461   -0.0607    0.0001
H        -1.8014   -7.5529    0.1337    0.0766   -0.0043   -0.0000
H         0.9926    5.4972    0.1268   -0.0417   -0.0770   -0.0001
H         5.4259    3.0971    0.1328    0.0423    0.0766    0.0000
H         5.3231    5.6035    0.1309   -0.0461    0.0607    0.0000
H         3.1482    6.7818    0.1279   -0.0766    0.0043   -0.0001
H         7.8407   -2.8603    0.1376    0.0043    0.0766    0.0000
    57
stable frequency at    235.327 1/cm IR int. is 11.491 a.m.u.; force const. is 0.375 mDyne/Ang.
Fe        0.6734   -0.3855    0.1306    0.0000    0.0000   -0.0000
N         3.9138    0.5779    0.1328    0.0709    0.0211   -0.0000
N         1.6368   -3.6259    0.1334   -0.0211    0.0709   -0.0001
N        -0.2395   -2.0709    0.1309   -0.0516    0.0279   -0.0001
N        -1.0120    0.5273    0.1286   -0.0279   -0.0516    0.0001
N         1.5863    1.2998    0.1304    0.0516   -0.0279    0.0001
N         2.3588   -1.2984    0.1326    0.0279    0.0516   -0.0001
N        -0.2900    2.8548    0.1277    0.0211   -0.0709    0.0001
N        -2.5670   -1.3489    0.1285   -0.0709   -0.0211    0.0000
C        -2.6308    2.2050    0.1263   -0.0031   -0.0315   -0.0001
C        -1.2119    1.9066    0.1276   -0.0004   -0.0521    0.0001
C         1.0001    2.5643    0.1290    0.0289   -0.0433    0.0001
C         2.0252    3.5895    0.1292    0.0198   -0.0246    0.0000
C        -3.3016    0.9663    0.1265   -0.0246   -0.0198   -0.0001
C        -2.2764   -0.0588    0.1280   -0.0433   -0.0289    0.0000
C        -0.6092   -5.7583    0.1333   -0.0160    0.0260    0.0000
C        -3.1252   -4.3959    0.1301   -0.0305   -0.0009   -0.0000
C        -1.8137   -6.4621    0.1328   -0.0124    0.0174   -0.0000
C        -4.6993    0.8970    0.1255   -0.0260   -0.0160   -0.0001
C        -3.3370    3.4131    0.1250    0.0009   -0.0305   -0.0000
C        -5.4031    2.1016    0.1242   -0.0174   -0.0124    0.0000
C        -3.0557   -5.7893    0.1313   -0.0213    0.0008   -0.0001
C        -1.6188   -2.2708    0.1299   -0.0521    0.0004   -0.0000
C        -1.9171   -3.6897    0.1307   -0.0315    0.0031    0.0000
C         3.2639    2.9186    0.1308    0.0315   -0.0031   -0.0000
C         2.9656    1.4998    0.1315    0.0521   -0.0004    0.0000
C        -4.7303    3.3435    0.1239   -0.0008   -0.0213    0.0000
C         3.6232   -0.7123    0.1333    0.0433    0.0289   -0.0000
C         4.6484   -1.7374    0.1346    0.0246    0.0198    0.0001
C         2.5587   -2.6777    0.1336    0.0004    0.0521   -0.0001
C         3.9776   -2.9761    0.1348    0.0031    0.0315    0.0001
C        -0.6784   -4.3606    0.1322   -0.0198    0.0246   -0.0000
C         0.3466   -3.3353    0.1323   -0.0289    0.0433   -0.0001
C         1.9559    4.9872    0.1281    0.0160   -0.0260   -0.0000
C         4.4720    3.6248    0.1315    0.0305    0.0009    0.0000
C         3.1605    5.6910    0.1287    0.0124   -0.0174    0.0000
C         4.4025    5.0182    0.1304    0.0213   -0.0009    0.0001
C         6.0461   -1.6681    0.1356    0.0260    0.0160    0.0001
C         4.6838   -4.1842    0.1359   -0.0009    0.0305    0.0000
C         6.7499   -2.8727    0.1368    0.0174    0.0124   -0.0000
C         6.0771   -4.1146    0.1369    0.0008    0.0213   -0.0000
H         6.5562   -0.7047    0.1355    0.0276    0.0150    0.0001
H         4.1560   -5.1380    0.1360   -0.0037    0.0321    0.0000
H         6.6624   -5.0353    0.1378   -0.0092    0.0149   -0.0001
H        -5.2094   -0.0664    0.1257   -0.0276   -0.0150   -0.0001
H        -2.8092    4.3669    0.1248    0.0037   -0.0321   -0.0000
H        -5.3156    4.2642    0.1229    0.0092   -0.0149    0.0002
H        -6.4939    2.0893    0.1234   -0.0175   -0.0001    0.0001
H         0.3542   -6.2683    0.1345   -0.0150    0.0276    0.0000
H        -4.0791   -3.8681    0.1290   -0.0321   -0.0036   -0.0000
H        -3.9763   -6.3745    0.1309   -0.0149   -0.0092   -0.0001
H        -1.8014   -7.5529    0.1337   -0.0001    0.0175    0.0000
H         0.9926    5.4972    0.1268    0.0150   -0.0276   -0.0001
H         5.4259    3.0971    0.1328    0.0321    0.0036    0.0000
H         5.3231    5.6035    0.1309    0.0149    0.0092    0.0001
H         3.1482    6.7818    0.1279    0.0001   -0.0175   -0.0000
H         7.8407   -2.8603    0.1376    0.0175    0.0001   -0.0001
    57
stable frequency at    241.829 1/cm IR int. is 6.215 a.m.u.; force const. is 0.214 mDyne/Ang.
Fe        0.6734   -0.3855    0.1306   -0.0000   -0.0000   -0.0000
N         3.9138    0.5779    0.1328   -0.0001    0.0000    0.0373
N         1.6368   -3.6259    0.1334    0.0001   -0.0001   -0.0776
N        -0.2395   -2.0709    0.1309    0.0001   -0.0001   -0.0463
N        -1.0120    0.5273    0.1286   -0.0000    0.0001    0.0168
N         1.5863    1.2998    0.1304   -0.0000    0.0001    0.0463
N         2.3588   -1.2984    0.1326    0.0000   -0.0001   -0.0168
N        -0.2900    2.8548    0.1277   -0.0001    0.0001    0.0776
N        -2.5670   -1.3489    0.1285    0.0001   -0.0000   -0.0373
C        -2.6308    2.2050    0.1263   -0.0000    0.0000   -0.0117
C        -1.2119    1.9066    0.1276   -0.0001    0.0001    0.0463
C         1.0001    2.5643    0.1290   -0.0000    0.0001    0.0281
C         2.0252    3.5895    0.1292    0.0001    0.0000   -0.0641
C        -3.3016    0.9663    0.1265   -0.0000    0.0000   -0.0359
C        -2.2764   -0.0588    0.1280    0.0000   -0.0000   -0.0360
C        -0.6092   -5.7583    0.1333   -0.0001   -0.0000    0.0552
C        -3.1252   -4.3959    0.1301   -0.0000   -0.0000    0.0362
C        -1.8137   -6.4621    0.1328   -0.0000   -0.0001   -0.0282
C        -4.6993    0.8970    0.1255   -0.0001    0.0001    0.0098
C        -3.3370    3.4131    0.1250   -0.0000    0.0000   -0.0422
C        -5.4031    2.1016    0.1242   -0.0001    0.0001    0.0427
C        -3.0557   -5.7893    0.1313    0.0000   -0.0001   -0.0488
C        -1.6188   -2.2708    0.1299    0.0000   -0.0000    0.0005
C        -1.9171   -3.6897    0.1307   -0.0001    0.0000    0.0722
C         3.2639    2.9186    0.1308    0.0001   -0.0000   -0.0722
C         2.9656    1.4998    0.1315   -0.0000    0.0000   -0.0005
C        -4.7303    3.3435    0.1239   -0.0001    0.0000   -0.0158
C         3.6232   -0.7123    0.1333   -0.0000   -0.0000    0.0360
C         4.6484   -1.7374    0.1346    0.0000   -0.0000    0.0359
C         2.5587   -2.6777    0.1336    0.0001   -0.0001   -0.0463
C         3.9776   -2.9761    0.1348    0.0000   -0.0000    0.0117
C        -0.6784   -4.3606    0.1322   -0.0001   -0.0000    0.0640
C         0.3466   -3.3353    0.1323    0.0000   -0.0001   -0.0281
C         1.9559    4.9872    0.1281    0.0001    0.0000   -0.0552
C         4.4720    3.6248    0.1315    0.0000    0.0000   -0.0362
C         3.1605    5.6910    0.1287    0.0000    0.0001    0.0282
C         4.4025    5.0182    0.1304   -0.0000    0.0001    0.0488
C         6.0461   -1.6681    0.1356    0.0001   -0.0001   -0.0098
C         4.6838   -4.1842    0.1359    0.0000   -0.0000    0.0422
C         6.7499   -2.8727    0.1368    0.0001   -0.0001   -0.0427
C         6.0771   -4.1146    0.1369    0.0000   -0.0000    0.0158
H         6.5562   -0.7047    0.1355    0.0001   -0.0001   -0.0310
H         4.1560   -5.1380    0.1360    0.0000   -0.0000    0.0651
H         6.6624   -5.0353    0.1378    0.0000   -0.0000    0.0250
H        -5.2094   -0.0664    0.1257   -0.0001    0.0001    0.0310
H        -2.8092    4.3669    0.1248   -0.0000   -0.0000   -0.0651
H        -5.3156    4.2642    0.1229   -0.0000    0.0000   -0.0250
H        -6.4939    2.0893    0.1234   -0.0001    0.0001    0.0994
H         0.3542   -6.2683    0.1345   -0.0001   -0.0000    0.0655
H        -4.0791   -3.8681    0.1290   -0.0000   -0.0000    0.0303
H        -3.9763   -6.3745    0.1309    0.0001   -0.0001   -0.1273
H        -1.8014   -7.5529    0.1337    0.0000   -0.0001   -0.0838
H         0.9926    5.4972    0.1268    0.0001    0.0000   -0.0655
H         5.4259    3.0971    0.1328    0.0000    0.0000   -0.0303
H         5.3231    5.6035    0.1309   -0.0001    0.0001    0.1273
H         3.1482    6.7818    0.1279   -0.0000    0.0001    0.0838
H         7.8407   -2.8603    0.1376    0.0001   -0.0001   -0.0994
    57
stable frequency at    241.833 1/cm IR int. is 6.215 a.m.u.; force const. is 0.214 mDyne/Ang.
Fe        0.6734   -0.3855    0.1306   -0.0000    0.0000    0.0000
N         3.9138    0.5779    0.1328   -0.0000   -0.0001   -0.0776
N         1.6368   -3.6259    0.1334    0.0000   -0.0001   -0.0373
N        -0.2395   -2.0709    0.1309    0.0000    0.0000    0.0168
N        -1.0120    0.5273    0.1286    0.0000    0.0001    0.0463
N         1.5863    1.2998    0.1304   -0.0000   -0.0000   -0.0168
N         2.3588   -1.2984    0.1326   -0.0000   -0.0001   -0.0463
N        -0.2900    2.8548    0.1277   -0.0001    0.0001    0.0373
N        -2.5670   -1.3489    0.1285    0.0000    0.0001    0.0776
C        -2.6308    2.2050    0.1263    0.0001   -0.0000   -0.0722
C        -1.2119    1.9066    0.1276    0.0000    0.0000   -0.0005
C         1.0001    2.5643    0.1290   -0.0001    0.0000    0.0360
C         2.0252    3.5895    0.1292   -0.0001    0.0000    0.0359
C        -3.3016    0.9663    0.1265    0.0001   -0.0000   -0.0640
C        -2.2764   -0.0588    0.1280    0.0000    0.0000    0.0281
C        -0.6092   -5.7583    0.1333    0.0000    0.0000    0.0098
C        -3.1252   -4.3959    0.1301    0.0001   -0.0000   -0.0422
C        -1.8137   -6.4621    0.1328    0.0000    0.0001    0.0427
C        -4.6993    0.8970    0.1255    0.0001   -0.0000   -0.0552
C        -3.3370    3.4131    0.1250    0.0001   -0.0000   -0.0363
C        -5.4031    2.1016    0.1242    0.0000    0.0000    0.0282
C        -3.0557   -5.7893    0.1313    0.0001    0.0000   -0.0158
C        -1.6188   -2.2708    0.1299    0.0000    0.0000    0.0463
C        -1.9171   -3.6897    0.1307    0.0001    0.0000   -0.0117
C         3.2639    2.9186    0.1308   -0.0001   -0.0000    0.0117
C         2.9656    1.4998    0.1315   -0.0000   -0.0000   -0.0463
C        -4.7303    3.3435    0.1239    0.0000    0.0000    0.0488
C         3.6232   -0.7123    0.1333   -0.0000   -0.0000   -0.0281
C         4.6484   -1.7374    0.1346   -0.0001    0.0000    0.0640
C         2.5587   -2.6777    0.1336   -0.0000   -0.0000    0.0005
C         3.9776   -2.9761    0.1348   -0.0001    0.0000    0.0722
C        -0.6784   -4.3606    0.1322    0.0001   -0.0000   -0.0359
C         0.3466   -3.3353    0.1323    0.0001   -0.0000   -0.0360
C         1.9559    4.9872    0.1281   -0.0000   -0.0000   -0.0098
C         4.4720    3.6248    0.1315   -0.0001    0.0000    0.0422
C         3.1605    5.6910    0.1287    0.0000   -0.0000   -0.0427
C         4.4025    5.0182    0.1304   -0.0001   -0.0000    0.0158
C         6.0461   -1.6681    0.1356   -0.0001    0.0000    0.0552
C         4.6838   -4.1842    0.1359   -0.0001   -0.0000    0.0363
C         6.7499   -2.8727    0.1368   -0.0000   -0.0000   -0.0282
C         6.0771   -4.1146    0.1369   -0.0000   -0.0000   -0.0488
H         6.5562   -0.7047    0.1355   -0.0001    0.0000    0.0655
H         4.1560   -5.1380    0.1360   -0.0001   -0.0000    0.0303
H         6.6624   -5.0353    0.1378    0.0001   -0.0001   -0.1273
H        -5.2094   -0.0664    0.1257    0.0001   -0.0000   -0.0655
H        -2.8092    4.3669    0.1248    0.0001   -0.0000   -0.0303
H        -5.3156    4.2642    0.1229   -0.0001    0.0001    0.1273
H        -6.4939    2.0893    0.1234   -0.0000    0.0001    0.0838
H         0.3542   -6.2683    0.1345    0.0000    0.0000    0.0310
H        -4.0791   -3.8681    0.1290    0.0001   -0.0000   -0.0651
H        -3.9763   -6.3745    0.1309    0.0001    0.0000   -0.0250
H        -1.8014   -7.5529    0.1337   -0.0001    0.0001    0.0994
H         0.9926    5.4972    0.1268   -0.0000   -0.0000   -0.0310
H         5.4259    3.0971    0.1328   -0.0001    0.0000    0.0651
H         5.3231    5.6035    0.1309   -0.0001   -0.0000    0.0250
H         3.1482    6.7818    0.1279    0.0001   -0.0001   -0.0994
H         7.8407   -2.8603    0.1376    0.0000   -0.0001   -0.0839
    57
stable frequency at    255.105 1/cm IR int. is 7.580 a.m.u.; force const. is 0.291 mDyne/Ang.
Fe        0.6734   -0.3855    0.1306    0.0000    0.0000    0.0000
N         3.9138    0.5779    0.1328    0.0133    0.0036   -0.0001
N         1.6368   -3.6259    0.1334    0.0036   -0.0133    0.0001
N        -0.2395   -2.0709    0.1309   -0.0151   -0.0273    0.0001
N        -1.0120    0.5273    0.1286   -0.0273    0.0151   -0.0000
N         1.5863    1.2998    0.1304    0.0151    0.0273   -0.0001
N         2.3588   -1.2984    0.1326    0.0273   -0.0151    0.0000
N        -0.2900    2.8548    0.1277   -0.0036    0.0133   -0.0001
N        -2.5670   -1.3489    0.1285   -0.0133   -0.0036    0.0001
C        -2.6308    2.2050    0.1263   -0.0350    0.0221   -0.0001
C        -1.2119    1.9066    0.1276   -0.0207    0.0211   -0.0001
C         1.0001    2.5643    0.1290    0.0064    0.0287   -0.0000
C         2.0252    3.5895    0.1292    0.0177    0.0372    0.0001
C        -3.3016    0.9663    0.1265   -0.0372    0.0177   -0.0001
C        -2.2764   -0.0588    0.1280   -0.0287    0.0064    0.0000
C        -0.6092   -5.7583    0.1333   -0.0313   -0.0438   -0.0001
C        -3.1252   -4.3959    0.1301   -0.0196   -0.0508   -0.0001
C        -1.8137   -6.4621    0.1328   -0.0290   -0.0530    0.0001
C        -4.6993    0.8970    0.1255   -0.0438    0.0313   -0.0001
C        -3.3370    3.4131    0.1250   -0.0508    0.0196   -0.0000
C        -5.4031    2.1016    0.1242   -0.0530    0.0290   -0.0001
C        -3.0557   -5.7893    0.1313   -0.0277   -0.0539    0.0001
C        -1.6188   -2.2708    0.1299   -0.0211   -0.0207    0.0000
C        -1.9171   -3.6897    0.1307   -0.0221   -0.0350   -0.0001
C         3.2639    2.9186    0.1308    0.0221    0.0350    0.0001
C         2.9656    1.4998    0.1315    0.0211    0.0207   -0.0000
C        -4.7303    3.3435    0.1239   -0.0539    0.0277    0.0000
C         3.6232   -0.7123    0.1333    0.0287   -0.0064   -0.0000
C         4.6484   -1.7374    0.1346    0.0372   -0.0177    0.0000
C         2.5587   -2.6777    0.1336    0.0207   -0.0211    0.0001
C         3.9776   -2.9761    0.1348    0.0350   -0.0221    0.0001
C        -0.6784   -4.3606    0.1322   -0.0177   -0.0372   -0.0001
C         0.3466   -3.3353    0.1323   -0.0064   -0.0287    0.0000
C         1.9559    4.9872    0.1281    0.0313    0.0438    0.0001
C         4.4720    3.6248    0.1315    0.0196    0.0508    0.0001
C         3.1605    5.6910    0.1287    0.0290    0.0530   -0.0001
C         4.4025    5.0182    0.1304    0.0277    0.0539   -0.0001
C         6.0461   -1.6681    0.1356    0.0438   -0.0313    0.0001
C         4.6838   -4.1842    0.1359    0.0508   -0.0196    0.0000
C         6.7499   -2.8727    0.1368    0.0530   -0.0290    0.0001
C         6.0771   -4.1146    0.1369    0.0539   -0.0277   -0.0000
H         6.5562   -0.7047    0.1355    0.0475   -0.0331    0.0002
H         4.1560   -5.1380    0.1360    0.0551   -0.0225   -0.0000
H         6.6624   -5.0353    0.1378    0.0475   -0.0318   -0.0000
H        -5.2094   -0.0664    0.1257   -0.0475    0.0331   -0.0002
H        -2.8092    4.3669    0.1248   -0.0551    0.0225    0.0000
H        -5.3156    4.2642    0.1229   -0.0475    0.0318    0.0000
H        -6.4939    2.0893    0.1234   -0.0531    0.0224   -0.0001
H         0.3542   -6.2683    0.1345   -0.0331   -0.0475   -0.0000
H        -4.0791   -3.8681    0.1290   -0.0225   -0.0551   -0.0001
H        -3.9763   -6.3745    0.1309   -0.0318   -0.0475    0.0001
H        -1.8014   -7.5529    0.1337   -0.0224   -0.0531    0.0002
H         0.9926    5.4972    0.1268    0.0331    0.0475    0.0001
H         5.4259    3.0971    0.1328    0.0225    0.0551    0.0001
H         5.3231    5.6035    0.1309    0.0318    0.0475   -0.0001
H         3.1482    6.7818    0.1279    0.0224    0.0531   -0.0002
H         7.8407   -2.8603    0.1376    0.0531   -0.0224    0.0001
    57
stable frequency at    283.466 1/cm IR int. is 9.831 a.m.u.; force const. is 0.465 mDyne/Ang.
Fe        0.6734   -0.3855    0.1306    0.0000   -0.0000    0.0000
N         3.9138    0.5779    0.1328    0.0000   -0.0000   -0.0316
N         1.6368   -3.6259    0.1334    0.0001   -0.0001   -0.0879
N        -0.2395   -2.0709    0.1309   -0.0000    0.0000    0.0558
N        -1.0120    0.5273    0.1286    0.0001   -0.0001   -0.1188
N         1.5863    1.2998    0.1304    0.0001   -0.0000   -0.0559
N         2.3588   -1.2984    0.1326   -0.0001    0.0001    0.1189
N        -0.2900    2.8548    0.1277   -0.0001    0.0001    0.0878
N        -2.5670   -1.3489    0.1285   -0.0000    0.0000    0.0315
C        -2.6308    2.2050    0.1263   -0.0000    0.0000    0.0213
C        -1.2119    1.9066    0.1276    0.0000   -0.0000   -0.0150
C         1.0001    2.5643    0.1290   -0.0000    0.0000    0.0198
C         2.0252    3.5895    0.1292   -0.0000    0.0000    0.0209
C        -3.3016    0.9663    0.1265   -0.0000   -0.0000    0.0078
C        -2.2764   -0.0588    0.1280    0.0000   -0.0000   -0.0481
C        -0.6092   -5.7583    0.1333   -0.0000    0.0000    0.0036
C        -3.1252   -4.3959    0.1301    0.0000   -0.0000   -0.0252
C        -1.8137   -6.4621    0.1328   -0.0000    0.0000    0.0294
C        -4.6993    0.8970    0.1255   -0.0000    0.0000    0.0300
C        -3.3370    3.4131    0.1250   -0.0000    0.0000    0.0160
C        -5.4031    2.1016    0.1242    0.0000   -0.0000   -0.0081
C        -3.0557   -5.7893    0.1313    0.0000   -0.0000   -0.0127
C        -1.6188   -2.2708    0.1299   -0.0000    0.0000    0.0496
C        -1.9171   -3.6897    0.1307   -0.0000    0.0000    0.0077
C         3.2639    2.9186    0.1308    0.0000   -0.0000   -0.0076
C         2.9656    1.4998    0.1315    0.0000   -0.0000   -0.0497
C        -4.7303    3.3435    0.1239    0.0000   -0.0000   -0.0283
C         3.6232   -0.7123    0.1333   -0.0000    0.0000    0.0481
C         4.6484   -1.7374    0.1346   -0.0000    0.0000   -0.0078
C         2.5587   -2.6777    0.1336   -0.0000    0.0000    0.0151
C         3.9776   -2.9761    0.1348    0.0000   -0.0000   -0.0213
C        -0.6784   -4.3606    0.1322    0.0000   -0.0000   -0.0209
C         0.3466   -3.3353    0.1323    0.0000   -0.0000   -0.0199
C         1.9559    4.9872    0.1281    0.0000   -0.0000   -0.0036
C         4.4720    3.6248    0.1315   -0.0000    0.0000    0.0252
C         3.1605    5.6910    0.1287    0.0000   -0.0000   -0.0295
C         4.4025    5.0182    0.1304   -0.0000    0.0000    0.0127
C         6.0461   -1.6681    0.1356    0.0000   -0.0000   -0.0300
C         4.6838   -4.1842    0.1359    0.0000   -0.0000   -0.0160
C         6.7499   -2.8727    0.1368   -0.0000    0.0000    0.0082
C         6.0771   -4.1146    0.1369   -0.0000    0.0000    0.0283
H         6.5562   -0.7047    0.1355    0.0000   -0.0000   -0.0471
H         4.1560   -5.1380    0.1360    0.0000   -0.0000   -0.0216
H         6.6624   -5.0353    0.1378   -0.0001    0.0000    0.0678
H        -5.2094   -0.0664    0.1257   -0.0000    0.0000    0.0470
H        -2.8092    4.3669    0.1248   -0.0000    0.0000    0.0215
H        -5.3156    4.2642    0.1229    0.0001   -0.0000   -0.0677
H        -6.4939    2.0893    0.1234    0.0000   -0.0000   -0.0246
H         0.3542   -6.2683    0.1345   -0.0000    0.0000    0.0101
H        -4.0791   -3.8681    0.1290    0.0000   -0.0000   -0.0423
H        -3.9763   -6.3745    0.1309    0.0000   -0.0000   -0.0238
H        -1.8014   -7.5529    0.1337   -0.0001    0.0001    0.0667
H         0.9926    5.4972    0.1268    0.0000   -0.0000   -0.0100
H         5.4259    3.0971    0.1328   -0.0000    0.0000    0.0424
H         5.3231    5.6035    0.1309   -0.0000    0.0000    0.0237
H         3.1482    6.7818    0.1279    0.0001   -0.0001   -0.0668
H         7.8407   -2.8603    0.1376   -0.0000    0.0000    0.0247
    57
stable frequency at    283.469 1/cm IR int. is 9.831 a.m.u.; force const. is 0.465 mDyne/Ang.
Fe        0.6734   -0.3855    0.1306    0.0000    0.0000   -0.0000
N         3.9138    0.5779    0.1328   -0.0001    0.0001    0.0879
N         1.6368   -3.6259    0.1334    0.0000   -0.0000   -0.0315
N        -0.2395   -2.0709    0.1309   -0.0001    0.0001    0.1188
N        -1.0120    0.5273    0.1286   -0.0000    0.0000    0.0559
N         1.5863    1.2998    0.1304    0.0001   -0.0001   -0.1189
N         2.3588   -1.2984    0.1326    0.0000   -0.0000   -0.0558
N        -0.2900    2.8548    0.1277   -0.0000    0.0000    0.0316
N        -2.5670   -1.3489    0.1285    0.0001   -0.0001   -0.0879
C        -2.6308    2.2050    0.1263   -0.0000    0.0000    0.0076
C        -1.2119    1.9066    0.1276   -0.0000    0.0000    0.0497
C         1.0001    2.5643    0.1290    0.0000   -0.0000   -0.0481
C         2.0252    3.5895    0.1292   -0.0000    0.0000    0.0078
C        -3.3016    0.9663    0.1265    0.0000   -0.0000   -0.0209
C        -2.2764   -0.0588    0.1280    0.0000   -0.0000   -0.0199
C        -0.6092   -5.7583    0.1333    0.0000   -0.0000   -0.0300
C        -3.1252   -4.3959    0.1301    0.0000   -0.0000   -0.0160
C        -1.8137   -6.4621    0.1328   -0.0000    0.0000    0.0082
C        -4.6993    0.8970    0.1255   -0.0000   -0.0000    0.0036
C        -3.3370    3.4131    0.1250    0.0000   -0.0000   -0.0252
C        -5.4031    2.1016    0.1242   -0.0000    0.0000    0.0295
C        -3.0557   -5.7893    0.1313   -0.0000    0.0000    0.0283
C        -1.6188   -2.2708    0.1299   -0.0000    0.0000    0.0150
C        -1.9171   -3.6897    0.1307    0.0000   -0.0000   -0.0213
C         3.2639    2.9186    0.1308   -0.0000    0.0000    0.0213
C         2.9656    1.4998    0.1315    0.0000   -0.0000   -0.0151
C        -4.7303    3.3435    0.1239    0.0000   -0.0000   -0.0127
C         3.6232   -0.7123    0.1333   -0.0000    0.0000    0.0199
C         4.6484   -1.7374    0.1346   -0.0000    0.0000    0.0209
C         2.5587   -2.6777    0.1336    0.0000   -0.0000   -0.0496
C         3.9776   -2.9761    0.1348    0.0000   -0.0000   -0.0077
C        -0.6784   -4.3606    0.1322   -0.0000   -0.0000   -0.0078
C         0.3466   -3.3353    0.1323   -0.0000    0.0000    0.0481
C         1.9559    4.9872    0.1281   -0.0000    0.0000    0.0300
C         4.4720    3.6248    0.1315   -0.0000    0.0000    0.0160
C         3.1605    5.6910    0.1287    0.0000   -0.0000   -0.0082
C         4.4025    5.0182    0.1304    0.0000   -0.0000   -0.0283
C         6.0461   -1.6681    0.1356    0.0000    0.0000   -0.0036
C         4.6838   -4.1842    0.1359   -0.0000    0.0000    0.0252
C         6.7499   -2.8727    0.1368    0.0000   -0.0000   -0.0295
C         6.0771   -4.1146    0.1369   -0.0000    0.0000    0.0127
H         6.5562   -0.7047    0.1355    0.0000   -0.0000   -0.0101
H         4.1560   -5.1380    0.1360   -0.0000    0.0000    0.0423
H         6.6624   -5.0353    0.1378   -0.0000    0.0000    0.0238
H        -5.2094   -0.0664    0.1257   -0.0000    0.0000    0.0100
H        -2.8092    4.3669    0.1248    0.0000   -0.0000   -0.0424
H        -5.3156    4.2642    0.1229    0.0000   -0.0000   -0.0237
H        -6.4939    2.0893    0.1234   -0.0001    0.0000    0.0668
H         0.3542   -6.2683    0.1345    0.0000   -0.0000   -0.0470
H        -4.0791   -3.8681    0.1290    0.0000   -0.0000   -0.0215
H        -3.9763   -6.3745    0.1309   -0.0001    0.0000    0.0677
H        -1.8014   -7.5529    0.1337   -0.0000    0.0000    0.0246
H         0.9926    5.4972    0.1268   -0.0000    0.0000    0.0471
H         5.4259    3.0971    0.1328   -0.0000    0.0000    0.0215
H         5.3231    5.6035    0.1309    0.0001   -0.0000   -0.0677
H         3.1482    6.7818    0.1279    0.0000   -0.0000   -0.0247
H         7.8407   -2.8603    0.1376    0.0001   -0.0000   -0.0667
    57
stable frequency at    284.713 1/cm IR int. is 7.518 a.m.u.; force const. is 0.359 mDyne/Ang.
Fe        0.6734   -0.3855    0.1306    0.0000   -0.0000    0.0000
N         3.9138    0.5779    0.1328   -0.0000    0.0000    0.0002
N         1.6368   -3.6259    0.1334   -0.0000    0.0000   -0.0001
N        -0.2395   -2.0709    0.1309    0.0001   -0.0001   -0.0984
N        -1.0120    0.5273    0.1286   -0.0001    0.0001    0.0984
N         1.5863    1.2998    0.1304    0.0001   -0.0001   -0.0983
N         2.3588   -1.2984    0.1326   -0.0001    0.0001    0.0983
N        -0.2900    2.8548    0.1277   -0.0000    0.0000   -0.0003
N        -2.5670   -1.3489    0.1285   -0.0000    0.0000    0.0002
C        -2.6308    2.2050    0.1263    0.0000   -0.0000   -0.0299
C        -1.2119    1.9066    0.1276   -0.0000    0.0000    0.0338
C         1.0001    2.5643    0.1290    0.0000   -0.0000   -0.0341
C         2.0252    3.5895    0.1292   -0.0000    0.0000    0.0299
C        -3.3016    0.9663    0.1265    0.0000   -0.0000   -0.0299
C        -2.2764   -0.0588    0.1280   -0.0000    0.0000    0.0341
C        -0.6092   -5.7583    0.1333   -0.0000    0.0000    0.0376
C        -3.1252   -4.3959    0.1301   -0.0000    0.0000    0.0371
C        -1.8137   -6.4621    0.1328    0.0000   -0.0000   -0.0260
C        -4.6993    0.8970    0.1255    0.0000   -0.0000   -0.0377
C        -3.3370    3.4131    0.1250    0.0000   -0.0000   -0.0371
C        -5.4031    2.1016    0.1242   -0.0000    0.0000    0.0260
C        -3.0557   -5.7893    0.1313    0.0000   -0.0000   -0.0262
C        -1.6188   -2.2708    0.1299    0.0000   -0.0000   -0.0339
C        -1.9171   -3.6897    0.1307   -0.0001    0.0000    0.0299
C         3.2639    2.9186    0.1308   -0.0001    0.0000    0.0299
C         2.9656    1.4998    0.1315    0.0000   -0.0000   -0.0338
C        -4.7303    3.3435    0.1239   -0.0000    0.0000    0.0262
C         3.6232   -0.7123    0.1333   -0.0000    0.0000    0.0340
C         4.6484   -1.7374    0.1346    0.0000   -0.0000   -0.0299
C         2.5587   -2.6777    0.1336   -0.0000    0.0000    0.0338
C         3.9776   -2.9761    0.1348    0.0000   -0.0000   -0.0298
C        -0.6784   -4.3606    0.1322   -0.0000    0.0000    0.0300
C         0.3466   -3.3353    0.1323    0.0000   -0.0000   -0.0341
C         1.9559    4.9872    0.1281   -0.0000    0.0000    0.0376
C         4.4720    3.6248    0.1315   -0.0001    0.0000    0.0371
C         3.1605    5.6910    0.1287    0.0000   -0.0000   -0.0260
C         4.4025    5.0182    0.1304    0.0000   -0.0000   -0.0262
C         6.0461   -1.6681    0.1356    0.0000   -0.0000   -0.0376
C         4.6838   -4.1842    0.1359    0.0000   -0.0000   -0.0371
C         6.7499   -2.8727    0.1368    0.0000    0.0000    0.0260
C         6.0771   -4.1146    0.1369    0.0000    0.0000    0.0262
H         6.5562   -0.7047    0.1355    0.0001   -0.0000   -0.0520
H         4.1560   -5.1380    0.1360    0.0001   -0.0000   -0.0510
H         6.6624   -5.0353    0.1378   -0.0000    0.0000    0.0708
H        -5.2094   -0.0664    0.1257    0.0001   -0.0000   -0.0521
H        -2.8092    4.3669    0.1248    0.0001   -0.0000   -0.0510
H        -5.3156    4.2642    0.1229   -0.0000    0.0000    0.0709
H        -6.4939    2.0893    0.1234   -0.0000    0.0000    0.0707
H         0.3542   -6.2683    0.1345   -0.0000    0.0001    0.0520
H        -4.0791   -3.8681    0.1290   -0.0001    0.0000    0.0510
H        -3.9763   -6.3745    0.1309    0.0001   -0.0001   -0.0709
H        -1.8014   -7.5529    0.1337    0.0001   -0.0001   -0.0708
H         0.9926    5.4972    0.1268   -0.0001    0.0001    0.0520
H         5.4259    3.0971    0.1328   -0.0001    0.0000    0.0509
H         5.3231    5.6035    0.1309    0.0001   -0.0001   -0.0709
H         3.1482    6.7818    0.1279    0.0001   -0.0001   -0.0707
H         7.8407   -2.8603    0.1376   -0.0000    0.0000    0.0707
    57
stable frequency at    289.642 1/cm IR int. is 6.673 a.m.u.; force const. is 0.330 mDyne/Ang.
Fe        0.6734   -0.3855    0.1306    0.0000   -0.0000   -0.0387
N         3.9138    0.5779    0.1328   -0.0001    0.0000    0.0694
N         1.6368   -3.6259    0.1334   -0.0000   -0.0000    0.0694
N        -0.2395   -2.0709    0.1309    0.0000    0.0000    0.0244
N        -1.0120    0.5273    0.1286   -0.0001   -0.0000    0.0244
N         1.5863    1.2998    0.1304    0.0000    0.0000    0.0244
N         2.3588   -1.2984    0.1326   -0.0001   -0.0000    0.0244
N        -0.2900    2.8548    0.1277   -0.0001    0.0000    0.0694
N        -2.5670   -1.3489    0.1285   -0.0001    0.0000    0.0694
C        -2.6308    2.2050    0.1263    0.0000   -0.0001   -0.0435
C        -1.2119    1.9066    0.1276   -0.0000   -0.0000    0.0262
C         1.0001    2.5643    0.1290   -0.0000    0.0000    0.0259
C         2.0252    3.5895    0.1292    0.0001   -0.0000   -0.0438
C        -3.3016    0.9663    0.1265   -0.0000   -0.0000   -0.0438
C        -2.2764   -0.0588    0.1280   -0.0001   -0.0000    0.0259
C        -0.6092   -5.7583    0.1333    0.0001   -0.0000   -0.0459
C        -3.1252   -4.3959    0.1301    0.0001    0.0000   -0.0455
C        -1.8137   -6.4621    0.1328    0.0000    0.0001    0.0292
C        -4.6993    0.8970    0.1255   -0.0000   -0.0000   -0.0459
C        -3.3370    3.4131    0.1250    0.0000   -0.0000   -0.0455
C        -5.4031    2.1016    0.1242   -0.0001    0.0001    0.0292
C        -3.0557   -5.7893    0.1313    0.0000    0.0001    0.0291
C        -1.6188   -2.2708    0.1299    0.0000    0.0000    0.0262
C        -1.9171   -3.6897    0.1307    0.0001   -0.0000   -0.0435
C         3.2639    2.9186    0.1308    0.0001   -0.0000   -0.0435
C         2.9656    1.4998    0.1315    0.0000    0.0000    0.0262
C        -4.7303    3.3435    0.1239   -0.0000    0.0000    0.0291
C         3.6232   -0.7123    0.1333   -0.0001   -0.0000    0.0259
C         4.6484   -1.7374    0.1346   -0.0000   -0.0000   -0.0438
C         2.5587   -2.6777    0.1336   -0.0000   -0.0000    0.0262
C         3.9776   -2.9761    0.1348    0.0000   -0.0001   -0.0435
C        -0.6784   -4.3606    0.1322    0.0001   -0.0000   -0.0438
C         0.3466   -3.3353    0.1323   -0.0000    0.0000    0.0259
C         1.9559    4.9872    0.1281    0.0001   -0.0000   -0.0459
C         4.4720    3.6248    0.1315    0.0001    0.0000   -0.0454
C         3.1605    5.6910    0.1287   -0.0000    0.0001    0.0292
C         4.4025    5.0182    0.1304    0.0000    0.0001    0.0291
C         6.0461   -1.6681    0.1356   -0.0000   -0.0000   -0.0459
C         4.6838   -4.1842    0.1359    0.0000   -0.0000   -0.0455
C         6.7499   -2.8727    0.1368   -0.0001    0.0000    0.0292
C         6.0771   -4.1146    0.1369   -0.0000    0.0000    0.0291
H         6.5562   -0.7047    0.1355   -0.0000   -0.0000   -0.0603
H         4.1560   -5.1380    0.1360    0.0001   -0.0001   -0.0595
H         6.6624   -5.0353    0.1378   -0.0000    0.0001    0.0819
H        -5.2094   -0.0664    0.1257   -0.0000   -0.0000   -0.0603
H        -2.8092    4.3669    0.1248    0.0001   -0.0001   -0.0594
H        -5.3156    4.2642    0.1229   -0.0000    0.0001    0.0819
H        -6.4939    2.0893    0.1234   -0.0001    0.0001    0.0823
H         0.3542   -6.2683    0.1345    0.0001   -0.0000   -0.0602
H        -4.0791   -3.8681    0.1290    0.0001    0.0000   -0.0594
H        -3.9763   -6.3745    0.1309   -0.0000    0.0001    0.0819
H        -1.8014   -7.5529    0.1337   -0.0001    0.0001    0.0823
H         0.9926    5.4972    0.1268    0.0001   -0.0000   -0.0602
H         5.4259    3.0971    0.1328    0.0001    0.0000   -0.0594
H         5.3231    5.6035    0.1309   -0.0000    0.0001    0.0819
H         3.1482    6.7818    0.1279   -0.0001    0.0001    0.0823
H         7.8407   -2.8603    0.1376   -0.0001    0.0001    0.0823
    57
stable frequency at    298.182 1/cm IR int. is 7.694 a.m.u.; force const. is 0.403 mDyne/Ang.
Fe        0.6734   -0.3855    0.1306    0.0119    0.0101   -0.0000
N         3.9138    0.5779    0.1328    0.0354    0.0210    0.0000
N         1.6368   -3.6259    0.1334    0.0198    0.0227    0.0000
N        -0.2395   -2.0709    0.1309    0.0060   -0.0299    0.0000
N        -1.0120    0.5273    0.1286    0.0129    0.0452   -0.0000
N         1.5863    1.2998    0.1304    0.0060   -0.0299    0.0000
N         2.3588   -1.2984    0.1326    0.0129    0.0452   -0.0000
N        -0.2900    2.8548    0.1277    0.0198    0.0227    0.0000
N        -2.5670   -1.3489    0.1285    0.0354    0.0210    0.0001
C        -2.6308    2.2050    0.1263   -0.0038    0.0518   -0.0001
C        -1.2119    1.9066    0.1276   -0.0000    0.0476   -0.0000
C         1.0001    2.5643    0.1290    0.0075   -0.0297    0.0000
C         2.0252    3.5895    0.1292   -0.0005   -0.0461   -0.0000
C        -3.3016    0.9663    0.1265    0.0175    0.0370   -0.0001
C        -2.2764   -0.0588    0.1280    0.0263    0.0298    0.0000
C        -0.6092   -5.7583    0.1333   -0.0297   -0.0571   -0.0000
C        -3.1252   -4.3959    0.1301   -0.0011   -0.0441   -0.0000
C        -1.8137   -6.4621    0.1328   -0.0334   -0.0593    0.0001
C        -4.6993    0.8970    0.1255    0.0195    0.0212   -0.0000
C        -3.3370    3.4131    0.1250   -0.0355    0.0420   -0.0001
C        -5.4031    2.1016    0.1242   -0.0095    0.0051    0.0000
C        -3.0557   -5.7893    0.1313   -0.0251   -0.0488    0.0000
C        -1.6188   -2.2708    0.1299    0.0078   -0.0146    0.0000
C        -1.9171   -3.6897    0.1307   -0.0009   -0.0334   -0.0000
C         3.2639    2.9186    0.1308   -0.0009   -0.0334   -0.0000
C         2.9656    1.4998    0.1315    0.0078   -0.0146    0.0000
C        -4.7303    3.3435    0.1239   -0.0369    0.0187   -0.0000
C         3.6232   -0.7123    0.1333    0.0263    0.0298    0.0000
C         4.6484   -1.7374    0.1346    0.0175    0.0370   -0.0000
C         2.5587   -2.6777    0.1336   -0.0000    0.0476   -0.0000
C         3.9776   -2.9761    0.1348   -0.0038    0.0518   -0.0001
C        -0.6784   -4.3606    0.1322   -0.0005   -0.0461   -0.0000
C         0.3466   -3.3353    0.1323    0.0075   -0.0297    0.0000
C         1.9559    4.9872    0.1281   -0.0297   -0.0571   -0.0000
C         4.4720    3.6248    0.1315   -0.0011   -0.0441   -0.0000
C         3.1605    5.6910    0.1287   -0.0334   -0.0593    0.0001
C         4.4025    5.0182    0.1304   -0.0251   -0.0488    0.0000
C         6.0461   -1.6681    0.1356    0.0195    0.0212   -0.0000
C         4.6838   -4.1842    0.1359   -0.0355    0.0420   -0.0001
C         6.7499   -2.8727    0.1368   -0.0095    0.0051    0.0000
C         6.0771   -4.1146    0.1369   -0.0369    0.0187   -0.0000
H         6.5562   -0.7047    0.1355    0.0372    0.0116   -0.0000
H         4.1560   -5.1380    0.1360   -0.0596    0.0559   -0.0001
H         6.6624   -5.0353    0.1378   -0.0530    0.0086   -0.0000
H        -5.2094   -0.0664    0.1257    0.0372    0.0116   -0.0000
H        -2.8092    4.3669    0.1248   -0.0596    0.0559   -0.0001
H        -5.3156    4.2642    0.1229   -0.0530    0.0086   -0.0000
H        -6.4939    2.0893    0.1234   -0.0092   -0.0226    0.0001
H         0.3542   -6.2683    0.1345   -0.0374   -0.0724   -0.0000
H        -4.0791   -3.8681    0.1290    0.0002   -0.0408   -0.0000
H        -3.9763   -6.3745    0.1309   -0.0361   -0.0315    0.0000
H        -1.8014   -7.5529    0.1337   -0.0345   -0.0596    0.0001
H         0.9926    5.4972    0.1268   -0.0374   -0.0724   -0.0000
H         5.4259    3.0971    0.1328    0.0002   -0.0408   -0.0000
H         5.3231    5.6035    0.1309   -0.0361   -0.0315    0.0000
H         3.1482    6.7818    0.1279   -0.0345   -0.0596    0.0001
H         7.8407   -2.8603    0.1376   -0.0092   -0.0226    0.0001
    57
stable frequency at    298.184 1/cm IR int. is 7.694 a.m.u.; force const. is 0.403 mDyne/Ang.
Fe        0.6734   -0.3855    0.1306    0.0101   -0.0119    0.0000
N         3.9138    0.5779    0.1328    0.0227   -0.0198   -0.0000
N         1.6368   -3.6259    0.1334    0.0210   -0.0354   -0.0000
N        -0.2395   -2.0709    0.1309    0.0452   -0.0129   -0.0000
N        -1.0120    0.5273    0.1286   -0.0299   -0.0060    0.0000
N         1.5863    1.2998    0.1304    0.0452   -0.0129   -0.0000
N         2.3588   -1.2984    0.1326   -0.0299   -0.0060   -0.0000
N        -0.2900    2.8548    0.1277    0.0210   -0.0354   -0.0000
N        -2.5670   -1.3489    0.1285    0.0227   -0.0198   -0.0000
C        -2.6308    2.2050    0.1263   -0.0334    0.0009   -0.0000
C        -1.2119    1.9066    0.1276   -0.0146   -0.0078   -0.0000
C         1.0001    2.5643    0.1290    0.0298   -0.0263   -0.0000
C         2.0252    3.5895    0.1292    0.0370   -0.0175    0.0001
C        -3.3016    0.9663    0.1265   -0.0461    0.0005   -0.0000
C        -2.2764   -0.0588    0.1280   -0.0297   -0.0075   -0.0000
C        -0.6092   -5.7583    0.1333    0.0212   -0.0195    0.0001
C        -3.1252   -4.3959    0.1301    0.0420    0.0355    0.0000
C        -1.8137   -6.4621    0.1328    0.0051    0.0095   -0.0000
C        -4.6993    0.8970    0.1255   -0.0571    0.0297   -0.0001
C        -3.3370    3.4131    0.1250   -0.0441    0.0011    0.0000
C        -5.4031    2.1016    0.1242   -0.0593    0.0334   -0.0001
C        -3.0557   -5.7893    0.1313    0.0187    0.0369   -0.0001
C        -1.6188   -2.2708    0.1299    0.0476    0.0000    0.0000
C        -1.9171   -3.6897    0.1307    0.0518    0.0038    0.0001
C         3.2639    2.9186    0.1308    0.0518    0.0038    0.0001
C         2.9656    1.4998    0.1315    0.0476    0.0000    0.0000
C        -4.7303    3.3435    0.1239   -0.0488    0.0251   -0.0001
C         3.6232   -0.7123    0.1333   -0.0297   -0.0075   -0.0000
C         4.6484   -1.7374    0.1346   -0.0461    0.0005   -0.0000
C         2.5587   -2.6777    0.1336   -0.0146   -0.0078   -0.0000
C         3.9776   -2.9761    0.1348   -0.0334    0.0009    0.0000
C        -0.6784   -4.3606    0.1322    0.0370   -0.0175    0.0001
C         0.3466   -3.3353    0.1323    0.0298   -0.0263    0.0000
C         1.9559    4.9872    0.1281    0.0212   -0.0195    0.0001
C         4.4720    3.6248    0.1315    0.0420    0.0355    0.0001
C         3.1605    5.6910    0.1287    0.0051    0.0095   -0.0000
C         4.4025    5.0182    0.1304    0.0187    0.0369   -0.0001
C         6.0461   -1.6681    0.1356   -0.0571    0.0297   -0.0000
C         4.6838   -4.1842    0.1359   -0.0441    0.0011    0.0000
C         6.7499   -2.8727    0.1368   -0.0593    0.0334   -0.0001
C         6.0771   -4.1146    0.1369   -0.0488    0.0251   -0.0001
H         6.5562   -0.7047    0.1355   -0.0724    0.0374   -0.0001
H         4.1560   -5.1380    0.1360   -0.0408   -0.0002    0.0000
H         6.6624   -5.0353    0.1378   -0.0315    0.0361   -0.0001
H        -5.2094   -0.0664    0.1257   -0.0724    0.0374   -0.0001
H        -2.8092    4.3669    0.1248   -0.0408   -0.0002    0.0000
H        -5.3156    4.2642    0.1229   -0.0315    0.0361   -0.0001
H        -6.4939    2.0893    0.1234   -0.0596    0.0345   -0.0001
H         0.3542   -6.2683    0.1345    0.0116   -0.0372    0.0001
H        -4.0791   -3.8681    0.1290    0.0559    0.0596    0.0000
H        -3.9763   -6.3745    0.1309    0.0086    0.0530   -0.0001
H        -1.8014   -7.5529    0.1337   -0.0226    0.0092   -0.0001
H         0.9926    5.4972    0.1268    0.0116   -0.0372    0.0001
H         5.4259    3.0971    0.1328    0.0559    0.0596    0.0001
H         5.3231    5.6035    0.1309    0.0086    0.0530   -0.0001
H         3.1482    6.7818    0.1279   -0.0226    0.0092   -0.0001
H         7.8407   -2.8603    0.1376   -0.0596    0.0345   -0.0001
    57
stable frequency at    350.210 1/cm IR int. is 18.110 a.m.u.; force const. is 1.309 mDyne/Ang.
Fe        0.6734   -0.3855    0.1306    0.0218   -0.1125    0.0001
N         3.9138    0.5779    0.1328   -0.0074    0.0285   -0.0000
N         1.6368   -3.6259    0.1334    0.0006    0.0086   -0.0000
N        -0.2395   -2.0709    0.1309   -0.0066   -0.0124    0.0000
N        -1.0120    0.5273    0.1286    0.0101   -0.0052    0.0000
N         1.5863    1.2998    0.1304   -0.0066   -0.0124    0.0000
N         2.3588   -1.2984    0.1326    0.0101   -0.0052    0.0000
N        -0.2900    2.8548    0.1277    0.0006    0.0086   -0.0000
N        -2.5670   -1.3489    0.1285   -0.0074    0.0285   -0.0000
C        -2.6308    2.2050    0.1263    0.0039    0.0296   -0.0000
C        -1.2119    1.9066    0.1276    0.0072    0.0060    0.0000
C         1.0001    2.5643    0.1290   -0.0042   -0.0008   -0.0000
C         2.0252    3.5895    0.1292   -0.0136    0.0205   -0.0000
C        -3.3016    0.9663    0.1265    0.0094    0.0305   -0.0000
C        -2.2764   -0.0588    0.1280    0.0076    0.0264   -0.0000
C        -0.6092   -5.7583    0.1333    0.0085    0.0284   -0.0000
C        -3.1252   -4.3959    0.1301   -0.0116    0.0052   -0.0000
C        -1.8137   -6.4621    0.1328    0.0187    0.0175    0.0000
C        -4.6993    0.8970    0.1255    0.0127    0.0093    0.0000
C        -3.3370    3.4131    0.1250   -0.0225    0.0224   -0.0000
C        -5.4031    2.1016    0.1242   -0.0103   -0.0052   -0.0000
C        -3.0557   -5.7893    0.1313    0.0120    0.0061    0.0000
C        -1.6188   -2.2708    0.1299   -0.0197    0.0167   -0.0000
C        -1.9171   -3.6897    0.1307   -0.0191    0.0197   -0.0000
C         3.2639    2.9186    0.1308   -0.0191    0.0197   -0.0000
C         2.9656    1.4998    0.1315   -0.0197    0.0167   -0.0000
C        -4.7303    3.3435    0.1239   -0.0250    0.0023   -0.0000
C         3.6232   -0.7123    0.1333    0.0076    0.0264   -0.0000
C         4.6484   -1.7374    0.1346    0.0094    0.0305   -0.0000
C         2.5587   -2.6777    0.1336    0.0072    0.0060    0.0000
C         3.9776   -2.9761    0.1348    0.0039    0.0296   -0.0000
C        -0.6784   -4.3606    0.1322   -0.0136    0.0205   -0.0000
C         0.3466   -3.3353    0.1323   -0.0042   -0.0008    0.0000
C         1.9559    4.9872    0.1281    0.0085    0.0284   -0.0000
C         4.4720    3.6248    0.1315   -0.0116    0.0052   -0.0000
C         3.1605    5.6910    0.1287    0.0187    0.0175    0.0000
C         4.4025    5.0182    0.1304    0.0120    0.0061    0.0000
C         6.0461   -1.6681    0.1356    0.0127    0.0093    0.0000
C         4.6838   -4.1842    0.1359   -0.0225    0.0224   -0.0000
C         6.7499   -2.8727    0.1368   -0.0103   -0.0052   -0.0000
C         6.0771   -4.1146    0.1369   -0.0250    0.0023   -0.0000
H         6.5562   -0.7047    0.1355    0.0334   -0.0017    0.0000
H         4.1560   -5.1380    0.1360   -0.0452    0.0353   -0.0000
H         6.6624   -5.0353    0.1378   -0.0357   -0.0045   -0.0000
H        -5.2094   -0.0664    0.1257    0.0334   -0.0017    0.0000
H        -2.8092    4.3669    0.1248   -0.0452    0.0353   -0.0001
H        -5.3156    4.2642    0.1229   -0.0357   -0.0045   -0.0000
H        -6.4939    2.0893    0.1234   -0.0101   -0.0237    0.0000
H         0.3542   -6.2683    0.1345    0.0184    0.0473   -0.0000
H        -4.0791   -3.8681    0.1290   -0.0208   -0.0114   -0.0000
H        -3.9763   -6.3745    0.1309    0.0207   -0.0076    0.0000
H        -1.8014   -7.5529    0.1337    0.0280    0.0177    0.0000
H         0.9926    5.4972    0.1268    0.0184    0.0473   -0.0000
H         5.4259    3.0971    0.1328   -0.0208   -0.0114   -0.0000
H         5.3231    5.6035    0.1309    0.0207   -0.0076    0.0000
H         3.1482    6.7818    0.1279    0.0280    0.0177    0.0000
H         7.8407   -2.8603    0.1376   -0.0101   -0.0237    0.0000
    57
stable frequency at    350.212 1/cm IR int. is 18.110 a.m.u.; force const. is 1.309 mDyne/Ang.
Fe        0.6734   -0.3855    0.1306    0.1125    0.0217    0.0001
N         3.9138    0.5779    0.1328   -0.0086    0.0006   -0.0001
N         1.6368   -3.6259    0.1334   -0.0285   -0.0074   -0.0001
N        -0.2395   -2.0709    0.1309    0.0052    0.0101    0.0001
N        -1.0120    0.5273    0.1286    0.0124   -0.0066    0.0001
N         1.5863    1.2998    0.1304    0.0052    0.0101    0.0001
N         2.3588   -1.2984    0.1326    0.0124   -0.0066    0.0001
N        -0.2900    2.8548    0.1277   -0.0285   -0.0074   -0.0001
N        -2.5670   -1.3489    0.1285   -0.0086    0.0006   -0.0001
C        -2.6308    2.2050    0.1263   -0.0197   -0.0191    0.0000
C        -1.2119    1.9066    0.1276   -0.0167   -0.0197    0.0000
C         1.0001    2.5643    0.1290   -0.0264    0.0076   -0.0000
C         2.0252    3.5895    0.1292   -0.0305    0.0094   -0.0000
C        -3.3016    0.9663    0.1265   -0.0205   -0.0136   -0.0000
C        -2.2764   -0.0588    0.1280    0.0008   -0.0042    0.0000
C        -0.6092   -5.7583    0.1333   -0.0093    0.0127   -0.0000
C        -3.1252   -4.3959    0.1301   -0.0224   -0.0225   -0.0000
C        -1.8137   -6.4621    0.1328    0.0052   -0.0103    0.0000
C        -4.6993    0.8970    0.1255   -0.0284    0.0085   -0.0000
C        -3.3370    3.4131    0.1250   -0.0052   -0.0116    0.0000
C        -5.4031    2.1016    0.1242   -0.0175    0.0187   -0.0000
C        -3.0557   -5.7893    0.1313   -0.0023   -0.0250    0.0000
C        -1.6188   -2.2708    0.1299   -0.0060    0.0072    0.0000
C        -1.9171   -3.6897    0.1307   -0.0296    0.0039   -0.0000
C         3.2639    2.9186    0.1308   -0.0296    0.0039   -0.0000
C         2.9656    1.4998    0.1315   -0.0060    0.0072    0.0000
C        -4.7303    3.3435    0.1239   -0.0061    0.0120   -0.0000
C         3.6232   -0.7123    0.1333    0.0008   -0.0042    0.0000
C         4.6484   -1.7374    0.1346   -0.0205   -0.0136   -0.0000
C         2.5587   -2.6777    0.1336   -0.0167   -0.0197    0.0000
C         3.9776   -2.9761    0.1348   -0.0197   -0.0191   -0.0000
C        -0.6784   -4.3606    0.1322   -0.0305    0.0094   -0.0000
C         0.3466   -3.3353    0.1323   -0.0264    0.0076   -0.0000
C         1.9559    4.9872    0.1281   -0.0093    0.0127   -0.0000
C         4.4720    3.6248    0.1315   -0.0224   -0.0225   -0.0000
C         3.1605    5.6910    0.1287    0.0052   -0.0103    0.0000
C         4.4025    5.0182    0.1304   -0.0023   -0.0250    0.0000
C         6.0461   -1.6681    0.1356   -0.0284    0.0085   -0.0000
C         4.6838   -4.1842    0.1359   -0.0052   -0.0116    0.0000
C         6.7499   -2.8727    0.1368   -0.0175    0.0187   -0.0000
C         6.0771   -4.1146    0.1369   -0.0061    0.0120   -0.0000
H         6.5562   -0.7047    0.1355   -0.0473    0.0184   -0.0000
H         4.1560   -5.1380    0.1360    0.0114   -0.0208    0.0000
H         6.6624   -5.0353    0.1378    0.0076    0.0207   -0.0000
H        -5.2094   -0.0664    0.1257   -0.0473    0.0184   -0.0001
H        -2.8092    4.3669    0.1248    0.0114   -0.0208    0.0000
H        -5.3156    4.2642    0.1229    0.0076    0.0207   -0.0000
H        -6.4939    2.0893    0.1234   -0.0177    0.0280   -0.0000
H         0.3542   -6.2683    0.1345    0.0017    0.0334   -0.0000
H        -4.0791   -3.8681    0.1290   -0.0353   -0.0452   -0.0000
H        -3.9763   -6.3745    0.1309    0.0045   -0.0357    0.0000
H        -1.8014   -7.5529    0.1337    0.0237   -0.0101    0.0000
H         0.9926    5.4972    0.1268    0.0017    0.0334   -0.0000
H         5.4259    3.0971    0.1328   -0.0353   -0.0452   -0.0000
H         5.3231    5.6035    0.1309    0.0045   -0.0357    0.0000
H         3.1482    6.7818    0.1279    0.0237   -0.0101    0.0000
H         7.8407   -2.8603    0.1376   -0.0177    0.0280   -0.0000
    57
stable frequency at    366.679 1/cm IR int. is 14.203 a.m.u.; force const. is 1.125 mDyne/Ang.
Fe        0.6734   -0.3855    0.1306   -0.0000   -0.0000   -0.0466
N         3.9138    0.5779    0.1328    0.0001   -0.0001   -0.0824
N         1.6368   -3.6259    0.1334    0.0001   -0.0000   -0.0824
N        -0.2395   -2.0709    0.1309   -0.0001    0.0001    0.0881
N        -1.0120    0.5273    0.1286   -0.0001    0.0001    0.0881
N         1.5863    1.2998    0.1304   -0.0001    0.0001    0.0881
N         2.3588   -1.2984    0.1326   -0.0001    0.0001    0.0881
N        -0.2900    2.8548    0.1277    0.0001   -0.0000   -0.0824
N        -2.5670   -1.3489    0.1285    0.0001   -0.0001   -0.0824
C        -2.6308    2.2050    0.1263    0.0000    0.0000    0.0067
C        -1.2119    1.9066    0.1276   -0.0000    0.0000    0.0205
C         1.0001    2.5643    0.1290   -0.0000    0.0000    0.0213
C         2.0252    3.5895    0.1292    0.0000   -0.0000    0.0072
C        -3.3016    0.9663    0.1265    0.0000    0.0000    0.0072
C        -2.2764   -0.0588    0.1280   -0.0000    0.0000    0.0213
C        -0.6092   -5.7583    0.1333    0.0000   -0.0000   -0.0093
C        -3.1252   -4.3959    0.1301    0.0000    0.0000   -0.0092
C        -1.8137   -6.4621    0.1328   -0.0000    0.0000    0.0058
C        -4.6993    0.8970    0.1255    0.0000   -0.0000   -0.0093
C        -3.3370    3.4131    0.1250    0.0000   -0.0000   -0.0092
C        -5.4031    2.1016    0.1242    0.0000   -0.0000    0.0058
C        -3.0557   -5.7893    0.1313   -0.0000    0.0000    0.0063
C        -1.6188   -2.2708    0.1299   -0.0000    0.0000    0.0205
C        -1.9171   -3.6897    0.1307    0.0000   -0.0000    0.0067
C         3.2639    2.9186    0.1308    0.0000   -0.0000    0.0067
C         2.9656    1.4998    0.1315   -0.0000    0.0000    0.0205
C        -4.7303    3.3435    0.1239    0.0000   -0.0000    0.0063
C         3.6232   -0.7123    0.1333   -0.0000    0.0000    0.0213
C         4.6484   -1.7374    0.1346    0.0000    0.0000    0.0072
C         2.5587   -2.6777    0.1336   -0.0000    0.0000    0.0205
C         3.9776   -2.9761    0.1348    0.0000    0.0000    0.0067
C        -0.6784   -4.3606    0.1322    0.0000   -0.0000    0.0072
C         0.3466   -3.3353    0.1323   -0.0000    0.0000    0.0213
C         1.9559    4.9872    0.1281    0.0000   -0.0000   -0.0093
C         4.4720    3.6248    0.1315    0.0000    0.0000   -0.0092
C         3.1605    5.6910    0.1287   -0.0000    0.0000    0.0058
C         4.4025    5.0182    0.1304   -0.0000    0.0000    0.0063
C         6.0461   -1.6681    0.1356    0.0000   -0.0000   -0.0093
C         4.6838   -4.1842    0.1359    0.0000   -0.0000   -0.0092
C         6.7499   -2.8727    0.1368    0.0000   -0.0000    0.0058
C         6.0771   -4.1146    0.1369    0.0000   -0.0000    0.0063
H         6.5562   -0.7047    0.1355    0.0000   -0.0000   -0.0228
H         4.1560   -5.1380    0.1360    0.0000   -0.0000   -0.0225
H         6.6624   -5.0353    0.1378   -0.0000   -0.0000    0.0122
H        -5.2094   -0.0664    0.1257    0.0000   -0.0000   -0.0228
H        -2.8092    4.3669    0.1248    0.0000   -0.0000   -0.0225
H        -5.3156    4.2642    0.1229   -0.0000   -0.0000    0.0122
H        -6.4939    2.0893    0.1234    0.0000   -0.0000    0.0113
H         0.3542   -6.2683    0.1345    0.0000   -0.0000   -0.0227
H        -4.0791   -3.8681    0.1290    0.0000    0.0000   -0.0225
H        -3.9763   -6.3745    0.1309   -0.0000    0.0000    0.0122
H        -1.8014   -7.5529    0.1337   -0.0000    0.0000    0.0113
H         0.9926    5.4972    0.1268    0.0000   -0.0000   -0.0227
H         5.4259    3.0971    0.1328    0.0000    0.0000   -0.0225
H         5.3231    5.6035    0.1309   -0.0000    0.0000    0.0122
H         3.1482    6.7818    0.1279   -0.0000    0.0000    0.0113
H         7.8407   -2.8603    0.1376    0.0000   -0.0000    0.0113
    57
stable frequency at    406.572 1/cm IR int. is 5.655 a.m.u.; force const. is 0.551 mDyne/Ang.
Fe        0.6734   -0.3855    0.1306   -0.0000    0.0000   -0.0001
N         3.9138    0.5779    0.1328   -0.0000   -0.0000   -0.0005
N         1.6368   -3.6259    0.1334    0.0000   -0.0000   -0.0005
N        -0.2395   -2.0709    0.1309   -0.0000    0.0000    0.0003
N        -1.0120    0.5273    0.1286    0.0000   -0.0000    0.0003
N         1.5863    1.2998    0.1304   -0.0000    0.0000    0.0003
N         2.3588   -1.2984    0.1326    0.0000   -0.0000    0.0003
N        -0.2900    2.8548    0.1277    0.0000   -0.0000   -0.0005
N        -2.5670   -1.3489    0.1285   -0.0000   -0.0000   -0.0005
C        -2.6308    2.2050    0.1263   -0.0000    0.0000    0.0541
C        -1.2119    1.9066    0.1276   -0.0000    0.0000    0.0650
C         1.0001    2.5643    0.1290    0.0001   -0.0000   -0.0648
C         2.0252    3.5895    0.1292    0.0001   -0.0000   -0.0530
C        -3.3016    0.9663    0.1265    0.0000   -0.0000   -0.0531
C        -2.2764   -0.0588    0.1280    0.0001   -0.0000   -0.0648
C        -0.6092   -5.7583    0.1333    0.0000    0.0000   -0.0046
C        -3.1252   -4.3959    0.1301   -0.0000    0.0000    0.0041
C        -1.8137   -6.4621    0.1328   -0.0000    0.0000    0.0471
C        -4.6993    0.8970    0.1255    0.0000   -0.0000   -0.0046
C        -3.3370    3.4131    0.1250   -0.0000   -0.0000    0.0041
C        -5.4031    2.1016    0.1242   -0.0000    0.0000    0.0471
C        -3.0557   -5.7893    0.1313    0.0000   -0.0000   -0.0473
C        -1.6188   -2.2708    0.1299   -0.0001    0.0000    0.0650
C        -1.9171   -3.6897    0.1307   -0.0001    0.0000    0.0541
C         3.2639    2.9186    0.1308   -0.0001    0.0000    0.0541
C         2.9656    1.4998    0.1315   -0.0001    0.0000    0.0650
C        -4.7303    3.3435    0.1239    0.0000   -0.0000   -0.0473
C         3.6232   -0.7123    0.1333    0.0001   -0.0000   -0.0649
C         4.6484   -1.7374    0.1346    0.0000   -0.0000   -0.0531
C         2.5587   -2.6777    0.1336   -0.0000    0.0000    0.0650
C         3.9776   -2.9761    0.1348   -0.0000    0.0000    0.0541
C        -0.6784   -4.3606    0.1322    0.0000   -0.0000   -0.0531
C         0.3466   -3.3353    0.1323    0.0001   -0.0000   -0.0648
C         1.9559    4.9872    0.1281    0.0000    0.0000   -0.0047
C         4.4720    3.6248    0.1315   -0.0000    0.0000    0.0041
C         3.1605    5.6910    0.1287   -0.0000    0.0000    0.0471
C         4.4025    5.0182    0.1304    0.0000   -0.0000   -0.0473
C         6.0461   -1.6681    0.1356    0.0000   -0.0000   -0.0046
C         4.6838   -4.1842    0.1359   -0.0000   -0.0000    0.0041
C         6.7499   -2.8727    0.1368   -0.0000    0.0000    0.0471
C         6.0771   -4.1146    0.1369    0.0000   -0.0000   -0.0473
H         6.5562   -0.7047    0.1355    0.0000   -0.0000    0.0034
H         4.1560   -5.1380    0.1360    0.0000   -0.0000   -0.0050
H         6.6624   -5.0353    0.1378    0.0001   -0.0001   -0.1129
H        -5.2094   -0.0664    0.1257    0.0000   -0.0000    0.0033
H        -2.8092    4.3669    0.1248    0.0000   -0.0000   -0.0050
H        -5.3156    4.2642    0.1229    0.0001   -0.0001   -0.1128
H        -6.4939    2.0893    0.1234   -0.0001    0.0001    0.1130
H         0.3542   -6.2683    0.1345   -0.0000    0.0000    0.0033
H        -4.0791   -3.8681    0.1290   -0.0000   -0.0000   -0.0051
H        -3.9763   -6.3745    0.1309    0.0001   -0.0001   -0.1128
H        -1.8014   -7.5529    0.1337   -0.0001    0.0001    0.1130
H         0.9926    5.4972    0.1268   -0.0000    0.0000    0.0032
H         5.4259    3.0971    0.1328    0.0000   -0.0000   -0.0052
H         5.3231    5.6035    0.1309    0.0001   -0.0001   -0.1128
H         3.1482    6.7818    0.1279   -0.0001    0.0001    0.1130
H         7.8407   -2.8603    0.1376   -0.0001    0.0000    0.1130
    57
stable frequency at    409.877 1/cm IR int. is 3.232 a.m.u.; force const. is 0.320 mDyne/Ang.
Fe        0.6734   -0.3855    0.1306    0.0000   -0.0000   -0.0000
N         3.9138    0.5779    0.1328    0.0000   -0.0000   -0.0110
N         1.6368   -3.6259    0.1334    0.0000   -0.0000   -0.0137
N        -0.2395   -2.0709    0.1309   -0.0000    0.0000    0.0057
N        -1.0120    0.5273    0.1286    0.0000   -0.0000   -0.0484
N         1.5863    1.2998    0.1304    0.0000   -0.0000   -0.0058
N         2.3588   -1.2984    0.1326   -0.0000    0.0000    0.0485
N        -0.2900    2.8548    0.1277   -0.0000    0.0000    0.0137
N        -2.5670   -1.3489    0.1285   -0.0000    0.0000    0.0110
C        -2.6308    2.2050    0.1263   -0.0001    0.0000    0.0658
C        -1.2119    1.9066    0.1276   -0.0000    0.0000    0.0096
C         1.0001    2.5643    0.1290    0.0000   -0.0000   -0.0190
C         2.0252    3.5895    0.1292    0.0000   -0.0000   -0.0088
C        -3.3016    0.9663    0.1265   -0.0001    0.0000    0.0697
C        -2.2764   -0.0588    0.1280   -0.0000    0.0000    0.0146
C        -0.6092   -5.7583    0.1333   -0.0000    0.0000    0.0125
C        -3.1252   -4.3959    0.1301   -0.0000    0.0000    0.0073
C        -1.8137   -6.4621    0.1328    0.0000   -0.0000   -0.0195
C        -4.6993    0.8970    0.1255    0.0001   -0.0001   -0.0817
C        -3.3370    3.4131    0.1250    0.0001   -0.0000   -0.0821
C        -5.4031    2.1016    0.1242   -0.0000    0.0000    0.0362
C        -3.0557   -5.7893    0.1313   -0.0000    0.0000    0.0105
C        -1.6188   -2.2708    0.1299    0.0000   -0.0000   -0.0220
C        -1.9171   -3.6897    0.1307    0.0000   -0.0000   -0.0255
C         3.2639    2.9186    0.1308   -0.0000    0.0000    0.0255
C         2.9656    1.4998    0.1315   -0.0000    0.0000    0.0220
C        -4.7303    3.3435    0.1239   -0.0000    0.0000    0.0397
C         3.6232   -0.7123    0.1333    0.0000   -0.0000   -0.0146
C         4.6484   -1.7374    0.1346    0.0001   -0.0000   -0.0698
C         2.5587   -2.6777    0.1336    0.0000   -0.0000   -0.0096
C         3.9776   -2.9761    0.1348    0.0000   -0.0000   -0.0659
C        -0.6784   -4.3606    0.1322   -0.0000    0.0000    0.0089
C         0.3466   -3.3353    0.1323   -0.0000    0.0000    0.0190
C         1.9559    4.9872    0.1281    0.0000   -0.0000   -0.0126
C         4.4720    3.6248    0.1315    0.0000   -0.0000   -0.0073
C         3.1605    5.6910    0.1287   -0.0000    0.0000    0.0195
C         4.4025    5.0182    0.1304    0.0000   -0.0000   -0.0105
C         6.0461   -1.6681    0.1356   -0.0001    0.0000    0.0818
C         4.6838   -4.1842    0.1359   -0.0001    0.0000    0.0822
C         6.7499   -2.8727    0.1368    0.0000   -0.0000   -0.0362
C         6.0771   -4.1146    0.1369    0.0000   -0.0000   -0.0397
H         6.5562   -0.7047    0.1355   -0.0002    0.0001    0.2412
H         4.1560   -5.1380    0.1360   -0.0002    0.0001    0.2403
H         6.6624   -5.0353    0.1378    0.0000   -0.0000   -0.0459
H        -5.2094   -0.0664    0.1257    0.0002   -0.0002   -0.2409
H        -2.8092    4.3669    0.1248    0.0002   -0.0001   -0.2400
H        -5.3156    4.2642    0.1229   -0.0000    0.0000    0.0459
H        -6.4939    2.0893    0.1234   -0.0000    0.0000    0.0385
H         0.3542   -6.2683    0.1345   -0.0000    0.0000    0.0276
H        -4.0791   -3.8681    0.1290   -0.0000    0.0000    0.0306
H        -3.9763   -6.3745    0.1309   -0.0000    0.0000    0.0323
H        -1.8014   -7.5529    0.1337    0.0000   -0.0000   -0.0425
H         0.9926    5.4972    0.1268    0.0000   -0.0000   -0.0279
H         5.4259    3.0971    0.1328    0.0000   -0.0000   -0.0308
H         5.3231    5.6035    0.1309    0.0000   -0.0000   -0.0322
H         3.1482    6.7818    0.1279   -0.0000    0.0000    0.0425
H         7.8407   -2.8603    0.1376    0.0000   -0.0000   -0.0386
    57
stable frequency at    409.885 1/cm IR int. is 3.232 a.m.u.; force const. is 0.320 mDyne/Ang.
Fe        0.6734   -0.3855    0.1306   -0.0000   -0.0000   -0.0000
N         3.9138    0.5779    0.1328    0.0000   -0.0000   -0.0137
N         1.6368   -3.6259    0.1334   -0.0000    0.0000    0.0110
N        -0.2395   -2.0709    0.1309    0.0000   -0.0000   -0.0484
N        -1.0120    0.5273    0.1286    0.0000   -0.0000   -0.0058
N         1.5863    1.2998    0.1304   -0.0000    0.0000    0.0484
N         2.3588   -1.2984    0.1326   -0.0000    0.0000    0.0057
N        -0.2900    2.8548    0.1277    0.0000   -0.0000   -0.0110
N        -2.5670   -1.3489    0.1285   -0.0000    0.0000    0.0137
C        -2.6308    2.2050    0.1263   -0.0000    0.0000    0.0255
C        -1.2119    1.9066    0.1276   -0.0000    0.0000    0.0220
C         1.0001    2.5643    0.1290    0.0000   -0.0000   -0.0146
C         2.0252    3.5895    0.1292    0.0001   -0.0000   -0.0698
C        -3.3016    0.9663    0.1265    0.0000   -0.0000   -0.0089
C        -2.2764   -0.0588    0.1280    0.0000   -0.0000   -0.0190
C        -0.6092   -5.7583    0.1333    0.0001   -0.0001   -0.0818
C        -3.1252   -4.3959    0.1301    0.0001   -0.0001   -0.0821
C        -1.8137   -6.4621    0.1328   -0.0000    0.0000    0.0362
C        -4.6993    0.8970    0.1255    0.0000   -0.0000   -0.0126
C        -3.3370    3.4131    0.1250   -0.0000   -0.0000   -0.0073
C        -5.4031    2.1016    0.1242   -0.0000    0.0000    0.0196
C        -3.0557   -5.7893    0.1313   -0.0000    0.0000    0.0397
C        -1.6188   -2.2708    0.1299   -0.0000    0.0000    0.0097
C        -1.9171   -3.6897    0.1307   -0.0000    0.0000    0.0658
C         3.2639    2.9186    0.1308    0.0001   -0.0000   -0.0658
C         2.9656    1.4998    0.1315    0.0000   -0.0000   -0.0096
C        -4.7303    3.3435    0.1239    0.0000   -0.0000   -0.0105
C         3.6232   -0.7123    0.1333   -0.0000    0.0000    0.0190
C         4.6484   -1.7374    0.1346   -0.0000   -0.0000    0.0088
C         2.5587   -2.6777    0.1336    0.0000   -0.0000   -0.0219
C         3.9776   -2.9761    0.1348    0.0000   -0.0000   -0.0255
C        -0.6784   -4.3606    0.1322   -0.0001    0.0000    0.0697
C         0.3466   -3.3353    0.1323   -0.0000    0.0000    0.0146
C         1.9559    4.9872    0.1281   -0.0001    0.0001    0.0818
C         4.4720    3.6248    0.1315   -0.0001    0.0000    0.0821
C         3.1605    5.6910    0.1287    0.0000   -0.0000   -0.0362
C         4.4025    5.0182    0.1304    0.0000   -0.0000   -0.0397
C         6.0461   -1.6681    0.1356   -0.0000    0.0000    0.0126
C         4.6838   -4.1842    0.1359    0.0000    0.0000    0.0073
C         6.7499   -2.8727    0.1368    0.0000   -0.0000   -0.0195
C         6.0771   -4.1146    0.1369   -0.0000    0.0000    0.0105
H         6.5562   -0.7047    0.1355   -0.0000    0.0000    0.0277
H         4.1560   -5.1380    0.1360   -0.0000    0.0000    0.0307
H         6.6624   -5.0353    0.1378   -0.0000    0.0000    0.0322
H        -5.2094   -0.0664    0.1257    0.0000   -0.0000   -0.0278
H        -2.8092    4.3669    0.1248    0.0000   -0.0000   -0.0307
H        -5.3156    4.2642    0.1229    0.0000   -0.0000   -0.0323
H        -6.4939    2.0893    0.1234   -0.0000    0.0000    0.0425
H         0.3542   -6.2683    0.1345    0.0002   -0.0002   -0.2410
H        -4.0791   -3.8681    0.1290    0.0002   -0.0002   -0.2401
H        -3.9763   -6.3745    0.1309   -0.0000    0.0000    0.0459
H        -1.8014   -7.5529    0.1337   -0.0001    0.0000    0.0386
H         0.9926    5.4972    0.1268   -0.0002    0.0002    0.2411
H         5.4259    3.0971    0.1328   -0.0002    0.0001    0.2402
H         5.3231    5.6035    0.1309    0.0000   -0.0001   -0.0459
H         3.1482    6.7818    0.1279    0.0001   -0.0000   -0.0385
H         7.8407   -2.8603    0.1376    0.0000   -0.0000   -0.0424
    57
stable frequency at    412.578 1/cm IR int. is 3.175 a.m.u.; force const. is 0.318 mDyne/Ang.
Fe        0.6734   -0.3855    0.1306   -0.0000    0.0000    0.0000
N         3.9138    0.5779    0.1328    0.0000   -0.0000    0.0000
N         1.6368   -3.6259    0.1334    0.0000   -0.0000   -0.0000
N        -0.2395   -2.0709    0.1309   -0.0000    0.0000    0.0419
N        -1.0120    0.5273    0.1286    0.0000   -0.0000   -0.0419
N         1.5863    1.2998    0.1304   -0.0000    0.0000    0.0418
N         2.3588   -1.2984    0.1326    0.0000   -0.0000   -0.0418
N        -0.2900    2.8548    0.1277    0.0000   -0.0000   -0.0000
N        -2.5670   -1.3489    0.1285    0.0000   -0.0000    0.0000
C        -2.6308    2.2050    0.1263   -0.0000    0.0000    0.0516
C        -1.2119    1.9066    0.1276   -0.0000    0.0000    0.0049
C         1.0001    2.5643    0.1290    0.0000   -0.0000   -0.0050
C         2.0252    3.5895    0.1292    0.0000   -0.0000   -0.0514
C        -3.3016    0.9663    0.1265   -0.0000    0.0000    0.0515
C        -2.2764   -0.0588    0.1280   -0.0000    0.0000    0.0049
C        -0.6092   -5.7583    0.1333   -0.0001    0.0001    0.0574
C        -3.1252   -4.3959    0.1301   -0.0001    0.0000    0.0574
C        -1.8137   -6.4621    0.1328    0.0000   -0.0000   -0.0275
C        -4.6993    0.8970    0.1255    0.0000   -0.0000   -0.0575
C        -3.3370    3.4131    0.1250    0.0000   -0.0000   -0.0574
C        -5.4031    2.1016    0.1242   -0.0000    0.0000    0.0275
C        -3.0557   -5.7893    0.1313    0.0000   -0.0000   -0.0274
C        -1.6188   -2.2708    0.1299    0.0000   -0.0000   -0.0049
C        -1.9171   -3.6897    0.1307    0.0000   -0.0000   -0.0515
C         3.2639    2.9186    0.1308    0.0000   -0.0000   -0.0514
C         2.9656    1.4998    0.1315    0.0000   -0.0000   -0.0049
C        -4.7303    3.3435    0.1239   -0.0000    0.0000    0.0274
C         3.6232   -0.7123    0.1333   -0.0000    0.0000    0.0049
C         4.6484   -1.7374    0.1346   -0.0000    0.0000    0.0514
C         2.5587   -2.6777    0.1336   -0.0000    0.0000    0.0049
C         3.9776   -2.9761    0.1348   -0.0000    0.0000    0.0515
C        -0.6784   -4.3606    0.1322    0.0000   -0.0000   -0.0514
C         0.3466   -3.3353    0.1323    0.0000   -0.0000   -0.0049
C         1.9559    4.9872    0.1281   -0.0001    0.0001    0.0574
C         4.4720    3.6248    0.1315   -0.0001    0.0000    0.0573
C         3.1605    5.6910    0.1287    0.0000   -0.0000   -0.0274
C         4.4025    5.0182    0.1304    0.0000   -0.0000   -0.0274
C         6.0461   -1.6681    0.1356    0.0000   -0.0000   -0.0574
C         4.6838   -4.1842    0.1359    0.0000   -0.0000   -0.0573
C         6.7499   -2.8727    0.1368   -0.0000    0.0000    0.0275
C         6.0771   -4.1146    0.1369   -0.0000    0.0000    0.0274
H         6.5562   -0.7047    0.1355    0.0001   -0.0001   -0.1764
H         4.1560   -5.1380    0.1360    0.0001   -0.0001   -0.1762
H         6.6624   -5.0353    0.1378   -0.0000    0.0000    0.0248
H        -5.2094   -0.0664    0.1257    0.0001   -0.0001   -0.1768
H        -2.8092    4.3669    0.1248    0.0001   -0.0001   -0.1766
H        -5.3156    4.2642    0.1229   -0.0000    0.0000    0.0249
H        -6.4939    2.0893    0.1234   -0.0000    0.0000    0.0256
H         0.3542   -6.2683    0.1345   -0.0002    0.0001    0.1766
H        -4.0791   -3.8681    0.1290   -0.0002    0.0001    0.1764
H        -3.9763   -6.3745    0.1309    0.0000   -0.0000   -0.0249
H        -1.8014   -7.5529    0.1337    0.0000   -0.0000   -0.0256
H         0.9926    5.4972    0.1268   -0.0002    0.0001    0.1764
H         5.4259    3.0971    0.1328   -0.0002    0.0001    0.1762
H         5.3231    5.6035    0.1309    0.0000   -0.0000   -0.0249
H         3.1482    6.7818    0.1279    0.0000   -0.0000   -0.0255
H         7.8407   -2.8603    0.1376   -0.0000    0.0000    0.0256
    57
stable frequency at    426.787 1/cm IR int. is 3.266 a.m.u.; force const. is 0.351 mDyne/Ang.
Fe        0.6734   -0.3855    0.1306   -0.0000    0.0000    0.0141
N         3.9138    0.5779    0.1328    0.0000   -0.0000   -0.0125
N         1.6368   -3.6259    0.1334    0.0000   -0.0000   -0.0125
N        -0.2395   -2.0709    0.1309    0.0000   -0.0000   -0.0299
N        -1.0120    0.5273    0.1286    0.0000   -0.0000   -0.0299
N         1.5863    1.2998    0.1304    0.0000   -0.0000   -0.0299
N         2.3588   -1.2984    0.1326    0.0000   -0.0000   -0.0299
N        -0.2900    2.8548    0.1277    0.0000   -0.0000   -0.0125
N        -2.5670   -1.3489    0.1285    0.0000   -0.0000   -0.0125
C        -2.6308    2.2050    0.1263   -0.0000    0.0000    0.0614
C        -1.2119    1.9066    0.1276    0.0000   -0.0000   -0.0042
C         1.0001    2.5643    0.1290   -0.0000    0.0000   -0.0034
C         2.0252    3.5895    0.1292   -0.0001    0.0000    0.0620
C        -3.3016    0.9663    0.1265   -0.0000    0.0000    0.0620
C        -2.2764   -0.0588    0.1280    0.0000   -0.0000   -0.0034
C        -0.6092   -5.7583    0.1333    0.0000   -0.0000   -0.0520
C        -3.1252   -4.3959    0.1301    0.0000   -0.0000   -0.0520
C        -1.8137   -6.4621    0.1328   -0.0000    0.0000    0.0239
C        -4.6993    0.8970    0.1255    0.0000   -0.0000   -0.0520
C        -3.3370    3.4131    0.1250    0.0000   -0.0000   -0.0519
C        -5.4031    2.1016    0.1242   -0.0000    0.0000    0.0239
C        -3.0557   -5.7893    0.1313   -0.0000    0.0000    0.0245
C        -1.6188   -2.2708    0.1299   -0.0000   -0.0000   -0.0042
C        -1.9171   -3.6897    0.1307   -0.0001    0.0000    0.0615
C         3.2639    2.9186    0.1308   -0.0001    0.0000    0.0615
C         2.9656    1.4998    0.1315   -0.0000    0.0000   -0.0042
C        -4.7303    3.3435    0.1239   -0.0000    0.0000    0.0245
C         3.6232   -0.7123    0.1333    0.0000   -0.0000   -0.0034
C         4.6484   -1.7374    0.1346   -0.0000    0.0000    0.0620
C         2.5587   -2.6777    0.1336    0.0000   -0.0000   -0.0042
C         3.9776   -2.9761    0.1348   -0.0000    0.0000    0.0614
C        -0.6784   -4.3606    0.1322   -0.0001    0.0000    0.0620
C         0.3466   -3.3353    0.1323   -0.0000    0.0000   -0.0034
C         1.9559    4.9872    0.1281    0.0001   -0.0000   -0.0520
C         4.4720    3.6248    0.1315    0.0001   -0.0000   -0.0520
C         3.1605    5.6910    0.1287   -0.0000    0.0000    0.0239
C         4.4025    5.0182    0.1304   -0.0000    0.0000    0.0245
C         6.0461   -1.6681    0.1356    0.0000   -0.0000   -0.0520
C         4.6838   -4.1842    0.1359    0.0000   -0.0000   -0.0519
C         6.7499   -2.8727    0.1368   -0.0000    0.0000    0.0239
C         6.0771   -4.1146    0.1369   -0.0000    0.0000    0.0244
H         6.5562   -0.7047    0.1355    0.0001   -0.0001   -0.1745
H         4.1560   -5.1380    0.1360    0.0001   -0.0001   -0.1743
H         6.6624   -5.0353    0.1378   -0.0000   -0.0000    0.0128
H        -5.2094   -0.0664    0.1257    0.0001   -0.0001   -0.1746
H        -2.8092    4.3669    0.1248    0.0001   -0.0001   -0.1744
H        -5.3156    4.2642    0.1229   -0.0000   -0.0000    0.0128
H        -6.4939    2.0893    0.1234   -0.0000    0.0000    0.0125
H         0.3542   -6.2683    0.1345    0.0001   -0.0001   -0.1747
H        -4.0791   -3.8681    0.1290    0.0001   -0.0001   -0.1744
H        -3.9763   -6.3745    0.1309   -0.0000    0.0000    0.0128
H        -1.8014   -7.5529    0.1337   -0.0000    0.0000    0.0125
H         0.9926    5.4972    0.1268    0.0002   -0.0001   -0.1746
H         5.4259    3.0971    0.1328    0.0002   -0.0001   -0.1744
H         5.3231    5.6035    0.1309   -0.0000    0.0000    0.0128
H         3.1482    6.7818    0.1279   -0.0000    0.0000    0.0125
H         7.8407   -2.8603    0.1376   -0.0000    0.0000    0.0125
    57
stable frequency at    476.752 1/cm IR int. is 4.726 a.m.u.; force const. is 0.633 mDyne/Ang.
Fe        0.6734   -0.3855    0.1306    0.0000    0.0000    0.0000
N         3.9138    0.5779    0.1328   -0.0001    0.0000    0.0528
N         1.6368   -3.6259    0.1334    0.0000   -0.0001   -0.0500
N        -0.2395   -2.0709    0.1309   -0.0000    0.0000    0.0160
N        -1.0120    0.5273    0.1286   -0.0000    0.0000    0.0003
N         1.5863    1.2998    0.1304    0.0000   -0.0000   -0.0160
N         2.3588   -1.2984    0.1326    0.0000   -0.0000   -0.0003
N        -0.2900    2.8548    0.1277   -0.0000    0.0000    0.0500
N        -2.5670   -1.3489    0.1285    0.0000   -0.0000   -0.0528
C        -2.6308    2.2050    0.1263    0.0000   -0.0001   -0.0700
C        -1.2119    1.9066    0.1276    0.0000   -0.0000   -0.0452
C         1.0001    2.5643    0.1290   -0.0000    0.0000    0.0173
C         2.0252    3.5895    0.1292    0.0000   -0.0000   -0.0347
C        -3.3016    0.9663    0.1265   -0.0001    0.0000    0.0721
C        -2.2764   -0.0588    0.1280   -0.0000    0.0000    0.0443
C        -0.6092   -5.7583    0.1333    0.0000   -0.0000   -0.0133
C        -3.1252   -4.3959    0.1301    0.0000   -0.0000   -0.0117
C        -1.8137   -6.4621    0.1328   -0.0000    0.0000    0.0087
C        -4.6993    0.8970    0.1255   -0.0001    0.0000    0.0291
C        -3.3370    3.4131    0.1250    0.0000   -0.0000   -0.0303
C        -5.4031    2.1016    0.1242    0.0000   -0.0000   -0.0691
C        -3.0557   -5.7893    0.1313   -0.0000   -0.0000    0.0048
C        -1.6188   -2.2708    0.1299    0.0000   -0.0000   -0.0149
C        -1.9171   -3.6897    0.1307   -0.0000    0.0000    0.0387
C         3.2639    2.9186    0.1308    0.0000   -0.0000   -0.0387
C         2.9656    1.4998    0.1315   -0.0000    0.0000    0.0149
C        -4.7303    3.3435    0.1239   -0.0000    0.0000    0.0701
C         3.6232   -0.7123    0.1333    0.0000   -0.0000   -0.0443
C         4.6484   -1.7374    0.1346    0.0001   -0.0000   -0.0721
C         2.5587   -2.6777    0.1336   -0.0000    0.0000    0.0452
C         3.9776   -2.9761    0.1348   -0.0000    0.0001    0.0700
C        -0.6784   -4.3606    0.1322   -0.0000    0.0000    0.0347
C         0.3466   -3.3353    0.1323    0.0000   -0.0000   -0.0173
C         1.9559    4.9872    0.1281   -0.0000    0.0000    0.0133
C         4.4720    3.6248    0.1315   -0.0000    0.0000    0.0117
C         3.1605    5.6910    0.1287    0.0000   -0.0000   -0.0087
C         4.4025    5.0182    0.1304    0.0000    0.0000   -0.0048
C         6.0461   -1.6681    0.1356    0.0001   -0.0000   -0.0291
C         4.6838   -4.1842    0.1359   -0.0000    0.0000    0.0303
C         6.7499   -2.8727    0.1368   -0.0000    0.0000    0.0691
C         6.0771   -4.1146    0.1369    0.0000   -0.0000   -0.0701
H         6.5562   -0.7047    0.1355    0.0001   -0.0000   -0.0244
H         4.1560   -5.1380    0.1360   -0.0000    0.0000    0.0295
H         6.6624   -5.0353    0.1378    0.0001   -0.0001   -0.1708
H        -5.2094   -0.0664    0.1257   -0.0001    0.0000    0.0244
H        -2.8092    4.3669    0.1248    0.0000   -0.0000   -0.0295
H        -5.3156    4.2642    0.1229   -0.0001    0.0001    0.1708
H        -6.4939    2.0893    0.1234    0.0001   -0.0001   -0.1717
H         0.3542   -6.2683    0.1345    0.0001   -0.0000   -0.0731
H        -4.0791   -3.8681    0.1290    0.0000   -0.0001   -0.0716
H        -3.9763   -6.3745    0.1309    0.0000   -0.0000   -0.0196
H        -1.8014   -7.5529    0.1337    0.0000   -0.0000   -0.0095
H         0.9926    5.4972    0.1268   -0.0001    0.0000    0.0731
H         5.4259    3.0971    0.1328   -0.0001    0.0001    0.0715
H         5.3231    5.6035    0.1309   -0.0000    0.0000    0.0196
H         3.1482    6.7818    0.1279   -0.0000    0.0000    0.0095
H         7.8407   -2.8603    0.1376   -0.0001    0.0001    0.1717
    57
stable frequency at    476.756 1/cm IR int. is 4.726 a.m.u.; force const. is 0.633 mDyne/Ang.
Fe        0.6734   -0.3855    0.1306    0.0000   -0.0000   -0.0000
N         3.9138    0.5779    0.1328    0.0001   -0.0000   -0.0500
N         1.6368   -3.6259    0.1334    0.0000    0.0000   -0.0528
N        -0.2395   -2.0709    0.1309   -0.0000    0.0000    0.0003
N        -1.0120    0.5273    0.1286   -0.0000   -0.0000   -0.0160
N         1.5863    1.2998    0.1304    0.0000   -0.0000   -0.0003
N         2.3588   -1.2984    0.1326    0.0000    0.0000    0.0160
N        -0.2900    2.8548    0.1277   -0.0000   -0.0000    0.0528
N        -2.5670   -1.3489    0.1285   -0.0001    0.0000    0.0500
C        -2.6308    2.2050    0.1263    0.0001    0.0000   -0.0387
C        -1.2119    1.9066    0.1276   -0.0000   -0.0000    0.0149
C         1.0001    2.5643    0.1290    0.0001   -0.0000   -0.0443
C         2.0252    3.5895    0.1292    0.0000   -0.0000   -0.0721
C        -3.3016    0.9663    0.1265    0.0001    0.0000   -0.0347
C        -2.2764   -0.0588    0.1280   -0.0000    0.0000    0.0173
C        -0.6092   -5.7583    0.1333   -0.0000   -0.0001    0.0291
C        -3.1252   -4.3959    0.1301    0.0001    0.0000   -0.0303
C        -1.8137   -6.4621    0.1328    0.0000   -0.0001   -0.0691
C        -4.6993    0.8970    0.1255    0.0001    0.0000    0.0133
C        -3.3370    3.4131    0.1250   -0.0000    0.0001    0.0117
C        -5.4031    2.1016    0.1242    0.0000   -0.0000   -0.0087
C        -3.0557   -5.7893    0.1313   -0.0000    0.0001    0.0701
C        -1.6188   -2.2708    0.1299    0.0000   -0.0000   -0.0452
C        -1.9171   -3.6897    0.1307    0.0001   -0.0001   -0.0700
C         3.2639    2.9186    0.1308   -0.0001    0.0001    0.0700
C         2.9656    1.4998    0.1315   -0.0000    0.0000    0.0452
C        -4.7303    3.3435    0.1239   -0.0000   -0.0000   -0.0048
C         3.6232   -0.7123    0.1333    0.0000   -0.0000   -0.0173
C         4.6484   -1.7374    0.1346   -0.0001   -0.0000    0.0347
C         2.5587   -2.6777    0.1336    0.0000    0.0000   -0.0149
C         3.9776   -2.9761    0.1348   -0.0001   -0.0000    0.0387
C        -0.6784   -4.3606    0.1322    0.0000    0.0000    0.0721
C         0.3466   -3.3353    0.1323   -0.0000    0.0001    0.0444
C         1.9559    4.9872    0.1281    0.0000    0.0001   -0.0291
C         4.4720    3.6248    0.1315   -0.0001   -0.0000    0.0303
C         3.1605    5.6910    0.1287   -0.0000    0.0001    0.0691
C         4.4025    5.0182    0.1304    0.0001   -0.0001   -0.0701
C         6.0461   -1.6681    0.1356   -0.0001   -0.0000   -0.0133
C         4.6838   -4.1842    0.1359    0.0000   -0.0001   -0.0117
C         6.7499   -2.8727    0.1368   -0.0000    0.0000    0.0087
C         6.0771   -4.1146    0.1369    0.0000    0.0000    0.0048
H         6.5562   -0.7047    0.1355   -0.0001   -0.0000   -0.0731
H         4.1560   -5.1380    0.1360    0.0001   -0.0001   -0.0715
H         6.6624   -5.0353    0.1378    0.0001    0.0000   -0.0196
H        -5.2094   -0.0664    0.1257    0.0001    0.0000    0.0731
H        -2.8092    4.3669    0.1248   -0.0001    0.0001    0.0715
H        -5.3156    4.2642    0.1229   -0.0001   -0.0000    0.0197
H        -6.4939    2.0893    0.1234    0.0000   -0.0001    0.0095
H         0.3542   -6.2683    0.1345   -0.0000   -0.0001    0.0244
H        -4.0791   -3.8681    0.1290    0.0001    0.0001   -0.0294
H        -3.9763   -6.3745    0.1309   -0.0002    0.0002    0.1708
H        -1.8014   -7.5529    0.1337    0.0001   -0.0002   -0.1717
H         0.9926    5.4972    0.1268    0.0000    0.0001   -0.0244
H         5.4259    3.0971    0.1328   -0.0001   -0.0001    0.0295
H         5.3231    5.6035    0.1309    0.0002   -0.0002   -0.1708
H         3.1482    6.7818    0.1279   -0.0001    0.0002    0.1717
H         7.8407   -2.8603    0.1376   -0.0000    0.0001   -0.0095
    57
stable frequency at    480.536 1/cm IR int. is 5.685 a.m.u.; force const. is 0.773 mDyne/Ang.
Fe        0.6734   -0.3855    0.1306    0.0000   -0.0000    0.0000
N         3.9138    0.5779    0.1328   -0.0439   -0.0128   -0.0001
N         1.6368   -3.6259    0.1334    0.0128   -0.0439   -0.0000
N        -0.2395   -2.0709    0.1309    0.0259   -0.0143    0.0000
N        -1.0120    0.5273    0.1286    0.0143    0.0259   -0.0000
N         1.5863    1.2998    0.1304   -0.0259    0.0143   -0.0000
N         2.3588   -1.2984    0.1326   -0.0143   -0.0259    0.0000
N        -0.2900    2.8548    0.1277   -0.0128    0.0439    0.0000
N        -2.5670   -1.3489    0.1285    0.0439    0.0128    0.0001
C        -2.6308    2.2050    0.1263   -0.0194   -0.0562   -0.0000
C        -1.2119    1.9066    0.1276   -0.0027    0.0160    0.0000
C         1.0001    2.5643    0.1290   -0.0060    0.0152   -0.0001
C         2.0252    3.5895    0.1292    0.0471   -0.0359   -0.0000
C        -3.3016    0.9663    0.1265   -0.0359   -0.0471   -0.0001
C        -2.2764   -0.0588    0.1280    0.0152    0.0060    0.0000
C        -0.6092   -5.7583    0.1333   -0.0118    0.0552   -0.0000
C        -3.1252   -4.3959    0.1301   -0.0535   -0.0198   -0.0001
C        -1.8137   -6.4621    0.1328    0.0164    0.0183   -0.0001
C        -4.6993    0.8970    0.1255   -0.0552   -0.0118   -0.0000
C        -3.3370    3.4131    0.1250    0.0198   -0.0535    0.0001
C        -5.4031    2.1016    0.1242   -0.0183    0.0164   -0.0000
C        -3.0557   -5.7893    0.1313   -0.0059   -0.0230    0.0001
C        -1.6188   -2.2708    0.1299    0.0160    0.0027   -0.0000
C        -1.9171   -3.6897    0.1307   -0.0562    0.0194   -0.0001
C         3.2639    2.9186    0.1308    0.0562   -0.0194    0.0001
C         2.9656    1.4998    0.1315   -0.0160   -0.0027    0.0000
C        -4.7303    3.3435    0.1239    0.0230   -0.0059   -0.0000
C         3.6232   -0.7123    0.1333   -0.0152   -0.0060   -0.0000
C         4.6484   -1.7374    0.1346    0.0359    0.0471    0.0001
C         2.5587   -2.6777    0.1336    0.0027   -0.0160   -0.0000
C         3.9776   -2.9761    0.1348    0.0194    0.0562    0.0000
C        -0.6784   -4.3606    0.1322   -0.0471    0.0359    0.0000
C         0.3466   -3.3353    0.1323    0.0060   -0.0152    0.0001
C         1.9559    4.9872    0.1281    0.0118   -0.0552    0.0000
C         4.4720    3.6248    0.1315    0.0535    0.0198    0.0001
C         3.1605    5.6910    0.1287   -0.0164   -0.0183    0.0001
C         4.4025    5.0182    0.1304    0.0059    0.0230   -0.0001
C         6.0461   -1.6681    0.1356    0.0552    0.0118    0.0000
C         4.6838   -4.1842    0.1359   -0.0198    0.0535   -0.0001
C         6.7499   -2.8727    0.1368    0.0183   -0.0164    0.0000
C         6.0771   -4.1146    0.1369   -0.0230    0.0059    0.0000
H         6.5562   -0.7047    0.1355    0.0948   -0.0089    0.0000
H         4.1560   -5.1380    0.1360   -0.0604    0.0766   -0.0002
H         6.6624   -5.0353    0.1378   -0.0578   -0.0159   -0.0000
H        -5.2094   -0.0664    0.1257   -0.0948    0.0089    0.0000
H        -2.8092    4.3669    0.1248    0.0604   -0.0766    0.0002
H        -5.3156    4.2642    0.1229    0.0578    0.0159    0.0000
H        -6.4939    2.0893    0.1234   -0.0190    0.0573    0.0000
H         0.3542   -6.2683    0.1345    0.0089    0.0948   -0.0000
H        -4.0791   -3.8681    0.1290   -0.0766   -0.0604   -0.0001
H        -3.9763   -6.3745    0.1309    0.0159   -0.0578    0.0003
H        -1.8014   -7.5529    0.1337    0.0573    0.0190   -0.0002
H         0.9926    5.4972    0.1268   -0.0089   -0.0948    0.0000
H         5.4259    3.0971    0.1328    0.0766    0.0604    0.0001
H         5.3231    5.6035    0.1309   -0.0159    0.0578   -0.0003
H         3.1482    6.7818    0.1279   -0.0573   -0.0190    0.0002
H         7.8407   -2.8603    0.1376    0.0190   -0.0573   -0.0000
    57
stable frequency at    504.291 1/cm IR int. is 4.262 a.m.u.; force const. is 0.639 mDyne/Ang.
Fe        0.6734   -0.3855    0.1306    0.0000    0.0000    0.0000
N         3.9138    0.5779    0.1328   -0.0001    0.0000    0.0490
N         1.6368   -3.6259    0.1334    0.0000   -0.0000   -0.0490
N        -0.2395   -2.0709    0.1309   -0.0000    0.0000   -0.0000
N        -1.0120    0.5273    0.1286    0.0000   -0.0000    0.0000
N         1.5863    1.2998    0.1304   -0.0000    0.0000   -0.0000
N         2.3588   -1.2984    0.1326    0.0000   -0.0000    0.0000
N        -0.2900    2.8548    0.1277    0.0000   -0.0000   -0.0490
N        -2.5670   -1.3489    0.1285   -0.0001    0.0000    0.0490
C        -2.6308    2.2050    0.1263   -0.0000    0.0000    0.0527
C        -1.2119    1.9066    0.1276   -0.0000    0.0000    0.0153
C         1.0001    2.5643    0.1290   -0.0000    0.0000    0.0153
C         2.0252    3.5895    0.1292   -0.0000    0.0000    0.0526
C        -3.3016    0.9663    0.1265    0.0001   -0.0000   -0.0526
C        -2.2764   -0.0588    0.1280    0.0000   -0.0000   -0.0153
C        -0.6092   -5.7583    0.1333   -0.0000    0.0000    0.0310
C        -3.1252   -4.3959    0.1301    0.0000   -0.0000   -0.0311
C        -1.8137   -6.4621    0.1328    0.0000   -0.0000   -0.0570
C        -4.6993    0.8970    0.1255    0.0000   -0.0000   -0.0310
C        -3.3370    3.4131    0.1250   -0.0000    0.0000    0.0311
C        -5.4031    2.1016    0.1242   -0.0000    0.0000    0.0570
C        -3.0557   -5.7893    0.1313   -0.0000    0.0001    0.0576
C        -1.6188   -2.2708    0.1299   -0.0000   -0.0000   -0.0153
C        -1.9171   -3.6897    0.1307    0.0001   -0.0000   -0.0527
C         3.2639    2.9186    0.1308    0.0001   -0.0000   -0.0527
C         2.9656    1.4998    0.1315   -0.0000   -0.0000   -0.0153
C        -4.7303    3.3435    0.1239    0.0000   -0.0000   -0.0576
C         3.6232   -0.7123    0.1333    0.0000   -0.0000   -0.0153
C         4.6484   -1.7374    0.1346    0.0001   -0.0000   -0.0526
C         2.5587   -2.6777    0.1336   -0.0000    0.0000    0.0153
C         3.9776   -2.9761    0.1348   -0.0000    0.0000    0.0527
C        -0.6784   -4.3606    0.1322   -0.0000    0.0000    0.0526
C         0.3466   -3.3353    0.1323   -0.0000    0.0000    0.0153
C         1.9559    4.9872    0.1281   -0.0000    0.0000    0.0310
C         4.4720    3.6248    0.1315    0.0000   -0.0000   -0.0311
C         3.1605    5.6910    0.1287    0.0000   -0.0000   -0.0570
C         4.4025    5.0182    0.1304   -0.0001    0.0001    0.0576
C         6.0461   -1.6681    0.1356    0.0000   -0.0000   -0.0310
C         4.6838   -4.1842    0.1359   -0.0000    0.0000    0.0311
C         6.7499   -2.8727    0.1368   -0.0000    0.0000    0.0570
C         6.0771   -4.1146    0.1369    0.0000   -0.0000   -0.0576
H         6.5562   -0.7047    0.1355    0.0001   -0.0000   -0.0308
H         4.1560   -5.1380    0.1360   -0.0000    0.0000    0.0314
H         6.6624   -5.0353    0.1378    0.0001   -0.0001   -0.1408
H        -5.2094   -0.0664    0.1257    0.0001   -0.0000   -0.0308
H        -2.8092    4.3669    0.1248   -0.0000    0.0000    0.0314
H        -5.3156    4.2642    0.1229    0.0001   -0.0001   -0.1408
H        -6.4939    2.0893    0.1234   -0.0001    0.0001    0.1414
H         0.3542   -6.2683    0.1345   -0.0000   -0.0000    0.0308
H        -4.0791   -3.8681    0.1290    0.0000   -0.0000   -0.0314
H        -3.9763   -6.3745    0.1309   -0.0001    0.0001    0.1408
H        -1.8014   -7.5529    0.1337    0.0001   -0.0001   -0.1414
H         0.9926    5.4972    0.1268   -0.0000   -0.0000    0.0308
H         5.4259    3.0971    0.1328    0.0000   -0.0000   -0.0314
H         5.3231    5.6035    0.1309   -0.0001    0.0001    0.1408
H         3.1482    6.7818    0.1279    0.0001   -0.0001   -0.1414
H         7.8407   -2.8603    0.1376   -0.0001    0.0000    0.1414
    57
stable frequency at    515.473 1/cm IR int. is 7.751 a.m.u.; force const. is 1.213 mDyne/Ang.
Fe        0.6734   -0.3855    0.1306   -0.0287   -0.0157   -0.0000
N         3.9138    0.5779    0.1328    0.0949    0.0285    0.0001
N         1.6368   -3.6259    0.1334   -0.0039    0.0216   -0.0000
N        -0.2395   -2.0709    0.1309    0.0294   -0.0174    0.0000
N        -1.0120    0.5273    0.1286    0.0251    0.0472   -0.0000
N         1.5863    1.2998    0.1304    0.0294   -0.0174    0.0000
N         2.3588   -1.2984    0.1326    0.0251    0.0472   -0.0000
N        -0.2900    2.8548    0.1277   -0.0039    0.0216   -0.0000
N        -2.5670   -1.3489    0.1285    0.0949    0.0285    0.0001
C        -2.6308    2.2050    0.1263   -0.0244   -0.0470    0.0000
C        -1.2119    1.9066    0.1276   -0.0083    0.0247   -0.0000
C         1.0001    2.5643    0.1290   -0.0027   -0.0082    0.0000
C         2.0252    3.5895    0.1292   -0.0302    0.0158   -0.0000
C        -3.3016    0.9663    0.1265   -0.0269   -0.0450   -0.0000
C        -2.2764   -0.0588    0.1280    0.0431    0.0209    0.0000
C        -0.6092   -5.7583    0.1333   -0.0090    0.0270   -0.0000
C        -3.1252   -4.3959    0.1301   -0.0298   -0.0126   -0.0000
C        -1.8137   -6.4621    0.1328    0.0084    0.0032   -0.0000
C        -4.6993    0.8970    0.1255   -0.0465   -0.0096   -0.0000
C        -3.3370    3.4131    0.1250    0.0131   -0.0443    0.0001
C        -5.4031    2.1016    0.1242   -0.0137    0.0183   -0.0000
C        -3.0557   -5.7893    0.1313   -0.0022   -0.0167    0.0000
C        -1.6188   -2.2708    0.1299    0.0406    0.0019    0.0000
C        -1.9171   -3.6897    0.1307   -0.0309    0.0133   -0.0000
C         3.2639    2.9186    0.1308   -0.0309    0.0133   -0.0000
C         2.9656    1.4998    0.1315    0.0406    0.0019    0.0000
C        -4.7303    3.3435    0.1239    0.0166    0.0017   -0.0000
C         3.6232   -0.7123    0.1333    0.0431    0.0209    0.0000
C         4.6484   -1.7374    0.1346   -0.0269   -0.0450   -0.0000
C         2.5587   -2.6777    0.1336   -0.0083    0.0247   -0.0000
C         3.9776   -2.9761    0.1348   -0.0244   -0.0470    0.0000
C        -0.6784   -4.3606    0.1322   -0.0302    0.0158   -0.0000
C         0.3466   -3.3353    0.1323   -0.0027   -0.0082    0.0000
C         1.9559    4.9872    0.1281   -0.0090    0.0270   -0.0000
C         4.4720    3.6248    0.1315   -0.0298   -0.0126   -0.0000
C         3.1605    5.6910    0.1287    0.0084    0.0032   -0.0000
C         4.4025    5.0182    0.1304   -0.0022   -0.0167    0.0000
C         6.0461   -1.6681    0.1356   -0.0465   -0.0096   -0.0000
C         4.6838   -4.1842    0.1359    0.0131   -0.0443    0.0000
C         6.7499   -2.8727    0.1368   -0.0137    0.0183    0.0000
C         6.0771   -4.1146    0.1369    0.0166    0.0017   -0.0000
H         6.5562   -0.7047    0.1355   -0.0885    0.0122   -0.0001
H         4.1560   -5.1380    0.1360    0.0544   -0.0677    0.0001
H         6.6624   -5.0353    0.1378    0.0466    0.0205   -0.0000
H        -5.2094   -0.0664    0.1257   -0.0885    0.0122   -0.0001
H        -2.8092    4.3669    0.1248    0.0544   -0.0677    0.0001
H        -5.3156    4.2642    0.1229    0.0466    0.0205   -0.0000
H        -6.4939    2.0893    0.1234   -0.0144    0.0513    0.0000
H         0.3542   -6.2683    0.1345    0.0042    0.0521   -0.0000
H        -4.0791   -3.8681    0.1290   -0.0458   -0.0405   -0.0000
H        -3.9763   -6.3745    0.1309    0.0088   -0.0344    0.0001
H        -1.8014   -7.5529    0.1337    0.0317    0.0036   -0.0000
H         0.9926    5.4972    0.1268    0.0042    0.0521   -0.0000
H         5.4259    3.0971    0.1328   -0.0458   -0.0405   -0.0000
H         5.3231    5.6035    0.1309    0.0088   -0.0344    0.0001
H         3.1482    6.7818    0.1279    0.0317    0.0036   -0.0000
H         7.8407   -2.8603    0.1376   -0.0144    0.0513    0.0000
    57
stable frequency at    515.473 1/cm IR int. is 7.751 a.m.u.; force const. is 1.213 mDyne/Ang.
Fe        0.6734   -0.3855    0.1306    0.0157   -0.0287    0.0000
N         3.9138    0.5779    0.1328   -0.0216   -0.0039   -0.0000
N         1.6368   -3.6259    0.1334   -0.0285    0.0949   -0.0001
N        -0.2395   -2.0709    0.1309   -0.0472    0.0251   -0.0001
N        -1.0120    0.5273    0.1286    0.0174    0.0294   -0.0000
N         1.5863    1.2998    0.1304   -0.0472    0.0251   -0.0001
N         2.3588   -1.2984    0.1326    0.0174    0.0294   -0.0000
N        -0.2900    2.8548    0.1277   -0.0285    0.0949   -0.0001
N        -2.5670   -1.3489    0.1285   -0.0216   -0.0039   -0.0000
C        -2.6308    2.2050    0.1263   -0.0133   -0.0309    0.0000
C        -1.2119    1.9066    0.1276   -0.0019    0.0406   -0.0000
C         1.0001    2.5643    0.1290   -0.0209    0.0431   -0.0000
C         2.0252    3.5895    0.1292    0.0450   -0.0269    0.0000
C        -3.3016    0.9663    0.1265   -0.0158   -0.0302    0.0000
C        -2.2764   -0.0588    0.1280    0.0082   -0.0027    0.0000
C        -0.6092   -5.7583    0.1333    0.0096   -0.0465    0.0000
C        -3.1252   -4.3959    0.1301    0.0443    0.0131    0.0000
C        -1.8137   -6.4621    0.1328   -0.0183   -0.0137    0.0000
C        -4.6993    0.8970    0.1255   -0.0270   -0.0090   -0.0000
C        -3.3370    3.4131    0.1250    0.0126   -0.0298    0.0000
C        -5.4031    2.1016    0.1242   -0.0032    0.0084   -0.0000
C        -3.0557   -5.7893    0.1313   -0.0017    0.0166   -0.0000
C        -1.6188   -2.2708    0.1299   -0.0247   -0.0083   -0.0000
C        -1.9171   -3.6897    0.1307    0.0470   -0.0244    0.0001
C         3.2639    2.9186    0.1308    0.0470   -0.0244    0.0000
C         2.9656    1.4998    0.1315   -0.0247   -0.0083   -0.0000
C        -4.7303    3.3435    0.1239    0.0167   -0.0022    0.0000
C         3.6232   -0.7123    0.1333    0.0082   -0.0027    0.0000
C         4.6484   -1.7374    0.1346   -0.0158   -0.0302    0.0000
C         2.5587   -2.6777    0.1336   -0.0019    0.0406   -0.0000
C         3.9776   -2.9761    0.1348   -0.0133   -0.0309    0.0000
C        -0.6784   -4.3606    0.1322    0.0450   -0.0269    0.0000
C         0.3466   -3.3353    0.1323   -0.0209    0.0431   -0.0001
C         1.9559    4.9872    0.1281    0.0096   -0.0465    0.0001
C         4.4720    3.6248    0.1315    0.0443    0.0131    0.0000
C         3.1605    5.6910    0.1287   -0.0183   -0.0137    0.0000
C         4.4025    5.0182    0.1304   -0.0017    0.0166   -0.0000
C         6.0461   -1.6681    0.1356   -0.0270   -0.0090   -0.0000
C         4.6838   -4.1842    0.1359    0.0126   -0.0298    0.0000
C         6.7499   -2.8727    0.1368   -0.0032    0.0084   -0.0000
C         6.0771   -4.1146    0.1369    0.0167   -0.0022    0.0000
H         6.5562   -0.7047    0.1355   -0.0521    0.0042   -0.0000
H         4.1560   -5.1380    0.1360    0.0405   -0.0458    0.0001
H         6.6624   -5.0353    0.1378    0.0344    0.0088    0.0000
H        -5.2094   -0.0664    0.1257   -0.0521    0.0042   -0.0000
H        -2.8092    4.3669    0.1248    0.0405   -0.0458    0.0001
H        -5.3156    4.2642    0.1229    0.0344    0.0088    0.0000
H        -6.4939    2.0893    0.1234   -0.0036    0.0317   -0.0000
H         0.3542   -6.2683    0.1345   -0.0122   -0.0885    0.0001
H        -4.0791   -3.8681    0.1290    0.0677    0.0544    0.0001
H        -3.9763   -6.3745    0.1309   -0.0205    0.0466   -0.0001
H        -1.8014   -7.5529    0.1337   -0.0513   -0.0144    0.0000
H         0.9926    5.4972    0.1268   -0.0122   -0.0885    0.0001
H         5.4259    3.0971    0.1328    0.0677    0.0544    0.0001
H         5.3231    5.6035    0.1309   -0.0205    0.0466   -0.0001
H         3.1482    6.7818    0.1279   -0.0513   -0.0144   -0.0000
H         7.8407   -2.8603    0.1376   -0.0036    0.0317   -0.0000
    57
stable frequency at    556.180 1/cm IR int. is 8.171 a.m.u.; force const. is 1.489 mDyne/Ang.
Fe        0.6734   -0.3855    0.1306    0.0000   -0.0000    0.0000
N         3.9138    0.5779    0.1328    0.0090   -0.0315    0.0000
N         1.6368   -3.6259    0.1334    0.0315    0.0090    0.0000
N        -0.2395   -2.0709    0.1309    0.0195    0.0355   -0.0000
N        -1.0120    0.5273    0.1286   -0.0355    0.0195   -0.0000
N         1.5863    1.2998    0.1304   -0.0195   -0.0355    0.0000
N         2.3588   -1.2984    0.1326    0.0355   -0.0195    0.0000
N        -0.2900    2.8548    0.1277   -0.0315   -0.0090   -0.0000
N        -2.5670   -1.3489    0.1285   -0.0090    0.0316   -0.0000
C        -2.6308    2.2050    0.1263   -0.0233    0.0154   -0.0000
C        -1.2119    1.9066    0.1276   -0.0422    0.0055   -0.0000
C         1.0001    2.5643    0.1290   -0.0327   -0.0276   -0.0000
C         2.0252    3.5895    0.1292   -0.0109   -0.0265    0.0000
C        -3.3016    0.9663    0.1265   -0.0265    0.0109   -0.0000
C        -2.2764   -0.0588    0.1280   -0.0276    0.0327   -0.0001
C        -0.6092   -5.7583    0.1333   -0.0529    0.0119   -0.0001
C        -3.1252   -4.3959    0.1301    0.0381   -0.0388    0.0001
C        -1.8137   -6.4621    0.1328   -0.0284   -0.0438    0.0000
C        -4.6993    0.8970    0.1255   -0.0119   -0.0529    0.0000
C        -3.3370    3.4131    0.1250    0.0388    0.0381    0.0000
C        -5.4031    2.1016    0.1242    0.0438   -0.0284    0.0001
C        -3.0557   -5.7893    0.1313   -0.0216   -0.0488    0.0000
C        -1.6188   -2.2708    0.1299    0.0055    0.0422   -0.0000
C        -1.9171   -3.6897    0.1307    0.0154    0.0233   -0.0000
C         3.2639    2.9186    0.1308   -0.0154   -0.0233    0.0000
C         2.9656    1.4998    0.1315   -0.0055   -0.0422    0.0000
C        -4.7303    3.3435    0.1239    0.0488   -0.0216    0.0000
C         3.6232   -0.7123    0.1333    0.0276   -0.0327    0.0001
C         4.6484   -1.7374    0.1346    0.0265   -0.0109    0.0000
C         2.5587   -2.6777    0.1336    0.0422   -0.0055    0.0000
C         3.9776   -2.9761    0.1348    0.0233   -0.0154    0.0000
C        -0.6784   -4.3606    0.1322    0.0109    0.0265   -0.0000
C         0.3466   -3.3353    0.1323    0.0327    0.0276    0.0000
C         1.9559    4.9872    0.1281    0.0529   -0.0119    0.0001
C         4.4720    3.6248    0.1315   -0.0381    0.0388   -0.0001
C         3.1605    5.6910    0.1287    0.0284    0.0438   -0.0000
C         4.4025    5.0182    0.1304    0.0216    0.0488   -0.0000
C         6.0461   -1.6681    0.1356    0.0119    0.0529   -0.0000
C         4.6838   -4.1842    0.1359   -0.0388   -0.0381   -0.0000
C         6.7499   -2.8727    0.1368   -0.0438    0.0284   -0.0001
C         6.0771   -4.1146    0.1369   -0.0488    0.0216   -0.0000
H         6.5562   -0.7047    0.1355    0.0029    0.0570   -0.0000
H         4.1560   -5.1380    0.1360   -0.0454   -0.0337   -0.0000
H         6.6624   -5.0353    0.1378   -0.0071    0.0482   -0.0001
H        -5.2094   -0.0664    0.1257   -0.0029   -0.0570    0.0000
H        -2.8092    4.3669    0.1248    0.0454    0.0337    0.0000
H        -5.3156    4.2642    0.1229    0.0071   -0.0483    0.0001
H        -6.4939    2.0893    0.1234    0.0435    0.0211    0.0000
H         0.3542   -6.2683    0.1345   -0.0570    0.0029   -0.0000
H        -4.0791   -3.8681    0.1290    0.0337   -0.0454    0.0000
H        -3.9763   -6.3745    0.1309   -0.0483   -0.0071   -0.0001
H        -1.8014   -7.5529    0.1337    0.0211   -0.0435    0.0000
H         0.9926    5.4972    0.1268    0.0570   -0.0029    0.0000
H         5.4259    3.0971    0.1328   -0.0337    0.0454   -0.0000
H         5.3231    5.6035    0.1309    0.0482    0.0071    0.0001
H         3.1482    6.7818    0.1279   -0.0211    0.0435   -0.0000
H         7.8407   -2.8603    0.1376   -0.0435   -0.0211   -0.0000
    57
stable frequency at    563.380 1/cm IR int. is 8.537 a.m.u.; force const. is 1.596 mDyne/Ang.
Fe        0.6734   -0.3855    0.1306   -0.0014    0.0080   -0.0000
N         3.9138    0.5779    0.1328    0.0157   -0.0483    0.0000
N         1.6368   -3.6259    0.1334   -0.0110    0.0170   -0.0000
N        -0.2395   -2.0709    0.1309   -0.0226   -0.0242   -0.0000
N        -1.0120    0.5273    0.1286    0.0274   -0.0040    0.0000
N         1.5863    1.2998    0.1304   -0.0226   -0.0243   -0.0000
N         2.3588   -1.2984    0.1326    0.0275   -0.0040    0.0000
N        -0.2900    2.8548    0.1277   -0.0110    0.0170   -0.0000
N        -2.5670   -1.3489    0.1285    0.0157   -0.0483    0.0000
C        -2.6308    2.2050    0.1263   -0.0123   -0.0063   -0.0000
C        -1.2119    1.9066    0.1276   -0.0072    0.0111   -0.0000
C         1.0001    2.5643    0.1290   -0.0106    0.0038    0.0000
C         2.0252    3.5895    0.1292    0.0077   -0.0074    0.0000
C        -3.3016    0.9663    0.1265    0.0395   -0.0301    0.0001
C        -2.2764   -0.0588    0.1280    0.0447   -0.0472    0.0001
C        -0.6092   -5.7583    0.1333    0.0455    0.0119    0.0000
C        -3.1252   -4.3959    0.1301   -0.0525    0.0167   -0.0000
C        -1.8137   -6.4621    0.1328    0.0179    0.0645   -0.0000
C        -4.6993    0.8970    0.1255    0.0401    0.0341    0.0000
C        -3.3370    3.4131    0.1250   -0.0432   -0.0034   -0.0000
C        -5.4031    2.1016    0.1242    0.0087    0.0250   -0.0000
C        -3.0557   -5.7893    0.1313   -0.0103    0.0275   -0.0000
C        -1.6188   -2.2708    0.1299   -0.0098   -0.0634    0.0000
C        -1.9171   -3.6897    0.1307   -0.0174   -0.0447    0.0000
C         3.2639    2.9186    0.1308   -0.0174   -0.0447    0.0000
C         2.9656    1.4998    0.1315   -0.0098   -0.0634    0.0000
C        -4.7303    3.3435    0.1239   -0.0468    0.0482   -0.0000
C         3.6232   -0.7123    0.1333    0.0447   -0.0472    0.0001
C         4.6484   -1.7374    0.1346    0.0395   -0.0301    0.0000
C         2.5587   -2.6777    0.1336   -0.0072    0.0111   -0.0000
C         3.9776   -2.9761    0.1348   -0.0123   -0.0063   -0.0000
C        -0.6784   -4.3606    0.1322    0.0077   -0.0074    0.0000
C         0.3466   -3.3353    0.1323   -0.0106    0.0038    0.0000
C         1.9559    4.9872    0.1281    0.0455    0.0119    0.0000
C         4.4720    3.6248    0.1315   -0.0525    0.0167   -0.0001
C         3.1605    5.6910    0.1287    0.0179    0.0645   -0.0000
C         4.4025    5.0182    0.1304   -0.0103    0.0275   -0.0000
C         6.0461   -1.6681    0.1356    0.0401    0.0341    0.0000
C         4.6838   -4.1842    0.1359   -0.0432   -0.0034   -0.0000
C         6.7499   -2.8727    0.1368    0.0087    0.0250   -0.0000
C         6.0771   -4.1146    0.1369   -0.0468    0.0482   -0.0000
H         6.5562   -0.7047    0.1355    0.0091    0.0502   -0.0000
H         4.1560   -5.1380    0.1360   -0.0227   -0.0140   -0.0000
H         6.6624   -5.0353    0.1378   -0.0422    0.0510   -0.0002
H        -5.2094   -0.0664    0.1257    0.0091    0.0502   -0.0001
H        -2.8092    4.3669    0.1248   -0.0227   -0.0140   -0.0000
H        -5.3156    4.2642    0.1229   -0.0422    0.0510   -0.0002
H        -6.4939    2.0893    0.1234    0.0092   -0.0396   -0.0000
H         0.3542   -6.2683    0.1345    0.0379   -0.0014    0.0000
H        -4.0791   -3.8681    0.1290   -0.0385    0.0414   -0.0000
H        -3.9763   -6.3745    0.1309    0.0247   -0.0274    0.0000
H        -1.8014   -7.5529    0.1337   -0.0003    0.0645    0.0000
H         0.9926    5.4972    0.1268    0.0379   -0.0014    0.0000
H         5.4259    3.0971    0.1328   -0.0385    0.0414   -0.0000
H         5.3231    5.6035    0.1309    0.0247   -0.0274    0.0000
H         3.1482    6.7818    0.1279   -0.0003    0.0645    0.0000
H         7.8407   -2.8603    0.1376    0.0092   -0.0396   -0.0000
    57
stable frequency at    563.381 1/cm IR int. is 8.537 a.m.u.; force const. is 1.596 mDyne/Ang.
Fe        0.6734   -0.3855    0.1306   -0.0080   -0.0014   -0.0000
N         3.9138    0.5779    0.1328   -0.0170   -0.0110   -0.0000
N         1.6368   -3.6259    0.1334    0.0483    0.0157    0.0000
N        -0.2395   -2.0709    0.1309    0.0040    0.0275   -0.0000
N        -1.0120    0.5273    0.1286    0.0243   -0.0226    0.0000
N         1.5863    1.2998    0.1304    0.0040    0.0275   -0.0000
N         2.3588   -1.2984    0.1326    0.0243   -0.0226    0.0000
N        -0.2900    2.8548    0.1277    0.0483    0.0157    0.0000
N        -2.5670   -1.3489    0.1285   -0.0170   -0.0110   -0.0000
C        -2.6308    2.2050    0.1263    0.0447   -0.0174    0.0000
C        -1.2119    1.9066    0.1276    0.0634   -0.0098    0.0000
C         1.0001    2.5643    0.1290    0.0472    0.0447    0.0000
C         2.0252    3.5895    0.1292    0.0301    0.0395    0.0000
C        -3.3016    0.9663    0.1265    0.0074    0.0077    0.0000
C        -2.2764   -0.0588    0.1280   -0.0038   -0.0106    0.0000
C        -0.6092   -5.7583    0.1333   -0.0341    0.0401   -0.0001
C        -3.1252   -4.3959    0.1301    0.0034   -0.0432    0.0000
C        -1.8137   -6.4621    0.1328   -0.0250    0.0087   -0.0000
C        -4.6993    0.8970    0.1255   -0.0119    0.0455   -0.0000
C        -3.3370    3.4131    0.1250   -0.0167   -0.0525    0.0000
C        -5.4031    2.1016    0.1242   -0.0645    0.0179   -0.0001
C        -3.0557   -5.7893    0.1313   -0.0482   -0.0468    0.0000
C        -1.6188   -2.2708    0.1299   -0.0111   -0.0072   -0.0000
C        -1.9171   -3.6897    0.1307    0.0063   -0.0123    0.0000
C         3.2639    2.9186    0.1308    0.0063   -0.0123    0.0000
C         2.9656    1.4998    0.1315   -0.0111   -0.0072   -0.0000
C        -4.7303    3.3435    0.1239   -0.0275   -0.0103   -0.0000
C         3.6232   -0.7123    0.1333   -0.0038   -0.0106    0.0000
C         4.6484   -1.7374    0.1346    0.0074    0.0077    0.0000
C         2.5587   -2.6777    0.1336    0.0634   -0.0098    0.0000
C         3.9776   -2.9761    0.1348    0.0447   -0.0174    0.0000
C        -0.6784   -4.3606    0.1322    0.0301    0.0395   -0.0000
C         0.3466   -3.3353    0.1323    0.0472    0.0447    0.0000
C         1.9559    4.9872    0.1281   -0.0341    0.0401   -0.0001
C         4.4720    3.6248    0.1315    0.0034   -0.0432    0.0000
C         3.1605    5.6910    0.1287   -0.0250    0.0087   -0.0000
C         4.4025    5.0182    0.1304   -0.0482   -0.0468   -0.0000
C         6.0461   -1.6681    0.1356   -0.0119    0.0455   -0.0000
C         4.6838   -4.1842    0.1359   -0.0167   -0.0525    0.0000
C         6.7499   -2.8727    0.1368   -0.0645    0.0179   -0.0001
C         6.0771   -4.1146    0.1369   -0.0275   -0.0103   -0.0000
H         6.5562   -0.7047    0.1355    0.0014    0.0379   -0.0000
H         4.1560   -5.1380    0.1360   -0.0414   -0.0385    0.0000
H         6.6624   -5.0353    0.1378    0.0274    0.0247    0.0000
H        -5.2094   -0.0664    0.1257    0.0014    0.0379   -0.0000
H        -2.8092    4.3669    0.1248   -0.0414   -0.0385    0.0000
H        -5.3156    4.2642    0.1229    0.0274    0.0247    0.0000
H        -6.4939    2.0893    0.1234   -0.0645   -0.0003    0.0000
H         0.3542   -6.2683    0.1345   -0.0502    0.0091   -0.0000
H        -4.0791   -3.8681    0.1290    0.0140   -0.0227    0.0000
H        -3.9763   -6.3745    0.1309   -0.0510   -0.0422   -0.0001
H        -1.8014   -7.5529    0.1337    0.0396    0.0092    0.0000
H         0.9926    5.4972    0.1268   -0.0502    0.0091   -0.0000
H         5.4259    3.0971    0.1328    0.0140   -0.0227   -0.0000
H         5.3231    5.6035    0.1309   -0.0510   -0.0422   -0.0001
H         3.1482    6.7818    0.1279    0.0396    0.0092    0.0000
H         7.8407   -2.8603    0.1376   -0.0645   -0.0003    0.0000
    57
stable frequency at    572.294 1/cm IR int. is 7.826 a.m.u.; force const. is 1.510 mDyne/Ang.
Fe        0.6734   -0.3855    0.1306    0.0000    0.0000    0.0000
N         3.9138    0.5779    0.1328   -0.0129    0.0406   -0.0000
N         1.6368   -3.6259    0.1334    0.0406    0.0129    0.0000
N        -0.2395   -2.0709    0.1309    0.0087   -0.0039    0.0000
N        -1.0120    0.5273    0.1286   -0.0039   -0.0087    0.0000
N         1.5863    1.2998    0.1304   -0.0087    0.0039   -0.0000
N         2.3588   -1.2984    0.1326    0.0039    0.0087   -0.0000
N        -0.2900    2.8548    0.1277   -0.0406   -0.0129   -0.0000
N        -2.5670   -1.3489    0.1285    0.0129   -0.0406    0.0000
C        -2.6308    2.2050    0.1263   -0.0313    0.0190   -0.0001
C        -1.2119    1.9066    0.1276   -0.0426   -0.0026   -0.0000
C         1.0001    2.5643    0.1290   -0.0372   -0.0224   -0.0000
C         2.0252    3.5895    0.1292   -0.0160   -0.0339   -0.0000
C        -3.3016    0.9663    0.1265    0.0339   -0.0160    0.0000
C        -2.2764   -0.0588    0.1280    0.0224   -0.0372    0.0000
C        -0.6092   -5.7583    0.1333   -0.0024    0.0532   -0.0000
C        -3.1252   -4.3959    0.1301   -0.0441   -0.0283   -0.0000
C        -1.8137   -6.4621    0.1328   -0.0037    0.0517   -0.0001
C        -4.6993    0.8970    0.1255    0.0532    0.0024    0.0000
C        -3.3370    3.4131    0.1250   -0.0283    0.0441   -0.0000
C        -5.4031    2.1016    0.1242    0.0517    0.0037    0.0000
C        -3.0557   -5.7893    0.1313   -0.0458   -0.0267    0.0000
C        -1.6188   -2.2708    0.1299    0.0026   -0.0426    0.0000
C        -1.9171   -3.6897    0.1307   -0.0190   -0.0313    0.0000
C         3.2639    2.9186    0.1308    0.0190    0.0313   -0.0000
C         2.9656    1.4998    0.1315   -0.0026    0.0426   -0.0000
C        -4.7303    3.3435    0.1239   -0.0267    0.0458   -0.0000
C         3.6232   -0.7123    0.1333   -0.0224    0.0372   -0.0000
C         4.6484   -1.7374    0.1346   -0.0339    0.0160   -0.0000
C         2.5587   -2.6777    0.1336    0.0426    0.0026    0.0000
C         3.9776   -2.9761    0.1348    0.0313   -0.0190    0.0001
C        -0.6784   -4.3606    0.1322    0.0160    0.0339    0.0000
C         0.3466   -3.3353    0.1323    0.0372    0.0224    0.0000
C         1.9559    4.9872    0.1281    0.0024   -0.0532    0.0000
C         4.4720    3.6248    0.1315    0.0441    0.0283    0.0000
C         3.1605    5.6910    0.1287    0.0037   -0.0517    0.0001
C         4.4025    5.0182    0.1304    0.0458    0.0267    0.0000
C         6.0461   -1.6681    0.1356   -0.0532   -0.0024   -0.0000
C         4.6838   -4.1842    0.1359    0.0283   -0.0441    0.0000
C         6.7499   -2.8727    0.1368   -0.0517   -0.0037   -0.0000
C         6.0771   -4.1146    0.1369    0.0267   -0.0458    0.0000
H         6.5562   -0.7047    0.1355   -0.0319   -0.0140    0.0000
H         4.1560   -5.1380    0.1360    0.0087   -0.0340    0.0001
H         6.6624   -5.0353    0.1378    0.0676   -0.0199    0.0002
H        -5.2094   -0.0664    0.1257    0.0319    0.0140   -0.0000
H        -2.8092    4.3669    0.1248   -0.0087    0.0340   -0.0001
H        -5.3156    4.2642    0.1229   -0.0676    0.0199   -0.0002
H        -6.4939    2.0893    0.1234    0.0525   -0.0483   -0.0000
H         0.3542   -6.2683    0.1345   -0.0140    0.0319   -0.0000
H        -4.0791   -3.8681    0.1290   -0.0340   -0.0087   -0.0001
H        -3.9763   -6.3745    0.1309   -0.0199   -0.0676    0.0000
H        -1.8014   -7.5529    0.1337    0.0483    0.0525   -0.0000
H         0.9926    5.4972    0.1268    0.0140   -0.0319    0.0000
H         5.4259    3.0971    0.1328    0.0340    0.0087    0.0001
H         5.3231    5.6035    0.1309    0.0199    0.0676   -0.0000
H         3.1482    6.7818    0.1279   -0.0483   -0.0525    0.0000
H         7.8407   -2.8603    0.1376   -0.0525    0.0483    0.0000
    57
stable frequency at    586.424 1/cm IR int. is 9.177 a.m.u.; force const. is 1.859 mDyne/Ang.
Fe        0.6734   -0.3855    0.1306   -0.0000   -0.0000    0.0000
N         3.9138    0.5779    0.1328   -0.0586   -0.0186   -0.0000
N         1.6368   -3.6259    0.1334   -0.0186    0.0586   -0.0001
N        -0.2395   -2.0709    0.1309    0.0208    0.0411   -0.0000
N        -1.0120    0.5273    0.1286    0.0411   -0.0208    0.0000
N         1.5863    1.2998    0.1304   -0.0208   -0.0411    0.0000
N         2.3588   -1.2984    0.1326   -0.0411    0.0208   -0.0000
N        -0.2900    2.8548    0.1277    0.0186   -0.0586    0.0001
N        -2.5670   -1.3489    0.1285    0.0586    0.0186    0.0000
C        -2.6308    2.2050    0.1263    0.0174   -0.0189    0.0000
C        -1.2119    1.9066    0.1276    0.0227   -0.0377    0.0000
C         1.0001    2.5643    0.1290    0.0034   -0.0447    0.0000
C         2.0252    3.5895    0.1292   -0.0049   -0.0242    0.0000
C        -3.3016    0.9663    0.1265    0.0242   -0.0049    0.0000
C        -2.2764   -0.0588    0.1280    0.0447    0.0034    0.0001
C        -0.6092   -5.7583    0.1333   -0.0446    0.0125   -0.0001
C        -3.1252   -4.3959    0.1301    0.0371   -0.0300    0.0001
C        -1.8137   -6.4621    0.1328   -0.0227   -0.0365    0.0000
C        -4.6993    0.8970    0.1255    0.0125    0.0446   -0.0000
C        -3.3370    3.4131    0.1250   -0.0300   -0.0371    0.0000
C        -5.4031    2.1016    0.1242   -0.0365    0.0227   -0.0000
C        -3.0557   -5.7893    0.1313   -0.0170   -0.0384    0.0000
C        -1.6188   -2.2708    0.1299    0.0377    0.0227    0.0000
C        -1.9171   -3.6897    0.1307    0.0189    0.0174    0.0000
C         3.2639    2.9186    0.1308   -0.0189   -0.0174   -0.0000
C         2.9656    1.4998    0.1315   -0.0377   -0.0227   -0.0000
C        -4.7303    3.3435    0.1239   -0.0384    0.0170   -0.0000
C         3.6232   -0.7123    0.1333   -0.0447   -0.0034   -0.0001
C         4.6484   -1.7374    0.1346   -0.0242    0.0049   -0.0000
C         2.5587   -2.6777    0.1336   -0.0227    0.0377   -0.0000
C         3.9776   -2.9761    0.1348   -0.0174    0.0189   -0.0000
C        -0.6784   -4.3606    0.1322    0.0049    0.0242   -0.0000
C         0.3466   -3.3353    0.1323   -0.0034    0.0447   -0.0000
C         1.9559    4.9872    0.1281    0.0446   -0.0125    0.0001
C         4.4720    3.6248    0.1315   -0.0371    0.0300   -0.0001
C         3.1605    5.6910    0.1287    0.0227    0.0365   -0.0000
C         4.4025    5.0182    0.1304    0.0170    0.0384   -0.0000
C         6.0461   -1.6681    0.1356   -0.0125   -0.0446    0.0000
C         4.6838   -4.1842    0.1359    0.0300    0.0371   -0.0000
C         6.7499   -2.8727    0.1368    0.0365   -0.0227    0.0000
C         6.0771   -4.1146    0.1369    0.0384   -0.0170    0.0000
H         6.5562   -0.7047    0.1355   -0.0068   -0.0471    0.0000
H         4.1560   -5.1380    0.1360    0.0329    0.0350    0.0000
H         6.6624   -5.0353    0.1378   -0.0008   -0.0420    0.0001
H        -5.2094   -0.0664    0.1257    0.0068    0.0471   -0.0000
H        -2.8092    4.3669    0.1248   -0.0329   -0.0350   -0.0000
H        -5.3156    4.2642    0.1229    0.0008    0.0420   -0.0001
H        -6.4939    2.0893    0.1234   -0.0362   -0.0209   -0.0000
H         0.3542   -6.2683    0.1345   -0.0471    0.0068   -0.0000
H        -4.0791   -3.8681    0.1290    0.0350   -0.0329    0.0000
H        -3.9763   -6.3745    0.1309   -0.0420    0.0008   -0.0001
H        -1.8014   -7.5529    0.1337    0.0209   -0.0362    0.0000
H         0.9926    5.4972    0.1268    0.0471   -0.0068    0.0000
H         5.4259    3.0971    0.1328   -0.0350    0.0329   -0.0000
H         5.3231    5.6035    0.1309    0.0420   -0.0008    0.0001
H         3.1482    6.7818    0.1279   -0.0209    0.0362   -0.0000
H         7.8407   -2.8603    0.1376    0.0362    0.0209   -0.0000
    57
stable frequency at    604.383 1/cm IR int. is 4.523 a.m.u.; force const. is 0.973 mDyne/Ang.
Fe        0.6734   -0.3855    0.1306   -0.0000   -0.0000    0.0000
N         3.9138    0.5779    0.1328   -0.0000    0.0000   -0.0000
N         1.6368   -3.6259    0.1334   -0.0000   -0.0000    0.0000
N        -0.2395   -2.0709    0.1309    0.0000    0.0000   -0.0001
N        -1.0120    0.5273    0.1286   -0.0000   -0.0000   -0.0001
N         1.5863    1.2998    0.1304    0.0000    0.0000   -0.0001
N         2.3588   -1.2984    0.1326   -0.0000   -0.0000   -0.0001
N        -0.2900    2.8548    0.1277   -0.0000   -0.0000   -0.0000
N        -2.5670   -1.3489    0.1285   -0.0000    0.0000   -0.0000
C        -2.6308    2.2050    0.1263   -0.0000    0.0000    0.0031
C        -1.2119    1.9066    0.1276    0.0000   -0.0000   -0.0620
C         1.0001    2.5643    0.1290   -0.0001    0.0000    0.0622
C         2.0252    3.5895    0.1292   -0.0000    0.0000   -0.0031
C        -3.3016    0.9663    0.1265    0.0000   -0.0000   -0.0031
C        -2.2764   -0.0588    0.1280   -0.0001    0.0000    0.0622
C        -0.6092   -5.7583    0.1333    0.0000   -0.0000   -0.0460
C        -3.1252   -4.3959    0.1301   -0.0000    0.0000    0.0462
C        -1.8137   -6.4621    0.1328   -0.0000    0.0000    0.0531
C        -4.6993    0.8970    0.1255    0.0000   -0.0000   -0.0460
C        -3.3370    3.4131    0.1250   -0.0000    0.0000    0.0462
C        -5.4031    2.1016    0.1242   -0.0000    0.0000    0.0531
C        -3.0557   -5.7893    0.1313    0.0001   -0.0000   -0.0534
C        -1.6188   -2.2708    0.1299    0.0001   -0.0000   -0.0620
C        -1.9171   -3.6897    0.1307    0.0000    0.0000    0.0031
C         3.2639    2.9186    0.1308    0.0000    0.0000    0.0031
C         2.9656    1.4998    0.1315    0.0001   -0.0000   -0.0621
C        -4.7303    3.3435    0.1239    0.0000   -0.0000   -0.0534
C         3.6232   -0.7123    0.1333   -0.0001    0.0000    0.0622
C         4.6484   -1.7374    0.1346    0.0000   -0.0000   -0.0031
C         2.5587   -2.6777    0.1336    0.0000   -0.0000   -0.0621
C         3.9776   -2.9761    0.1348   -0.0000    0.0000    0.0031
C        -0.6784   -4.3606    0.1322   -0.0000    0.0000   -0.0031
C         0.3466   -3.3353    0.1323   -0.0001    0.0000    0.0622
C         1.9559    4.9872    0.1281    0.0000   -0.0000   -0.0461
C         4.4720    3.6248    0.1315   -0.0000    0.0000    0.0462
C         3.1605    5.6910    0.1287   -0.0001    0.0000    0.0531
C         4.4025    5.0182    0.1304    0.0001   -0.0000   -0.0534
C         6.0461   -1.6681    0.1356    0.0000   -0.0000   -0.0461
C         4.6838   -4.1842    0.1359   -0.0000    0.0000    0.0462
C         6.7499   -2.8727    0.1368   -0.0000    0.0000    0.0531
C         6.0771   -4.1146    0.1369    0.0000   -0.0000   -0.0534
H         6.5562   -0.7047    0.1355    0.0001   -0.0000   -0.0589
H         4.1560   -5.1380    0.1360   -0.0000    0.0000    0.0593
H         6.6624   -5.0353    0.1378    0.0001   -0.0001   -0.1234
H        -5.2094   -0.0664    0.1257    0.0001   -0.0001   -0.0589
H        -2.8092    4.3669    0.1248   -0.0000    0.0000    0.0593
H        -5.3156    4.2642    0.1229    0.0001   -0.0001   -0.1234
H        -6.4939    2.0893    0.1234   -0.0001    0.0001    0.1241
H         0.3542   -6.2683    0.1345    0.0000   -0.0000   -0.0589
H        -4.0791   -3.8681    0.1290   -0.0000    0.0000    0.0593
H        -3.9763   -6.3745    0.1309    0.0001   -0.0001   -0.1234
H        -1.8014   -7.5529    0.1337   -0.0001    0.0001    0.1241
H         0.9926    5.4972    0.1268    0.0000   -0.0000   -0.0589
H         5.4259    3.0971    0.1328   -0.0000    0.0000    0.0593
H         5.3231    5.6035    0.1309    0.0001   -0.0001   -0.1234
H         3.1482    6.7818    0.1279   -0.0001    0.0001    0.1241
H         7.8407   -2.8603    0.1376   -0.0001    0.0000    0.1241
    57
stable frequency at    620.968 1/cm IR int. is 5.254 a.m.u.; force const. is 1.194 mDyne/Ang.
Fe        0.6734   -0.3855    0.1306   -0.0000    0.0000    0.0000
N         3.9138    0.5779    0.1328    0.0000   -0.0000    0.0288
N         1.6368   -3.6259    0.1334   -0.0000   -0.0000   -0.0239
N        -0.2395   -2.0709    0.1309   -0.0003    0.0002    0.0292
N        -1.0120    0.5273    0.1286    0.0001    0.0002    0.0025
N         1.5863    1.2998    0.1304    0.0003   -0.0002   -0.0292
N         2.3588   -1.2984    0.1326   -0.0001   -0.0003   -0.0025
N        -0.2900    2.8548    0.1277    0.0000    0.0000    0.0239
N        -2.5670   -1.3489    0.1285   -0.0000    0.0001   -0.0288
C        -2.6308    2.2050    0.1263   -0.0001   -0.0001   -0.0067
C        -1.2119    1.9066    0.1276   -0.0000    0.0001   -0.0930
C         1.0001    2.5643    0.1290   -0.0000   -0.0002    0.0454
C         2.0252    3.5895    0.1292   -0.0002    0.0000   -0.0194
C        -3.3016    0.9663    0.1265   -0.0000   -0.0002    0.0103
C        -2.2764   -0.0588    0.1280    0.0001    0.0001    0.0864
C        -0.6092   -5.7583    0.1333    0.0000   -0.0001    0.0081
C        -3.1252   -4.3959    0.1301    0.0001   -0.0000   -0.0023
C        -1.8137   -6.4621    0.1328   -0.0001    0.0000   -0.0025
C        -4.6993    0.8970    0.1255   -0.0000   -0.0001   -0.0557
C        -3.3370    3.4131    0.1250   -0.0000   -0.0001    0.0565
C        -5.4031    2.1016    0.1242    0.0000    0.0001    0.0620
C        -3.0557   -5.7893    0.1313   -0.0001    0.0000    0.0092
C        -1.6188   -2.2708    0.1299   -0.0002   -0.0001   -0.0286
C        -1.9171   -3.6897    0.1307    0.0001   -0.0001    0.0210
C         3.2639    2.9186    0.1308   -0.0001    0.0001   -0.0210
C         2.9656    1.4998    0.1315    0.0002    0.0001    0.0286
C        -4.7303    3.3435    0.1239    0.0001    0.0000   -0.0616
C         3.6232   -0.7123    0.1333   -0.0001   -0.0001   -0.0864
C         4.6484   -1.7374    0.1346    0.0000    0.0002   -0.0103
C         2.5587   -2.6777    0.1336    0.0000   -0.0001    0.0930
C         3.9776   -2.9761    0.1348    0.0001    0.0001    0.0067
C        -0.6784   -4.3606    0.1322    0.0002   -0.0000    0.0194
C         0.3466   -3.3353    0.1323   -0.0000    0.0002   -0.0454
C         1.9559    4.9872    0.1281   -0.0001    0.0001   -0.0081
C         4.4720    3.6248    0.1315   -0.0001    0.0000    0.0023
C         3.1605    5.6910    0.1287    0.0001   -0.0001    0.0025
C         4.4025    5.0182    0.1304    0.0001   -0.0000   -0.0092
C         6.0461   -1.6681    0.1356    0.0000    0.0001    0.0557
C         4.6838   -4.1842    0.1359    0.0000    0.0001   -0.0565
C         6.7499   -2.8727    0.1368   -0.0000   -0.0001   -0.0620
C         6.0771   -4.1146    0.1369   -0.0001   -0.0000    0.0616
H         6.5562   -0.7047    0.1355    0.0002    0.0000    0.0783
H         4.1560   -5.1380    0.1360   -0.0001    0.0002   -0.0694
H         6.6624   -5.0353    0.1378   -0.0002   -0.0000    0.1434
H        -5.2094   -0.0664    0.1257   -0.0002   -0.0000   -0.0783
H        -2.8092    4.3669    0.1248    0.0001   -0.0002    0.0694
H        -5.3156    4.2642    0.1229    0.0002    0.0000   -0.1434
H        -6.4939    2.0893    0.1234   -0.0000    0.0002    0.1370
H         0.3542   -6.2683    0.1345   -0.0000   -0.0003   -0.0433
H        -4.0791   -3.8681    0.1290    0.0003    0.0001   -0.0574
H        -3.9763   -6.3745    0.1309   -0.0001    0.0000   -0.0264
H        -1.8014   -7.5529    0.1337   -0.0001    0.0000   -0.0519
H         0.9926    5.4972    0.1268   -0.0000    0.0003    0.0433
H         5.4259    3.0971    0.1328   -0.0003   -0.0001    0.0574
H         5.3231    5.6035    0.1309    0.0001   -0.0000    0.0264
H         3.1482    6.7818    0.1279    0.0000   -0.0000    0.0519
H         7.8407   -2.8603    0.1376    0.0000   -0.0002   -0.1370
    57
stable frequency at    620.972 1/cm IR int. is 5.254 a.m.u.; force const. is 1.194 mDyne/Ang.
Fe        0.6734   -0.3855    0.1306   -0.0000   -0.0000   -0.0000
N         3.9138    0.5779    0.1328   -0.0000    0.0000    0.0239
N         1.6368   -3.6259    0.1334   -0.0000    0.0000    0.0288
N        -0.2395   -2.0709    0.1309    0.0001   -0.0000   -0.0025
N        -1.0120    0.5273    0.1286   -0.0001   -0.0000    0.0292
N         1.5863    1.2998    0.1304   -0.0001    0.0000    0.0025
N         2.3588   -1.2984    0.1326    0.0000    0.0000   -0.0292
N        -0.2900    2.8548    0.1277    0.0000   -0.0000   -0.0288
N        -2.5670   -1.3489    0.1285    0.0000   -0.0000   -0.0238
C        -2.6308    2.2050    0.1263    0.0000    0.0000    0.0210
C        -1.2119    1.9066    0.1276    0.0000   -0.0001   -0.0286
C         1.0001    2.5643    0.1290   -0.0001    0.0001    0.0864
C         2.0252    3.5895    0.1292    0.0000    0.0000    0.0103
C        -3.3016    0.9663    0.1265   -0.0000    0.0000    0.0194
C        -2.2764   -0.0588    0.1280   -0.0000   -0.0000   -0.0454
C        -0.6092   -5.7583    0.1333   -0.0001    0.0001    0.0557
C        -3.1252   -4.3959    0.1301    0.0000   -0.0000   -0.0565
C        -1.8137   -6.4621    0.1328    0.0001   -0.0001   -0.0620
C        -4.6993    0.8970    0.1255    0.0000    0.0000    0.0081
C        -3.3370    3.4131    0.1250   -0.0000    0.0000   -0.0023
C        -5.4031    2.1016    0.1242   -0.0000   -0.0000   -0.0025
C        -3.0557   -5.7893    0.1313   -0.0000    0.0000    0.0616
C        -1.6188   -2.2708    0.1299   -0.0000    0.0001    0.0930
C        -1.9171   -3.6897    0.1307   -0.0000    0.0000    0.0067
C         3.2639    2.9186    0.1308    0.0000   -0.0000   -0.0067
C         2.9656    1.4998    0.1315    0.0000   -0.0001   -0.0930
C        -4.7303    3.3435    0.1239   -0.0000    0.0000    0.0092
C         3.6232   -0.7123    0.1333    0.0000    0.0000    0.0454
C         4.6484   -1.7374    0.1346    0.0000   -0.0000   -0.0194
C         2.5587   -2.6777    0.1336   -0.0000    0.0001    0.0286
C         3.9776   -2.9761    0.1348   -0.0000   -0.0000   -0.0210
C        -0.6784   -4.3606    0.1322   -0.0000    0.0000   -0.0103
C         0.3466   -3.3353    0.1323    0.0001   -0.0001   -0.0864
C         1.9559    4.9872    0.1281    0.0001   -0.0001   -0.0557
C         4.4720    3.6248    0.1315   -0.0000    0.0000    0.0565
C         3.1605    5.6910    0.1287   -0.0001    0.0001    0.0620
C         4.4025    5.0182    0.1304    0.0000   -0.0000   -0.0616
C         6.0461   -1.6681    0.1356   -0.0000   -0.0000   -0.0081
C         4.6838   -4.1842    0.1359    0.0000   -0.0000    0.0023
C         6.7499   -2.8727    0.1368    0.0000    0.0000    0.0025
C         6.0771   -4.1146    0.1369    0.0000    0.0000   -0.0092
H         6.5562   -0.7047    0.1355   -0.0001    0.0000    0.0433
H         4.1560   -5.1380    0.1360    0.0000   -0.0000    0.0574
H         6.6624   -5.0353    0.1378   -0.0000    0.0000    0.0265
H        -5.2094   -0.0664    0.1257    0.0001   -0.0000   -0.0433
H        -2.8092    4.3669    0.1248    0.0000   -0.0000   -0.0574
H        -5.3156    4.2642    0.1229   -0.0000   -0.0000   -0.0264
H        -6.4939    2.0893    0.1234    0.0000   -0.0001   -0.0519
H         0.3542   -6.2683    0.1345   -0.0001    0.0001    0.0783
H        -4.0791   -3.8681    0.1290    0.0000   -0.0001   -0.0694
H        -3.9763   -6.3745    0.1309   -0.0001    0.0001    0.1434
H        -1.8014   -7.5529    0.1337    0.0001   -0.0001   -0.1370
H         0.9926    5.4972    0.1268    0.0001   -0.0001   -0.0783
H         5.4259    3.0971    0.1328   -0.0000    0.0001    0.0694
H         5.3231    5.6035    0.1309    0.0001   -0.0001   -0.1434
H         3.1482    6.7818    0.1279   -0.0001    0.0001    0.1370
H         7.8407   -2.8603    0.1376   -0.0000    0.0001    0.0519
    57
stable frequency at    621.661 1/cm IR int. is 8.111 a.m.u.; force const. is 1.847 mDyne/Ang.
Fe        0.6734   -0.3855    0.1306   -0.0000    0.0000   -0.0000
N         3.9138    0.5779    0.1328    0.0072   -0.0171   -0.0001
N         1.6368   -3.6259    0.1334   -0.0171   -0.0072    0.0001
N        -0.2395   -2.0709    0.1309   -0.0675    0.0357   -0.0002
N        -1.0120    0.5273    0.1286    0.0357    0.0675    0.0000
N         1.5863    1.2998    0.1304    0.0675   -0.0357    0.0002
N         2.3588   -1.2984    0.1326   -0.0357   -0.0675   -0.0000
N        -0.2900    2.8548    0.1277    0.0171    0.0072   -0.0001
N        -2.5670   -1.3489    0.1285   -0.0072    0.0171    0.0001
C        -2.6308    2.2050    0.1263   -0.0374   -0.0317    0.0000
C        -1.2119    1.9066    0.1276   -0.0213    0.0500    0.0003
C         1.0001    2.5643    0.1290    0.0089   -0.0517   -0.0001
C         2.0252    3.5895    0.1292   -0.0486    0.0060    0.0000
C        -3.3016    0.9663    0.1265   -0.0060   -0.0486    0.0000
C        -2.2764   -0.0588    0.1280    0.0517    0.0089   -0.0003
C        -0.6092   -5.7583    0.1333    0.0157   -0.0193    0.0000
C        -3.1252   -4.3959    0.1301    0.0253   -0.0021   -0.0000
C        -1.8137   -6.4621    0.1328   -0.0142    0.0147   -0.0001
C        -4.6993    0.8970    0.1255   -0.0193   -0.0157    0.0002
C        -3.3370    3.4131    0.1250   -0.0021   -0.0253   -0.0002
C        -5.4031    2.1016    0.1242    0.0147    0.0142   -0.0002
C        -3.0557   -5.7893    0.1313   -0.0196    0.0046   -0.0000
C        -1.6188   -2.2708    0.1299   -0.0500   -0.0213    0.0002
C        -1.9171   -3.6897    0.1307    0.0317   -0.0374   -0.0000
C         3.2639    2.9186    0.1308   -0.0317    0.0374    0.0000
C         2.9656    1.4998    0.1315    0.0500    0.0213   -0.0002
C        -4.7303    3.3435    0.1239    0.0046    0.0196    0.0002
C         3.6232   -0.7123    0.1333   -0.0517   -0.0089    0.0003
C         4.6484   -1.7374    0.1346    0.0060    0.0486   -0.0000
C         2.5587   -2.6777    0.1336    0.0213   -0.0500   -0.0003
C         3.9776   -2.9761    0.1348    0.0374    0.0317   -0.0000
C        -0.6784   -4.3606    0.1322    0.0486   -0.0060   -0.0000
C         0.3466   -3.3353    0.1323   -0.0089    0.0517    0.0001
C         1.9559    4.9872    0.1281   -0.0157    0.0193   -0.0001
C         4.4720    3.6248    0.1315   -0.0253    0.0021    0.0000
C         3.1605    5.6910    0.1287    0.0142   -0.0147    0.0001
C         4.4025    5.0182    0.1304    0.0196   -0.0046    0.0000
C         6.0461   -1.6681    0.1356    0.0193    0.0157   -0.0002
C         4.6838   -4.1842    0.1359    0.0021    0.0253    0.0002
C         6.7499   -2.8727    0.1368   -0.0147   -0.0142    0.0002
C         6.0771   -4.1146    0.1369   -0.0046   -0.0196   -0.0002
H         6.5562   -0.7047    0.1355    0.0698   -0.0108   -0.0002
H         4.1560   -5.1380    0.1360   -0.0495    0.0542    0.0003
H         6.6624   -5.0353    0.1378   -0.0141   -0.0252   -0.0004
H        -5.2094   -0.0664    0.1257   -0.0698    0.0109    0.0002
H        -2.8092    4.3669    0.1248    0.0495   -0.0542   -0.0003
H        -5.3156    4.2642    0.1229    0.0141    0.0252    0.0005
H        -6.4939    2.0893    0.1234    0.0143    0.0250   -0.0006
H         0.3542   -6.2683    0.1345   -0.0108   -0.0698    0.0003
H        -4.0791   -3.8681    0.1290    0.0542    0.0495    0.0002
H        -3.9763   -6.3745    0.1309   -0.0252    0.0141    0.0002
H        -1.8014   -7.5529    0.1337   -0.0250    0.0143    0.0000
H         0.9926    5.4972    0.1268    0.0109    0.0698   -0.0003
H         5.4259    3.0971    0.1328   -0.0542   -0.0495   -0.0002
H         5.3231    5.6035    0.1309    0.0252   -0.0141   -0.0002
H         3.1482    6.7818    0.1279    0.0250   -0.0143   -0.0000
H         7.8407   -2.8603    0.1376   -0.0143   -0.0250    0.0006
    57
stable frequency at    633.171 1/cm IR int. is 8.135 a.m.u.; force const. is 1.922 mDyne/Ang.
Fe        0.6734   -0.3855    0.1306    0.0160   -0.0102    0.0000
N         3.9138    0.5779    0.1328    0.0069   -0.0356    0.0000
N         1.6368   -3.6259    0.1334    0.0276    0.0135    0.0000
N        -0.2395   -2.0709    0.1309    0.0219   -0.0083    0.0000
N        -1.0120    0.5273    0.1286   -0.0470    0.0238   -0.0001
N         1.5863    1.2998    0.1304    0.0219   -0.0083    0.0000
N         2.3588   -1.2984    0.1326   -0.0470    0.0238   -0.0000
N        -0.2900    2.8548    0.1277    0.0276    0.0135    0.0000
N        -2.5670   -1.3489    0.1285    0.0069   -0.0356    0.0000
C        -2.6308    2.2050    0.1263   -0.0243    0.0290   -0.0000
C        -1.2119    1.9066    0.1276   -0.0185    0.0338   -0.0000
C         1.0001    2.5643    0.1290    0.0307    0.0210    0.0000
C         2.0252    3.5895    0.1292    0.0384    0.0219    0.0000
C        -3.3016    0.9663    0.1265   -0.0347   -0.0015   -0.0000
C        -2.2764   -0.0588    0.1280   -0.0349   -0.0080   -0.0000
C        -0.6092   -5.7583    0.1333    0.0077    0.0395   -0.0000
C        -3.1252   -4.3959    0.1301   -0.0210   -0.0313    0.0000
C        -1.8137   -6.4621    0.1328   -0.0076    0.0574   -0.0001
C        -4.6993    0.8970    0.1255   -0.0302   -0.0537    0.0000
C        -3.3370    3.4131    0.1250    0.0246    0.0585   -0.0000
C        -5.4031    2.1016    0.1242    0.0331   -0.0198    0.0001
C        -3.0557   -5.7893    0.1313   -0.0535   -0.0289   -0.0000
C        -1.6188   -2.2708    0.1299    0.0041   -0.0362    0.0000
C        -1.9171   -3.6897    0.1307    0.0066   -0.0418    0.0000
C         3.2639    2.9186    0.1308    0.0066   -0.0418    0.0000
C         2.9656    1.4998    0.1315    0.0041   -0.0362    0.0000
C        -4.7303    3.3435    0.1239    0.0315   -0.0090    0.0000
C         3.6232   -0.7123    0.1333   -0.0349   -0.0080   -0.0000
C         4.6484   -1.7374    0.1346   -0.0347   -0.0015   -0.0000
C         2.5587   -2.6777    0.1336   -0.0185    0.0338   -0.0000
C         3.9776   -2.9761    0.1348   -0.0243    0.0290   -0.0000
C        -0.6784   -4.3606    0.1322    0.0384    0.0219    0.0000
C         0.3466   -3.3353    0.1323    0.0307    0.0211    0.0000
C         1.9559    4.9872    0.1281    0.0077    0.0395   -0.0000
C         4.4720    3.6248    0.1315   -0.0210   -0.0313    0.0000
C         3.1605    5.6910    0.1287   -0.0076    0.0574   -0.0001
C         4.4025    5.0182    0.1304   -0.0535   -0.0289   -0.0000
C         6.0461   -1.6681    0.1356   -0.0302   -0.0537    0.0000
C         4.6838   -4.1842    0.1359    0.0246    0.0585   -0.0000
C         6.7499   -2.8727    0.1368    0.0331   -0.0198    0.0000
C         6.0771   -4.1146    0.1369    0.0315   -0.0090    0.0000
H         6.5562   -0.7047    0.1355   -0.0359   -0.0507   -0.0000
H         4.1560   -5.1380    0.1360    0.0233    0.0594   -0.0000
H         6.6624   -5.0353    0.1378   -0.0217   -0.0425    0.0000
H        -5.2094   -0.0664    0.1257   -0.0359   -0.0507   -0.0000
H        -2.8092    4.3669    0.1248    0.0233    0.0594    0.0000
H        -5.3156    4.2642    0.1229   -0.0217   -0.0425    0.0000
H        -6.4939    2.0893    0.1234    0.0324    0.0356    0.0000
H         0.3542   -6.2683    0.1345   -0.0165   -0.0056   -0.0000
H        -4.0791   -3.8681    0.1290    0.0031    0.0136   -0.0000
H        -3.9763   -6.3745    0.1309   -0.0309   -0.0641   -0.0000
H        -1.8014   -7.5529    0.1337    0.0439    0.0580    0.0000
H         0.9926    5.4972    0.1268   -0.0165   -0.0056    0.0000
H         5.4259    3.0971    0.1328    0.0031    0.0136   -0.0000
H         5.3231    5.6035    0.1309   -0.0309   -0.0641   -0.0000
H         3.1482    6.7818    0.1279    0.0439    0.0580    0.0000
H         7.8407   -2.8603    0.1376    0.0324    0.0356   -0.0000
    57
stable frequency at    633.171 1/cm IR int. is 8.135 a.m.u.; force const. is 1.922 mDyne/Ang.
Fe        0.6734   -0.3855    0.1306    0.0102    0.0160   -0.0000
N         3.9138    0.5779    0.1328   -0.0135    0.0276   -0.0000
N         1.6368   -3.6259    0.1334    0.0356    0.0069    0.0000
N        -0.2395   -2.0709    0.1309   -0.0238   -0.0470    0.0000
N        -1.0120    0.5273    0.1286    0.0083    0.0219   -0.0000
N         1.5863    1.2998    0.1304   -0.0238   -0.0470    0.0000
N         2.3588   -1.2984    0.1326    0.0083    0.0219   -0.0000
N        -0.2900    2.8548    0.1277    0.0356    0.0069    0.0000
N        -2.5670   -1.3489    0.1285   -0.0135    0.0276   -0.0000
C        -2.6308    2.2050    0.1263    0.0418    0.0066    0.0000
C        -1.2119    1.9066    0.1276    0.0362    0.0041    0.0000
C         1.0001    2.5643    0.1290    0.0080   -0.0349    0.0000
C         2.0252    3.5895    0.1292    0.0015   -0.0347    0.0000
C        -3.3016    0.9663    0.1265   -0.0219    0.0384   -0.0000
C        -2.2764   -0.0588    0.1280   -0.0210    0.0307   -0.0000
C        -0.6092   -5.7583    0.1333    0.0537   -0.0302    0.0001
C        -3.1252   -4.3959    0.1301   -0.0585    0.0246   -0.0001
C        -1.8137   -6.4621    0.1328    0.0198    0.0331   -0.0000
C        -4.6993    0.8970    0.1255   -0.0395    0.0078   -0.0001
C        -3.3370    3.4131    0.1250    0.0313   -0.0210    0.0000
C        -5.4031    2.1016    0.1242   -0.0574   -0.0076   -0.0000
C        -3.0557   -5.7893    0.1313    0.0090    0.0315   -0.0000
C        -1.6188   -2.2708    0.1299   -0.0337   -0.0185   -0.0000
C        -1.9171   -3.6897    0.1307   -0.0290   -0.0243   -0.0000
C         3.2639    2.9186    0.1308   -0.0290   -0.0243   -0.0000
C         2.9656    1.4998    0.1315   -0.0338   -0.0185   -0.0001
C        -4.7303    3.3435    0.1239    0.0289   -0.0535    0.0000
C         3.6232   -0.7123    0.1333   -0.0211    0.0307    0.0000
C         4.6484   -1.7374    0.1346   -0.0219    0.0384   -0.0000
C         2.5587   -2.6777    0.1336    0.0362    0.0041    0.0000
C         3.9776   -2.9761    0.1348    0.0418    0.0066    0.0000
C        -0.6784   -4.3606    0.1322    0.0015   -0.0347    0.0000
C         0.3466   -3.3353    0.1323    0.0080   -0.0349    0.0000
C         1.9559    4.9872    0.1281    0.0537   -0.0302    0.0001
C         4.4720    3.6248    0.1315   -0.0585    0.0246   -0.0001
C         3.1605    5.6910    0.1287    0.0198    0.0331    0.0000
C         4.4025    5.0182    0.1304    0.0090    0.0315   -0.0000
C         6.0461   -1.6681    0.1356   -0.0395    0.0077   -0.0001
C         4.6838   -4.1842    0.1359    0.0313   -0.0210    0.0000
C         6.7499   -2.8727    0.1368   -0.0574   -0.0076   -0.0000
C         6.0771   -4.1146    0.1369    0.0289   -0.0535    0.0000
H         6.5562   -0.7047    0.1355    0.0056   -0.0165    0.0001
H         4.1560   -5.1380    0.1360   -0.0136    0.0031    0.0001
H         6.6624   -5.0353    0.1378    0.0641   -0.0309    0.0003
H        -5.2094   -0.0664    0.1257    0.0056   -0.0165    0.0001
H        -2.8092    4.3669    0.1248   -0.0136    0.0031    0.0001
H        -5.3156    4.2642    0.1229    0.0641   -0.0309    0.0003
H        -6.4939    2.0893    0.1234   -0.0580    0.0439    0.0001
H         0.3542   -6.2683    0.1345    0.0507   -0.0359    0.0000
H        -4.0791   -3.8681    0.1290   -0.0594    0.0233   -0.0001
H        -3.9763   -6.3745    0.1309    0.0425   -0.0217    0.0000
H        -1.8014   -7.5529    0.1337   -0.0356    0.0324   -0.0001
H         0.9926    5.4972    0.1268    0.0507   -0.0359   -0.0000
H         5.4259    3.0971    0.1328   -0.0594    0.0233   -0.0000
H         5.3231    5.6035    0.1309    0.0425   -0.0217    0.0000
H         3.1482    6.7818    0.1279   -0.0356    0.0324   -0.0000
H         7.8407   -2.8603    0.1376   -0.0580    0.0439    0.0001
    57
stable frequency at    667.608 1/cm IR int. is 6.856 a.m.u.; force const. is 1.800 mDyne/Ang.
Fe        0.6734   -0.3855    0.1306   -0.0000   -0.0000   -0.0000
N         3.9138    0.5779    0.1328   -0.0001    0.0000    0.0565
N         1.6368   -3.6259    0.1334    0.0000   -0.0000   -0.0565
N        -0.2395   -2.0709    0.1309    0.0000   -0.0000   -0.0017
N        -1.0120    0.5273    0.1286   -0.0000    0.0000    0.0017
N         1.5863    1.2998    0.1304    0.0000   -0.0000   -0.0017
N         2.3588   -1.2984    0.1326    0.0000    0.0000    0.0017
N        -0.2900    2.8548    0.1277    0.0001   -0.0001   -0.0565
N        -2.5670   -1.3489    0.1285   -0.0000    0.0000    0.0565
C        -2.6308    2.2050    0.1263   -0.0000    0.0000    0.0313
C        -1.2119    1.9066    0.1276   -0.0001    0.0000    0.0631
C         1.0001    2.5643    0.1290   -0.0001    0.0000    0.0668
C         2.0252    3.5895    0.1292   -0.0000    0.0000    0.0303
C        -3.3016    0.9663    0.1265    0.0000   -0.0000   -0.0303
C        -2.2764   -0.0588    0.1280    0.0001   -0.0000   -0.0668
C        -0.6092   -5.7583    0.1333    0.0000   -0.0000   -0.0358
C        -3.1252   -4.3959    0.1301   -0.0001    0.0000    0.0351
C        -1.8137   -6.4621    0.1328   -0.0000    0.0000    0.0365
C        -4.6993    0.8970    0.1255   -0.0000    0.0000    0.0358
C        -3.3370    3.4131    0.1250    0.0000   -0.0000   -0.0351
C        -5.4031    2.1016    0.1242    0.0000   -0.0000   -0.0365
C        -3.0557   -5.7893    0.1313    0.0000   -0.0000   -0.0374
C        -1.6188   -2.2708    0.1299    0.0001   -0.0000   -0.0631
C        -1.9171   -3.6897    0.1307    0.0000   -0.0000   -0.0313
C         3.2639    2.9186    0.1308    0.0000   -0.0000   -0.0313
C         2.9656    1.4998    0.1315    0.0001   -0.0000   -0.0631
C        -4.7303    3.3435    0.1239   -0.0000    0.0000    0.0374
C         3.6232   -0.7123    0.1333    0.0000   -0.0000   -0.0668
C         4.6484   -1.7374    0.1346    0.0000   -0.0000   -0.0303
C         2.5587   -2.6777    0.1336   -0.0000    0.0000    0.0631
C         3.9776   -2.9761    0.1348   -0.0000    0.0000    0.0313
C        -0.6784   -4.3606    0.1322   -0.0000    0.0000    0.0303
C         0.3466   -3.3353    0.1323   -0.0001    0.0001    0.0669
C         1.9559    4.9872    0.1281    0.0000   -0.0000   -0.0358
C         4.4720    3.6248    0.1315   -0.0000    0.0000    0.0351
C         3.1605    5.6910    0.1287   -0.0000    0.0000    0.0365
C         4.4025    5.0182    0.1304    0.0000   -0.0000   -0.0374
C         6.0461   -1.6681    0.1356   -0.0000    0.0000    0.0358
C         4.6838   -4.1842    0.1359    0.0000   -0.0000   -0.0351
C         6.7499   -2.8727    0.1368    0.0000   -0.0000   -0.0365
C         6.0771   -4.1146    0.1369   -0.0000    0.0000    0.0374
H         6.5562   -0.7047    0.1355   -0.0000    0.0000    0.0566
H         4.1560   -5.1380    0.1360    0.0000   -0.0000   -0.0627
H         6.6624   -5.0353    0.1378   -0.0000    0.0000    0.0687
H        -5.2094   -0.0664    0.1257   -0.0001    0.0000    0.0566
H        -2.8092    4.3669    0.1248    0.0000   -0.0000   -0.0627
H        -5.3156    4.2642    0.1229   -0.0001    0.0000    0.0687
H        -6.4939    2.0893    0.1234    0.0001   -0.0000   -0.0762
H         0.3542   -6.2683    0.1345    0.0001   -0.0001   -0.0566
H        -4.0791   -3.8681    0.1290   -0.0001    0.0000    0.0626
H        -3.9763   -6.3745    0.1309    0.0001   -0.0001   -0.0687
H        -1.8014   -7.5529    0.1337   -0.0001    0.0001    0.0763
H         0.9926    5.4972    0.1268    0.0001   -0.0000   -0.0566
H         5.4259    3.0971    0.1328   -0.0001    0.0000    0.0626
H         5.3231    5.6035    0.1309    0.0001   -0.0000   -0.0687
H         3.1482    6.7818    0.1279   -0.0001    0.0001    0.0762
H         7.8407   -2.8603    0.1376    0.0000   -0.0000   -0.0762
    57
stable frequency at    670.341 1/cm IR int. is 8.995 a.m.u.; force const. is 2.381 mDyne/Ang.
Fe        0.6734   -0.3855    0.1306    0.0000   -0.0000    0.0000
N         3.9138    0.5779    0.1328    0.0895    0.0265    0.0001
N         1.6368   -3.6259    0.1334    0.0265   -0.0895    0.0001
N        -0.2395   -2.0709    0.1309    0.0046    0.0063    0.0000
N        -1.0120    0.5273    0.1286    0.0063   -0.0046   -0.0000
N         1.5863    1.2998    0.1304   -0.0046   -0.0063    0.0000
N         2.3588   -1.2984    0.1326   -0.0063    0.0046   -0.0000
N        -0.2900    2.8548    0.1277   -0.0265    0.0895   -0.0001
N        -2.5670   -1.3489    0.1285   -0.0895   -0.0265   -0.0000
C        -2.6308    2.2050    0.1263    0.0224   -0.0209    0.0000
C        -1.2119    1.9066    0.1276    0.0126    0.0258    0.0000
C         1.0001    2.5643    0.1290   -0.0244    0.0165   -0.0000
C         2.0252    3.5895    0.1292   -0.0058   -0.0297    0.0000
C        -3.3016    0.9663    0.1265    0.0297   -0.0058    0.0000
C        -2.2764   -0.0588    0.1280   -0.0165   -0.0244    0.0000
C        -0.6092   -5.7583    0.1333   -0.0395    0.0373   -0.0001
C        -3.1252   -4.3959    0.1301    0.0524   -0.0128    0.0001
C        -1.8137   -6.4621    0.1328   -0.0107   -0.0093    0.0000
C        -4.6993    0.8970    0.1255    0.0373    0.0395    0.0000
C        -3.3370    3.4131    0.1250   -0.0128   -0.0524    0.0000
C        -5.4031    2.1016    0.1242   -0.0093    0.0107   -0.0000
C        -3.0557   -5.7893    0.1313   -0.0013   -0.0145    0.0000
C        -1.6188   -2.2708    0.1299   -0.0258    0.0126   -0.0001
C        -1.9171   -3.6897    0.1307    0.0209    0.0224    0.0000
C         3.2639    2.9186    0.1308   -0.0209   -0.0224   -0.0000
C         2.9656    1.4998    0.1315    0.0258   -0.0126   -0.0000
C        -4.7303    3.3435    0.1239   -0.0145    0.0013   -0.0000
C         3.6232   -0.7123    0.1333    0.0165    0.0244    0.0000
C         4.6484   -1.7374    0.1346   -0.0297    0.0059   -0.0000
C         2.5587   -2.6777    0.1336   -0.0126   -0.0258    0.0000
C         3.9776   -2.9761    0.1348   -0.0224    0.0209   -0.0000
C        -0.6784   -4.3606    0.1322    0.0058    0.0297    0.0000
C         0.3466   -3.3353    0.1323    0.0244   -0.0165    0.0000
C         1.9559    4.9872    0.1281    0.0395   -0.0373    0.0001
C         4.4720    3.6248    0.1315   -0.0524    0.0128   -0.0000
C         3.1605    5.6910    0.1287    0.0107    0.0093    0.0000
C         4.4025    5.0182    0.1304    0.0013    0.0145   -0.0000
C         6.0461   -1.6681    0.1356   -0.0373   -0.0395    0.0000
C         4.6838   -4.1842    0.1359    0.0128    0.0524   -0.0000
C         6.7499   -2.8727    0.1368    0.0093   -0.0107    0.0000
C         6.0771   -4.1146    0.1369    0.0145   -0.0013    0.0000
H         6.5562   -0.7047    0.1355   -0.0430   -0.0369    0.0000
H         4.1560   -5.1380    0.1360    0.0066    0.0565   -0.0000
H         6.6624   -5.0353    0.1378   -0.0257   -0.0262    0.0000
H        -5.2094   -0.0664    0.1257    0.0430    0.0369    0.0001
H        -2.8092    4.3669    0.1248   -0.0066   -0.0565    0.0000
H        -5.3156    4.2642    0.1229    0.0257    0.0262    0.0001
H        -6.4939    2.0893    0.1234   -0.0083   -0.0367    0.0001
H         0.3542   -6.2683    0.1345   -0.0369    0.0430   -0.0001
H        -4.0791   -3.8681    0.1290    0.0565   -0.0066    0.0000
H        -3.9763   -6.3745    0.1309   -0.0262    0.0257   -0.0001
H        -1.8014   -7.5529    0.1337    0.0367   -0.0083    0.0000
H         0.9926    5.4972    0.1268    0.0369   -0.0430   -0.0000
H         5.4259    3.0971    0.1328   -0.0565    0.0066   -0.0001
H         5.3231    5.6035    0.1309    0.0262   -0.0257   -0.0000
H         3.1482    6.7818    0.1279   -0.0367    0.0083   -0.0001
H         7.8407   -2.8603    0.1376    0.0083    0.0367   -0.0000
    57
stable frequency at    677.062 1/cm IR int. is 3.594 a.m.u.; force const. is 0.971 mDyne/Ang.
Fe        0.6734   -0.3855    0.1306    0.0000    0.0000    0.0000
N         3.9138    0.5779    0.1328    0.0000    0.0000   -0.0015
N         1.6368   -3.6259    0.1334    0.0000   -0.0000    0.0015
N        -0.2395   -2.0709    0.1309    0.0000   -0.0001   -0.0615
N        -1.0120    0.5273    0.1286   -0.0000    0.0001    0.0615
N         1.5863    1.2998    0.1304    0.0000   -0.0001   -0.0615
N         2.3588   -1.2984    0.1326   -0.0000    0.0000    0.0615
N        -0.2900    2.8548    0.1277    0.0000    0.0000    0.0015
N        -2.5670   -1.3489    0.1285   -0.0000    0.0000   -0.0015
C        -2.6308    2.2050    0.1263    0.0000    0.0000    0.0185
C        -1.2119    1.9066    0.1276    0.0001   -0.0000   -0.0741
C         1.0001    2.5643    0.1290   -0.0001    0.0000    0.0707
C         2.0252    3.5895    0.1292    0.0000   -0.0000   -0.0201
C        -3.3016    0.9663    0.1265   -0.0000    0.0000    0.0201
C        -2.2764   -0.0588    0.1280    0.0000   -0.0000   -0.0707
C        -0.6092   -5.7583    0.1333    0.0000   -0.0000   -0.0133
C        -3.1252   -4.3959    0.1301    0.0000   -0.0000   -0.0152
C        -1.8137   -6.4621    0.1328    0.0000   -0.0000   -0.0119
C        -4.6993    0.8970    0.1255   -0.0000    0.0000    0.0133
C        -3.3370    3.4131    0.1250   -0.0000   -0.0000    0.0152
C        -5.4031    2.1016    0.1242   -0.0000    0.0000    0.0119
C        -3.0557   -5.7893    0.1313    0.0000   -0.0000   -0.0099
C        -1.6188   -2.2708    0.1299   -0.0001    0.0001    0.0741
C        -1.9171   -3.6897    0.1307    0.0000   -0.0000   -0.0185
C         3.2639    2.9186    0.1308   -0.0000   -0.0000   -0.0185
C         2.9656    1.4998    0.1315   -0.0001    0.0000    0.0741
C        -4.7303    3.3435    0.1239   -0.0000   -0.0000    0.0099
C         3.6232   -0.7123    0.1333    0.0000   -0.0000   -0.0707
C         4.6484   -1.7374    0.1346   -0.0000    0.0000    0.0201
C         2.5587   -2.6777    0.1336    0.0001   -0.0000   -0.0741
C         3.9776   -2.9761    0.1348   -0.0000    0.0000    0.0185
C        -0.6784   -4.3606    0.1322    0.0000   -0.0000   -0.0201
C         0.3466   -3.3353    0.1323   -0.0000    0.0000    0.0707
C         1.9559    4.9872    0.1281    0.0000   -0.0000   -0.0133
C         4.4720    3.6248    0.1315   -0.0000   -0.0000   -0.0152
C         3.1605    5.6910    0.1287    0.0000   -0.0000   -0.0119
C         4.4025    5.0182    0.1304    0.0000    0.0000   -0.0099
C         6.0461   -1.6681    0.1356   -0.0000   -0.0000    0.0133
C         4.6838   -4.1842    0.1359    0.0000    0.0000    0.0152
C         6.7499   -2.8727    0.1368   -0.0000   -0.0000    0.0119
C         6.0771   -4.1146    0.1369    0.0000   -0.0000    0.0099
H         6.5562   -0.7047    0.1355    0.0001   -0.0001   -0.1120
H         4.1560   -5.1380    0.1360    0.0001   -0.0001   -0.1091
H         6.6624   -5.0353    0.1378    0.0001   -0.0001   -0.1239
H        -5.2094   -0.0664    0.1257    0.0001   -0.0001   -0.1120
H        -2.8092    4.3669    0.1248    0.0001   -0.0001   -0.1091
H        -5.3156    4.2642    0.1229    0.0001   -0.0001   -0.1239
H        -6.4939    2.0893    0.1234    0.0001   -0.0001   -0.1187
H         0.3542   -6.2683    0.1345   -0.0001    0.0001    0.1120
H        -4.0791   -3.8681    0.1290   -0.0001    0.0001    0.1091
H        -3.9763   -6.3745    0.1309   -0.0001    0.0001    0.1239
H        -1.8014   -7.5529    0.1337   -0.0001    0.0001    0.1187
H         0.9926    5.4972    0.1268   -0.0001    0.0001    0.1120
H         5.4259    3.0971    0.1328   -0.0001    0.0001    0.1091
H         5.3231    5.6035    0.1309   -0.0001    0.0001    0.1239
H         3.1482    6.7818    0.1279   -0.0001    0.0001    0.1188
H         7.8407   -2.8603    0.1376    0.0001   -0.0000   -0.1187
    57
stable frequency at    680.317 1/cm IR int. is 7.114 a.m.u.; force const. is 1.940 mDyne/Ang.
Fe        0.6734   -0.3855    0.1306   -0.0000    0.0000    0.0000
N         3.9138    0.5779    0.1328   -0.0178   -0.0043    0.0000
N         1.6368   -3.6259    0.1334    0.0043   -0.0178    0.0000
N        -0.2395   -2.0709    0.1309    0.0019   -0.0018    0.0000
N        -1.0120    0.5273    0.1286    0.0018    0.0019   -0.0000
N         1.5863    1.2998    0.1304   -0.0019    0.0018   -0.0000
N         2.3588   -1.2984    0.1326   -0.0018   -0.0019    0.0000
N        -0.2900    2.8548    0.1277   -0.0043    0.0178   -0.0000
N        -2.5670   -1.3489    0.1285    0.0178    0.0043   -0.0000
C        -2.6308    2.2050    0.1263    0.0523    0.0225    0.0001
C        -1.2119    1.9066    0.1276    0.0281   -0.0052    0.0001
C         1.0001    2.5643    0.1290   -0.0193   -0.0190    0.0000
C         2.0252    3.5895    0.1292   -0.0555   -0.0098   -0.0000
C        -3.3016    0.9663    0.1265   -0.0098    0.0555   -0.0000
C        -2.2764   -0.0588    0.1280   -0.0190    0.0193    0.0000
C        -0.6092   -5.7583    0.1333    0.0234    0.0233    0.0000
C        -3.1252   -4.3959    0.1301   -0.0054   -0.0321    0.0000
C        -1.8137   -6.4621    0.1328   -0.0088    0.0667   -0.0001
C        -4.6993    0.8970    0.1255   -0.0233    0.0234   -0.0001
C        -3.3370    3.4131    0.1250    0.0321   -0.0054    0.0000
C        -5.4031    2.1016    0.1242   -0.0667   -0.0088   -0.0001
C        -3.0557   -5.7893    0.1313   -0.0602   -0.0286    0.0000
C        -1.6188   -2.2708    0.1299   -0.0052   -0.0281    0.0000
C        -1.9171   -3.6897    0.1307    0.0225   -0.0523    0.0001
C         3.2639    2.9186    0.1308   -0.0225    0.0523   -0.0001
C         2.9656    1.4998    0.1315    0.0052    0.0281   -0.0000
C        -4.7303    3.3435    0.1239    0.0286   -0.0602   -0.0000
C         3.6232   -0.7123    0.1333    0.0190   -0.0193   -0.0000
C         4.6484   -1.7374    0.1346    0.0098   -0.0555    0.0000
C         2.5587   -2.6777    0.1336   -0.0281    0.0052   -0.0001
C         3.9776   -2.9761    0.1348   -0.0523   -0.0225   -0.0001
C        -0.6784   -4.3606    0.1322    0.0555    0.0098    0.0000
C         0.3466   -3.3353    0.1323    0.0193    0.0190   -0.0000
C         1.9559    4.9872    0.1281   -0.0234   -0.0233   -0.0000
C         4.4720    3.6248    0.1315    0.0054    0.0321   -0.0000
C         3.1605    5.6910    0.1287    0.0088   -0.0667    0.0001
C         4.4025    5.0182    0.1304    0.0602    0.0286   -0.0000
C         6.0461   -1.6681    0.1356    0.0233   -0.0234    0.0001
C         4.6838   -4.1842    0.1359   -0.0321    0.0054   -0.0000
C         6.7499   -2.8727    0.1368    0.0667    0.0088    0.0001
C         6.0771   -4.1146    0.1369   -0.0286    0.0602    0.0000
H         6.5562   -0.7047    0.1355   -0.0444    0.0130   -0.0002
H         4.1560   -5.1380    0.1360    0.0362   -0.0317   -0.0002
H         6.6624   -5.0353    0.1378   -0.0635    0.0377   -0.0005
H        -5.2094   -0.0664    0.1257    0.0444   -0.0130    0.0002
H        -2.8092    4.3669    0.1248   -0.0362    0.0317    0.0002
H        -5.3156    4.2642    0.1229    0.0635   -0.0377    0.0005
H        -6.4939    2.0893    0.1234   -0.0672    0.0357    0.0003
H         0.3542   -6.2683    0.1345   -0.0130   -0.0444    0.0001
H        -4.0791   -3.8681    0.1290    0.0317    0.0362   -0.0001
H        -3.9763   -6.3745    0.1309   -0.0377   -0.0635   -0.0000
H        -1.8014   -7.5529    0.1337    0.0357    0.0672   -0.0000
H         0.9926    5.4972    0.1268    0.0130    0.0444   -0.0000
H         5.4259    3.0971    0.1328   -0.0317   -0.0362    0.0001
H         5.3231    5.6035    0.1309    0.0377    0.0635    0.0001
H         3.1482    6.7818    0.1279   -0.0357   -0.0672    0.0001
H         7.8407   -2.8603    0.1376    0.0672   -0.0357   -0.0003
    57
stable frequency at    714.028 1/cm IR int. is 2.762 a.m.u.; force const. is 0.830 mDyne/Ang.
Fe        0.6734   -0.3855    0.1306    0.0000    0.0000    0.0000
N         3.9138    0.5779    0.1328    0.0000   -0.0000   -0.0322
N         1.6368   -3.6259    0.1334   -0.0000    0.0000    0.0426
N        -0.2395   -2.0709    0.1309   -0.0001    0.0000    0.0686
N        -1.0120    0.5273    0.1286    0.0000   -0.0000   -0.0097
N         1.5863    1.2998    0.1304    0.0001   -0.0000   -0.0686
N         2.3588   -1.2984    0.1326   -0.0000    0.0000    0.0097
N        -0.2900    2.8548    0.1277    0.0000   -0.0000   -0.0426
N        -2.5670   -1.3489    0.1285   -0.0000    0.0000    0.0322
C        -2.6308    2.2050    0.1263   -0.0000    0.0000    0.0271
C        -1.2119    1.9066    0.1276   -0.0000    0.0000    0.0356
C         1.0001    2.5643    0.1290   -0.0001    0.0001    0.0858
C         2.0252    3.5895    0.1292    0.0000    0.0000   -0.0019
C        -3.3016    0.9663    0.1265    0.0000   -0.0000   -0.0290
C        -2.2764   -0.0588    0.1280    0.0000   -0.0000   -0.0121
C        -0.6092   -5.7583    0.1333   -0.0000    0.0000    0.0260
C        -3.1252   -4.3959    0.1301   -0.0000    0.0000    0.0222
C        -1.8137   -6.4621    0.1328   -0.0000    0.0000    0.0174
C        -4.6993    0.8970    0.1255    0.0000    0.0000    0.0107
C        -3.3370    3.4131    0.1250    0.0000   -0.0000   -0.0174
C        -5.4031    2.1016    0.1242    0.0000   -0.0000   -0.0200
C        -3.0557   -5.7893    0.1313   -0.0000    0.0000    0.0229
C        -1.6188   -2.2708    0.1299    0.0001   -0.0000   -0.0797
C        -1.9171   -3.6897    0.1307   -0.0000    0.0000    0.0102
C         3.2639    2.9186    0.1308    0.0000   -0.0000   -0.0102
C         2.9656    1.4998    0.1315   -0.0001    0.0000    0.0797
C        -4.7303    3.3435    0.1239   -0.0000    0.0000    0.0145
C         3.6232   -0.7123    0.1333   -0.0000    0.0000    0.0121
C         4.6484   -1.7374    0.1346   -0.0000    0.0000    0.0290
C         2.5587   -2.6777    0.1336    0.0000   -0.0000   -0.0356
C         3.9776   -2.9761    0.1348    0.0000   -0.0000   -0.0271
C        -0.6784   -4.3606    0.1322   -0.0000    0.0000    0.0019
C         0.3466   -3.3353    0.1323    0.0001   -0.0001   -0.0858
C         1.9559    4.9872    0.1281    0.0000   -0.0000   -0.0260
C         4.4720    3.6248    0.1315    0.0000   -0.0000   -0.0222
C         3.1605    5.6910    0.1287    0.0000   -0.0000   -0.0174
C         4.4025    5.0182    0.1304    0.0000   -0.0000   -0.0229
C         6.0461   -1.6681    0.1356   -0.0000   -0.0000   -0.0107
C         4.6838   -4.1842    0.1359   -0.0000    0.0000    0.0174
C         6.7499   -2.8727    0.1368   -0.0000    0.0000    0.0200
C         6.0771   -4.1146    0.1369    0.0000   -0.0000   -0.0145
H         6.5562   -0.7047    0.1355    0.0000   -0.0000   -0.0674
H         4.1560   -5.1380    0.1360   -0.0000    0.0000    0.0214
H         6.6624   -5.0353    0.1378    0.0000   -0.0000   -0.0498
H        -5.2094   -0.0664    0.1257   -0.0001    0.0001    0.0674
H        -2.8092    4.3669    0.1248    0.0000   -0.0000   -0.0214
H        -5.3156    4.2642    0.1229   -0.0000    0.0000    0.0498
H        -6.4939    2.0893    0.1234    0.0000   -0.0000    0.0089
H         0.3542   -6.2683    0.1345    0.0001   -0.0001   -0.1580
H        -4.0791   -3.8681    0.1290    0.0001   -0.0001   -0.1727
H        -3.9763   -6.3745    0.1309    0.0002   -0.0002   -0.2130
H        -1.8014   -7.5529    0.1337    0.0002   -0.0002   -0.2139
H         0.9926    5.4972    0.1268   -0.0002    0.0001    0.1580
H         5.4259    3.0971    0.1328   -0.0001    0.0001    0.1727
H         5.3231    5.6035    0.1309   -0.0002    0.0002    0.2130
H         3.1482    6.7818    0.1279   -0.0002    0.0002    0.2140
H         7.8407   -2.8603    0.1376   -0.0000    0.0000   -0.0089
    57
stable frequency at    714.030 1/cm IR int. is 2.763 a.m.u.; force const. is 0.830 mDyne/Ang.
Fe        0.6734   -0.3855    0.1306    0.0000   -0.0000   -0.0000
N         3.9138    0.5779    0.1328   -0.0000    0.0000    0.0426
N         1.6368   -3.6259    0.1334   -0.0000    0.0001    0.0322
N        -0.2395   -2.0709    0.1309   -0.0000   -0.0000   -0.0097
N        -1.0120    0.5273    0.1286    0.0001   -0.0000   -0.0686
N         1.5863    1.2998    0.1304    0.0000    0.0000    0.0097
N         2.3588   -1.2984    0.1326   -0.0001    0.0000    0.0686
N        -0.2900    2.8548    0.1277    0.0000   -0.0000   -0.0322
N        -2.5670   -1.3489    0.1285    0.0000   -0.0000   -0.0426
C        -2.6308    2.2050    0.1263   -0.0001   -0.0000   -0.0102
C        -1.2119    1.9066    0.1276   -0.0001    0.0001    0.0797
C         1.0001    2.5643    0.1290   -0.0000    0.0000    0.0121
C         2.0252    3.5895    0.1292    0.0000    0.0000    0.0290
C        -3.3016    0.9663    0.1265    0.0000   -0.0001   -0.0019
C        -2.2764   -0.0588    0.1280   -0.0000    0.0000    0.0858
C        -0.6092   -5.7583    0.1333   -0.0000   -0.0000    0.0107
C        -3.1252   -4.3959    0.1301    0.0000    0.0000   -0.0174
C        -1.8137   -6.4621    0.1328    0.0000   -0.0001   -0.0200
C        -4.6993    0.8970    0.1255    0.0001   -0.0000   -0.0260
C        -3.3370    3.4131    0.1250   -0.0000   -0.0000   -0.0222
C        -5.4031    2.1016    0.1242    0.0001    0.0000   -0.0174
C        -3.0557   -5.7893    0.1313    0.0000    0.0000    0.0145
C        -1.6188   -2.2708    0.1299   -0.0000    0.0000    0.0356
C        -1.9171   -3.6897    0.1307   -0.0000    0.0001    0.0271
C         3.2639    2.9186    0.1308    0.0000   -0.0001   -0.0271
C         2.9656    1.4998    0.1315    0.0000   -0.0000   -0.0356
C        -4.7303    3.3435    0.1239   -0.0000    0.0000   -0.0229
C         3.6232   -0.7123    0.1333    0.0000   -0.0000   -0.0858
C         4.6484   -1.7374    0.1346   -0.0000    0.0001    0.0019
C         2.5587   -2.6777    0.1336    0.0001   -0.0001   -0.0797
C         3.9776   -2.9761    0.1348    0.0001    0.0000    0.0102
C        -0.6784   -4.3606    0.1322   -0.0000   -0.0000   -0.0290
C         0.3466   -3.3353    0.1323    0.0000   -0.0000   -0.0121
C         1.9559    4.9872    0.1281    0.0000    0.0000   -0.0107
C         4.4720    3.6248    0.1315   -0.0000   -0.0000    0.0174
C         3.1605    5.6910    0.1287   -0.0000    0.0001    0.0200
C         4.4025    5.0182    0.1304   -0.0000   -0.0000   -0.0145
C         6.0461   -1.6681    0.1356   -0.0001    0.0000    0.0260
C         4.6838   -4.1842    0.1359    0.0000   -0.0000    0.0222
C         6.7499   -2.8727    0.1368   -0.0001   -0.0000    0.0174
C         6.0771   -4.1146    0.1369    0.0000   -0.0000    0.0229
H         6.5562   -0.7047    0.1355    0.0002   -0.0001   -0.1580
H         4.1560   -5.1380    0.1360    0.0001   -0.0001   -0.1727
H         6.6624   -5.0353    0.1378    0.0002   -0.0002   -0.2130
H        -5.2094   -0.0664    0.1257   -0.0002    0.0001    0.1580
H        -2.8092    4.3669    0.1248   -0.0001    0.0001    0.1727
H        -5.3156    4.2642    0.1229   -0.0002    0.0002    0.2130
H        -6.4939    2.0893    0.1234   -0.0001    0.0001    0.2139
H         0.3542   -6.2683    0.1345   -0.0000    0.0001    0.0674
H        -4.0791   -3.8681    0.1290   -0.0000   -0.0001   -0.0214
H        -3.9763   -6.3745    0.1309   -0.0000    0.0001    0.0498
H        -1.8014   -7.5529    0.1337   -0.0000   -0.0001    0.0089
H         0.9926    5.4972    0.1268    0.0001   -0.0001   -0.0674
H         5.4259    3.0971    0.1328    0.0000    0.0000    0.0214
H         5.3231    5.6035    0.1309    0.0000   -0.0001   -0.0498
H         3.1482    6.7818    0.1279    0.0000    0.0001   -0.0089
H         7.8407   -2.8603    0.1376    0.0001   -0.0001   -0.2140
    57
stable frequency at    728.762 1/cm IR int. is 1.777 a.m.u.; force const. is 0.556 mDyne/Ang.
Fe        0.6734   -0.3855    0.1306   -0.0000   -0.0000    0.0067
N         3.9138    0.5779    0.1328    0.0001   -0.0001   -0.0303
N         1.6368   -3.6259    0.1334   -0.0001    0.0000   -0.0303
N        -0.2395   -2.0709    0.1309    0.0001   -0.0000   -0.0447
N        -1.0120    0.5273    0.1286    0.0000   -0.0001   -0.0447
N         1.5863    1.2998    0.1304    0.0001   -0.0000   -0.0447
N         2.3588   -1.2984    0.1326    0.0000   -0.0001   -0.0447
N        -0.2900    2.8548    0.1277   -0.0000    0.0000   -0.0303
N        -2.5670   -1.3489    0.1285    0.0001   -0.0001   -0.0303
C        -2.6308    2.2050    0.1263    0.0000    0.0000    0.0064
C        -1.2119    1.9066    0.1276   -0.0001    0.0000    0.0469
C         1.0001    2.5643    0.1290   -0.0001    0.0001    0.0463
C         2.0252    3.5895    0.1292   -0.0000    0.0000    0.0072
C        -3.3016    0.9663    0.1265    0.0000    0.0000    0.0072
C        -2.2764   -0.0588    0.1280   -0.0000   -0.0000    0.0463
C        -0.6092   -5.7583    0.1333   -0.0000   -0.0000   -0.0220
C        -3.1252   -4.3959    0.1301    0.0000   -0.0000   -0.0220
C        -1.8137   -6.4621    0.1328    0.0000   -0.0000   -0.0211
C        -4.6993    0.8970    0.1255    0.0001    0.0000   -0.0220
C        -3.3370    3.4131    0.1250    0.0000    0.0000   -0.0220
C        -5.4031    2.1016    0.1242   -0.0000   -0.0000   -0.0211
C        -3.0557   -5.7893    0.1313    0.0000   -0.0000   -0.0218
C        -1.6188   -2.2708    0.1299    0.0000    0.0000    0.0469
C        -1.9171   -3.6897    0.1307    0.0000   -0.0000    0.0064
C         3.2639    2.9186    0.1308    0.0000   -0.0000    0.0064
C         2.9656    1.4998    0.1315    0.0000    0.0000    0.0469
C        -4.7303    3.3435    0.1239    0.0000   -0.0001   -0.0218
C         3.6232   -0.7123    0.1333   -0.0000   -0.0000    0.0463
C         4.6484   -1.7374    0.1346    0.0000    0.0000    0.0072
C         2.5587   -2.6777    0.1336   -0.0001    0.0000    0.0469
C         3.9776   -2.9761    0.1348    0.0000    0.0000    0.0064
C        -0.6784   -4.3606    0.1322   -0.0000    0.0000    0.0072
C         0.3466   -3.3353    0.1323   -0.0001    0.0001    0.0463
C         1.9559    4.9872    0.1281   -0.0000   -0.0000   -0.0220
C         4.4720    3.6248    0.1315    0.0000   -0.0000   -0.0220
C         3.1605    5.6910    0.1287    0.0000   -0.0000   -0.0211
C         4.4025    5.0182    0.1304    0.0000   -0.0000   -0.0218
C         6.0461   -1.6681    0.1356    0.0000    0.0000   -0.0220
C         4.6838   -4.1842    0.1359    0.0000    0.0000   -0.0220
C         6.7499   -2.8727    0.1368   -0.0000   -0.0000   -0.0211
C         6.0771   -4.1146    0.1369    0.0000   -0.0001   -0.0218
H         6.5562   -0.7047    0.1355   -0.0000    0.0001    0.1451
H         4.1560   -5.1380    0.1360   -0.0002    0.0001    0.1478
H         6.6624   -5.0353    0.1378   -0.0001    0.0001    0.2124
H        -5.2094   -0.0664    0.1257   -0.0000    0.0001    0.1451
H        -2.8092    4.3669    0.1248   -0.0002    0.0001    0.1478
H        -5.3156    4.2642    0.1229   -0.0001    0.0001    0.2125
H        -6.4939    2.0893    0.1234   -0.0002    0.0001    0.2083
H         0.3542   -6.2683    0.1345   -0.0001    0.0001    0.1452
H        -4.0791   -3.8681    0.1290   -0.0001    0.0001    0.1478
H        -3.9763   -6.3745    0.1309   -0.0002    0.0002    0.2125
H        -1.8014   -7.5529    0.1337   -0.0002    0.0001    0.2083
H         0.9926    5.4972    0.1268   -0.0002    0.0001    0.1451
H         5.4259    3.0971    0.1328   -0.0001    0.0001    0.1478
H         5.3231    5.6035    0.1309   -0.0002    0.0002    0.2125
H         3.1482    6.7818    0.1279   -0.0002    0.0001    0.2083
H         7.8407   -2.8603    0.1376   -0.0002    0.0001    0.2083
    57
stable frequency at    736.248 1/cm IR int. is 11.460 a.m.u.; force const. is 3.660 mDyne/Ang.
Fe        0.6734   -0.3855    0.1306   -0.0000   -0.0000    0.0000
N         3.9138    0.5779    0.1328   -0.0253    0.0856   -0.0001
N         1.6368   -3.6259    0.1334   -0.0856   -0.0253   -0.0000
N        -0.2395   -2.0709    0.1309    0.0219    0.0405    0.0000
N        -1.0120    0.5273    0.1286   -0.0405    0.0219   -0.0001
N         1.5863    1.2998    0.1304   -0.0219   -0.0405   -0.0000
N         2.3588   -1.2984    0.1326    0.0405   -0.0219    0.0001
N        -0.2900    2.8548    0.1277    0.0856    0.0253    0.0000
N        -2.5670   -1.3489    0.1285    0.0253   -0.0856    0.0001
C        -2.6308    2.2050    0.1263    0.0118    0.0174    0.0000
C        -1.2119    1.9066    0.1276    0.0226    0.0536   -0.0000
C         1.0001    2.5643    0.1290    0.0486   -0.0322    0.0001
C         2.0252    3.5895    0.1292    0.0204   -0.0081    0.0000
C        -3.3016    0.9663    0.1265   -0.0081   -0.0204   -0.0000
C        -2.2764   -0.0588    0.1280   -0.0322   -0.0486    0.0000
C        -0.6092   -5.7583    0.1333   -0.0152    0.0171   -0.0000
C        -3.1252   -4.3959    0.1301    0.0226   -0.0030    0.0000
C        -1.8137   -6.4621    0.1328   -0.0032   -0.0035    0.0000
C        -4.6993    0.8970    0.1255   -0.0171   -0.0152   -0.0000
C        -3.3370    3.4131    0.1250    0.0030    0.0226   -0.0000
C        -5.4031    2.1016    0.1242    0.0035   -0.0032    0.0000
C        -3.0557   -5.7893    0.1313   -0.0003   -0.0043    0.0000
C        -1.6188   -2.2708    0.1299    0.0536   -0.0226    0.0001
C        -1.9171   -3.6897    0.1307    0.0174   -0.0118    0.0000
C         3.2639    2.9186    0.1308   -0.0174    0.0118   -0.0000
C         2.9656    1.4998    0.1315   -0.0536    0.0226   -0.0001
C        -4.7303    3.3435    0.1239    0.0043   -0.0003    0.0000
C         3.6232   -0.7123    0.1333    0.0322    0.0486   -0.0000
C         4.6484   -1.7374    0.1346    0.0081    0.0204    0.0000
C         2.5587   -2.6777    0.1336   -0.0226   -0.0536   -0.0000
C         3.9776   -2.9761    0.1348   -0.0118   -0.0174   -0.0000
C        -0.6784   -4.3606    0.1322   -0.0204    0.0081   -0.0000
C         0.3466   -3.3353    0.1323   -0.0486    0.0322   -0.0001
C         1.9559    4.9872    0.1281    0.0152   -0.0171    0.0000
C         4.4720    3.6248    0.1315   -0.0226    0.0030   -0.0000
C         3.1605    5.6910    0.1287    0.0032    0.0035   -0.0000
C         4.4025    5.0182    0.1304    0.0003    0.0043   -0.0000
C         6.0461   -1.6681    0.1356    0.0171    0.0152    0.0000
C         4.6838   -4.1842    0.1359   -0.0030   -0.0226    0.0000
C         6.7499   -2.8727    0.1368   -0.0035    0.0032    0.0000
C         6.0771   -4.1146    0.1369   -0.0043    0.0003   -0.0000
H         6.5562   -0.7047    0.1355    0.0333    0.0072   -0.0000
H         4.1560   -5.1380    0.1360    0.0124   -0.0319    0.0000
H         6.6624   -5.0353    0.1378    0.0132    0.0112   -0.0000
H        -5.2094   -0.0664    0.1257   -0.0333   -0.0072   -0.0000
H        -2.8092    4.3669    0.1248   -0.0124    0.0319   -0.0000
H        -5.3156    4.2642    0.1229   -0.0132   -0.0112    0.0000
H        -6.4939    2.0893    0.1234    0.0031    0.0167    0.0000
H         0.3542   -6.2683    0.1345   -0.0072    0.0333   -0.0000
H        -4.0791   -3.8681    0.1290    0.0319    0.0124   -0.0001
H        -3.9763   -6.3745    0.1309   -0.0112    0.0132   -0.0001
H        -1.8014   -7.5529    0.1337    0.0167   -0.0031   -0.0000
H         0.9926    5.4972    0.1268    0.0072   -0.0333    0.0000
H         5.4259    3.0971    0.1328   -0.0319   -0.0124    0.0000
H         5.3231    5.6035    0.1309    0.0112   -0.0132    0.0001
H         3.1482    6.7818    0.1279   -0.0167    0.0031    0.0000
H         7.8407   -2.8603    0.1376   -0.0031   -0.0167   -0.0000
    57
stable frequency at    747.472 1/cm IR int. is 9.300 a.m.u.; force const. is 3.062 mDyne/Ang.
Fe        0.6734   -0.3855    0.1306    0.0012    0.0093    0.0000
N         3.9138    0.5779    0.1328   -0.0470    0.0543   -0.0001
N         1.6368   -3.6259    0.1334    0.0459   -0.0626    0.0000
N        -0.2395   -2.0709    0.1309   -0.0408   -0.0378    0.0000
N        -1.0120    0.5273    0.1286    0.0389    0.0287   -0.0002
N         1.5863    1.2998    0.1304   -0.0408   -0.0378    0.0000
N         2.3588   -1.2984    0.1326    0.0389    0.0287   -0.0002
N        -0.2900    2.8548    0.1277    0.0459   -0.0626    0.0000
N        -2.5670   -1.3489    0.1285   -0.0470    0.0543   -0.0001
C        -2.6308    2.2050    0.1263   -0.0370   -0.0219   -0.0002
C        -1.2119    1.9066    0.1276   -0.0029    0.0029    0.0002
C         1.0001    2.5643    0.1290    0.0280   -0.0363   -0.0000
C         2.0252    3.5895    0.1292    0.0255    0.0101    0.0001
C        -3.3016    0.9663    0.1265   -0.0075   -0.0346   -0.0002
C        -2.2764   -0.0588    0.1280    0.0403    0.0290    0.0003
C        -0.6092   -5.7583    0.1333   -0.0089    0.0247   -0.0001
C        -3.1252   -4.3959    0.1301    0.0417   -0.0087   -0.0001
C        -1.8137   -6.4621    0.1328   -0.0057    0.0228   -0.0002
C        -4.6993    0.8970    0.1255   -0.0171   -0.0320    0.0001
C        -3.3370    3.4131    0.1250   -0.0161   -0.0060    0.0001
C        -5.4031    2.1016    0.1242    0.0333    0.0063    0.0001
C        -3.0557   -5.7893    0.1313   -0.0074   -0.0044   -0.0001
C        -1.6188   -2.2708    0.1299   -0.0674    0.0042   -0.0002
C        -1.9171   -3.6897    0.1307    0.0146    0.0007    0.0002
C         3.2639    2.9186    0.1308    0.0146    0.0007    0.0002
C         2.9656    1.4998    0.1315   -0.0674    0.0042   -0.0002
C        -4.7303    3.3435    0.1239   -0.0138    0.0370    0.0001
C         3.6232   -0.7123    0.1333    0.0403    0.0290    0.0002
C         4.6484   -1.7374    0.1346   -0.0075   -0.0346   -0.0001
C         2.5587   -2.6777    0.1336   -0.0029    0.0029    0.0002
C         3.9776   -2.9761    0.1348   -0.0370   -0.0219   -0.0002
C        -0.6784   -4.3606    0.1322    0.0255    0.0101    0.0002
C         0.3466   -3.3353    0.1323    0.0280   -0.0363   -0.0001
C         1.9559    4.9872    0.1281   -0.0089    0.0247   -0.0001
C         4.4720    3.6248    0.1315    0.0417   -0.0087   -0.0001
C         3.1605    5.6910    0.1287   -0.0057    0.0228   -0.0002
C         4.4025    5.0182    0.1304   -0.0074   -0.0044   -0.0001
C         6.0461   -1.6681    0.1356   -0.0171   -0.0320    0.0001
C         4.6838   -4.1842    0.1359   -0.0161   -0.0060    0.0001
C         6.7499   -2.8727    0.1368    0.0333    0.0063    0.0001
C         6.0771   -4.1146    0.1369   -0.0138    0.0370    0.0001
H         6.5562   -0.7047    0.1355   -0.0724   -0.0027   -0.0005
H         4.1560   -5.1380    0.1360    0.0373   -0.0350   -0.0004
H         6.6624   -5.0353    0.1378   -0.0301    0.0266   -0.0010
H        -5.2094   -0.0664    0.1257   -0.0724   -0.0027   -0.0005
H        -2.8092    4.3669    0.1248    0.0373   -0.0350   -0.0004
H        -5.3156    4.2642    0.1229   -0.0301    0.0266   -0.0011
H        -6.4939    2.0893    0.1234    0.0328    0.0050   -0.0009
H         0.3542   -6.2683    0.1345   -0.0196    0.0058    0.0007
H        -4.0791   -3.8681    0.1290    0.0583    0.0201    0.0007
H        -3.9763   -6.3745    0.1309   -0.0174    0.0130    0.0011
H        -1.8014   -7.5529    0.1337    0.0242    0.0238    0.0012
H         0.9926    5.4972    0.1268   -0.0196    0.0058    0.0007
H         5.4259    3.0971    0.1328    0.0582    0.0201    0.0006
H         5.3231    5.6035    0.1309   -0.0174    0.0130    0.0011
H         3.1482    6.7818    0.1279    0.0242    0.0238    0.0011
H         7.8407   -2.8603    0.1376    0.0328    0.0050   -0.0009
    57
stable frequency at    747.472 1/cm IR int. is 9.301 a.m.u.; force const. is 3.062 mDyne/Ang.
Fe        0.6734   -0.3855    0.1306    0.0093   -0.0012    0.0000
N         3.9138    0.5779    0.1328   -0.0626   -0.0459   -0.0000
N         1.6368   -3.6259    0.1334    0.0543    0.0470    0.0000
N        -0.2395   -2.0709    0.1309    0.0287   -0.0389    0.0001
N        -1.0120    0.5273    0.1286   -0.0378    0.0408   -0.0001
N         1.5863    1.2998    0.1304    0.0287   -0.0389    0.0001
N         2.3588   -1.2984    0.1326   -0.0378    0.0408   -0.0001
N        -0.2900    2.8548    0.1277    0.0543    0.0470    0.0000
N        -2.5670   -1.3489    0.1285   -0.0626   -0.0459   -0.0000
C        -2.6308    2.2050    0.1263    0.0007   -0.0146   -0.0000
C        -1.2119    1.9066    0.1276    0.0042    0.0674    0.0000
C         1.0001    2.5643    0.1290    0.0290   -0.0403   -0.0000
C         2.0252    3.5895    0.1292   -0.0346    0.0075    0.0000
C        -3.3016    0.9663    0.1265    0.0101   -0.0255   -0.0000
C        -2.2764   -0.0588    0.1280   -0.0363   -0.0280    0.0001
C        -0.6092   -5.7583    0.1333   -0.0320    0.0171   -0.0001
C        -3.1252   -4.3959    0.1301   -0.0060    0.0161   -0.0001
C        -1.8137   -6.4621    0.1328    0.0063   -0.0333   -0.0000
C        -4.6993    0.8970    0.1255    0.0247    0.0089    0.0000
C        -3.3370    3.4131    0.1250   -0.0087   -0.0417    0.0001
C        -5.4031    2.1016    0.1242    0.0228    0.0057    0.0001
C        -3.0557   -5.7893    0.1313    0.0370    0.0138   -0.0000
C        -1.6188   -2.2708    0.1299    0.0029    0.0029   -0.0001
C        -1.9171   -3.6897    0.1307   -0.0219    0.0370    0.0000
C         3.2639    2.9186    0.1308   -0.0219    0.0370    0.0000
C         2.9656    1.4998    0.1315    0.0029    0.0029   -0.0001
C        -4.7303    3.3435    0.1239   -0.0044    0.0074    0.0000
C         3.6232   -0.7123    0.1333   -0.0363   -0.0280    0.0001
C         4.6484   -1.7374    0.1346    0.0101   -0.0255   -0.0000
C         2.5587   -2.6777    0.1336    0.0042    0.0674    0.0000
C         3.9776   -2.9761    0.1348    0.0007   -0.0146   -0.0000
C        -0.6784   -4.3606    0.1322   -0.0346    0.0075    0.0000
C         0.3466   -3.3353    0.1323    0.0290   -0.0403   -0.0000
C         1.9559    4.9872    0.1281   -0.0320    0.0171   -0.0001
C         4.4720    3.6248    0.1315   -0.0060    0.0161   -0.0001
C         3.1605    5.6910    0.1287    0.0063   -0.0333   -0.0000
C         4.4025    5.0182    0.1304    0.0370    0.0138   -0.0000
C         6.0461   -1.6681    0.1356    0.0247    0.0089    0.0000
C         4.6838   -4.1842    0.1359   -0.0087   -0.0417    0.0000
C         6.7499   -2.8727    0.1368    0.0228    0.0057    0.0001
C         6.0771   -4.1146    0.1369   -0.0044    0.0074    0.0000
H         6.5562   -0.7047    0.1355    0.0058    0.0196   -0.0002
H         4.1560   -5.1380    0.1360    0.0201   -0.0583   -0.0001
H         6.6624   -5.0353    0.1378    0.0130    0.0174   -0.0003
H        -5.2094   -0.0664    0.1257    0.0058    0.0196   -0.0002
H        -2.8092    4.3669    0.1248    0.0201   -0.0583   -0.0002
H        -5.3156    4.2642    0.1229    0.0130    0.0174   -0.0004
H        -6.4939    2.0893    0.1234    0.0238   -0.0242   -0.0003
H         0.3542   -6.2683    0.1345   -0.0027    0.0724    0.0002
H        -4.0791   -3.8681    0.1290   -0.0350   -0.0373    0.0002
H        -3.9763   -6.3745    0.1309    0.0266    0.0301    0.0005
H        -1.8014   -7.5529    0.1337    0.0050   -0.0328    0.0004
H         0.9926    5.4972    0.1268   -0.0027    0.0724    0.0002
H         5.4259    3.0971    0.1328   -0.0350   -0.0373    0.0003
H         5.3231    5.6035    0.1309    0.0266    0.0301    0.0005
H         3.1482    6.7818    0.1279    0.0050   -0.0328    0.0005
H         7.8407   -2.8603    0.1376    0.0238   -0.0242   -0.0003
    57
stable frequency at    752.227 1/cm IR int. is 1.591 a.m.u.; force const. is 0.530 mDyne/Ang.
Fe        0.6734   -0.3855    0.1306    0.0000    0.0000    0.0000
N         3.9138    0.5779    0.1328   -0.0003    0.0001    0.0006
N         1.6368   -3.6259    0.1334    0.0003   -0.0002   -0.0006
N        -0.2395   -2.0709    0.1309   -0.0001   -0.0003   -0.0240
N        -1.0120    0.5273    0.1286    0.0001    0.0002    0.0240
N         1.5863    1.2998    0.1304   -0.0001   -0.0003   -0.0240
N         2.3588   -1.2984    0.1326    0.0001    0.0002    0.0240
N        -0.2900    2.8548    0.1277    0.0003   -0.0002   -0.0006
N        -2.5670   -1.3489    0.1285   -0.0003    0.0001    0.0006
C        -2.6308    2.2050    0.1263   -0.0002   -0.0001    0.0324
C        -1.2119    1.9066    0.1276   -0.0000    0.0001   -0.0367
C         1.0001    2.5643    0.1290    0.0001   -0.0002    0.0391
C         2.0252    3.5895    0.1292    0.0001    0.0000   -0.0355
C        -3.3016    0.9663    0.1265   -0.0000   -0.0002    0.0355
C        -2.2764   -0.0588    0.1280    0.0002    0.0000   -0.0391
C        -0.6092   -5.7583    0.1333   -0.0001    0.0002    0.0216
C        -3.1252   -4.3959    0.1301    0.0002    0.0000    0.0212
C        -1.8137   -6.4621    0.1328   -0.0000    0.0001    0.0271
C        -4.6993    0.8970    0.1255    0.0000   -0.0001   -0.0216
C        -3.3370    3.4131    0.1250   -0.0001   -0.0001   -0.0212
C        -5.4031    2.1016    0.1242    0.0002    0.0000   -0.0271
C        -3.0557   -5.7893    0.1313    0.0000    0.0000    0.0283
C        -1.6188   -2.2708    0.1299   -0.0003    0.0000    0.0367
C        -1.9171   -3.6897    0.1307    0.0001    0.0000   -0.0324
C         3.2639    2.9186    0.1308    0.0001    0.0000   -0.0324
C         2.9656    1.4998    0.1315   -0.0003    0.0000    0.0367
C        -4.7303    3.3435    0.1239   -0.0000    0.0001   -0.0283
C         3.6232   -0.7123    0.1333    0.0002    0.0000   -0.0391
C         4.6484   -1.7374    0.1346   -0.0000   -0.0002    0.0355
C         2.5587   -2.6777    0.1336   -0.0000    0.0001   -0.0367
C         3.9776   -2.9761    0.1348   -0.0002   -0.0001    0.0324
C        -0.6784   -4.3606    0.1322    0.0001    0.0000   -0.0355
C         0.3466   -3.3353    0.1323    0.0001   -0.0002    0.0391
C         1.9559    4.9872    0.1281   -0.0001    0.0002    0.0216
C         4.4720    3.6248    0.1315    0.0002    0.0000    0.0212
C         3.1605    5.6910    0.1287   -0.0000    0.0001    0.0271
C         4.4025    5.0182    0.1304   -0.0000    0.0000    0.0283
C         6.0461   -1.6681    0.1356    0.0000   -0.0001   -0.0216
C         4.6838   -4.1842    0.1359   -0.0001   -0.0001   -0.0212
C         6.7499   -2.8727    0.1368    0.0002    0.0000   -0.0271
C         6.0771   -4.1146    0.1369   -0.0000    0.0001   -0.0283
H         6.5562   -0.7047    0.1355   -0.0004    0.0001    0.1284
H         4.1560   -5.1380    0.1360    0.0001   -0.0002    0.1345
H         6.6624   -5.0353    0.1378   -0.0003    0.0003    0.2409
H        -5.2094   -0.0664    0.1257   -0.0004    0.0001    0.1284
H        -2.8092    4.3669    0.1248    0.0001   -0.0002    0.1345
H        -5.3156    4.2642    0.1229   -0.0003    0.0003    0.2409
H        -6.4939    2.0893    0.1234    0.0000    0.0001    0.2372
H         0.3542   -6.2683    0.1345    0.0000    0.0001   -0.1285
H        -4.0791   -3.8681    0.1290    0.0004   -0.0000   -0.1345
H        -3.9763   -6.3745    0.1309    0.0002   -0.0000   -0.2409
H        -1.8014   -7.5529    0.1337    0.0004   -0.0001   -0.2372
H         0.9926    5.4972    0.1268    0.0000    0.0001   -0.1284
H         5.4259    3.0971    0.1328    0.0004   -0.0000   -0.1345
H         5.3231    5.6035    0.1309    0.0002   -0.0000   -0.2409
H         3.1482    6.7818    0.1279    0.0004   -0.0001   -0.2372
H         7.8407   -2.8603    0.1376    0.0000    0.0001    0.2372
    57
stable frequency at    760.654 1/cm IR int. is 1.965 a.m.u.; force const. is 0.670 mDyne/Ang.
Fe        0.6734   -0.3855    0.1306    0.0000    0.0000    0.0000
N         3.9138    0.5779    0.1328    0.0000    0.0000    0.0011
N         1.6368   -3.6259    0.1334    0.0000   -0.0000   -0.0169
N        -0.2395   -2.0709    0.1309    0.0000    0.0000   -0.0299
N        -1.0120    0.5273    0.1286   -0.0000    0.0000    0.0211
N         1.5863    1.2998    0.1304   -0.0001   -0.0000    0.0299
N         2.3588   -1.2984    0.1326    0.0001   -0.0000   -0.0212
N        -0.2900    2.8548    0.1277   -0.0000   -0.0000    0.0169
N        -2.5670   -1.3489    0.1285   -0.0000   -0.0000   -0.0011
C        -2.6308    2.2050    0.1263   -0.0000   -0.0000   -0.0238
C        -1.2119    1.9066    0.1276   -0.0000    0.0000   -0.0146
C         1.0001    2.5643    0.1290    0.0000   -0.0001   -0.0410
C         2.0252    3.5895    0.1292    0.0000    0.0000    0.0139
C        -3.3016    0.9663    0.1265   -0.0000    0.0000    0.0694
C        -2.2764   -0.0588    0.1280    0.0000   -0.0000   -0.0491
C        -0.6092   -5.7583    0.1333    0.0000   -0.0000    0.0144
C        -3.1252   -4.3959    0.1301   -0.0001    0.0000    0.0263
C        -1.8137   -6.4621    0.1328   -0.0000   -0.0000    0.0361
C        -4.6993    0.8970    0.1255    0.0001    0.0000   -0.0248
C        -3.3370    3.4131    0.1250   -0.0000   -0.0000   -0.0012
C        -5.4031    2.1016    0.1242    0.0000    0.0000    0.0003
C        -3.0557   -5.7893    0.1313   -0.0000    0.0000    0.0206
C        -1.6188   -2.2708    0.1299   -0.0000    0.0001    0.0512
C        -1.9171   -3.6897    0.1307    0.0000   -0.0000   -0.0554
C         3.2639    2.9186    0.1308   -0.0000    0.0000    0.0554
C         2.9656    1.4998    0.1315    0.0000   -0.0001   -0.0512
C        -4.7303    3.3435    0.1239    0.0000   -0.0000   -0.0372
C         3.6232   -0.7123    0.1333   -0.0000    0.0000    0.0491
C         4.6484   -1.7374    0.1346    0.0000   -0.0000   -0.0694
C         2.5587   -2.6777    0.1336    0.0000   -0.0000    0.0146
C         3.9776   -2.9761    0.1348    0.0000    0.0000    0.0238
C        -0.6784   -4.3606    0.1322    0.0000   -0.0000   -0.0139
C         0.3466   -3.3353    0.1323   -0.0000    0.0000    0.0410
C         1.9559    4.9872    0.1281   -0.0000    0.0000   -0.0144
C         4.4720    3.6248    0.1315    0.0001   -0.0000   -0.0263
C         3.1605    5.6910    0.1287    0.0000    0.0000   -0.0361
C         4.4025    5.0182    0.1304    0.0000   -0.0000   -0.0206
C         6.0461   -1.6681    0.1356   -0.0001   -0.0000    0.0248
C         4.6838   -4.1842    0.1359    0.0000    0.0000    0.0012
C         6.7499   -2.8727    0.1368   -0.0000   -0.0000   -0.0003
C         6.0771   -4.1146    0.1369   -0.0000    0.0000    0.0372
H         6.5562   -0.7047    0.1355   -0.0000   -0.0001   -0.0132
H         4.1560   -5.1380    0.1360    0.0001   -0.0000   -0.1565
H         6.6624   -5.0353    0.1378    0.0001   -0.0001   -0.1585
H        -5.2094   -0.0664    0.1257    0.0000    0.0001    0.0133
H        -2.8092    4.3669    0.1248   -0.0001    0.0000    0.1564
H        -5.3156    4.2642    0.1229   -0.0001    0.0001    0.1585
H        -6.4939    2.0893    0.1234   -0.0001    0.0001    0.1594
H         0.3542   -6.2683    0.1345    0.0002   -0.0001   -0.1612
H        -4.0791   -3.8681    0.1290    0.0000   -0.0001   -0.1040
H        -3.9763   -6.3745    0.1309    0.0002   -0.0002   -0.2510
H        -1.8014   -7.5529    0.1337    0.0002   -0.0002   -0.2401
H         0.9926    5.4972    0.1268   -0.0002    0.0001    0.1612
H         5.4259    3.0971    0.1328   -0.0000    0.0001    0.1040
H         5.3231    5.6035    0.1309   -0.0003    0.0002    0.2510
H         3.1482    6.7818    0.1279   -0.0002    0.0002    0.2401
H         7.8407   -2.8603    0.1376    0.0001   -0.0000   -0.1594
    57
stable frequency at    760.656 1/cm IR int. is 1.965 a.m.u.; force const. is 0.670 mDyne/Ang.
Fe        0.6734   -0.3855    0.1306   -0.0000    0.0000   -0.0000
N         3.9138    0.5779    0.1328    0.0000   -0.0000    0.0169
N         1.6368   -3.6259    0.1334   -0.0000   -0.0000    0.0011
N        -0.2395   -2.0709    0.1309    0.0000   -0.0000   -0.0212
N        -1.0120    0.5273    0.1286    0.0000   -0.0000   -0.0299
N         1.5863    1.2998    0.1304   -0.0000    0.0000    0.0212
N         2.3588   -1.2984    0.1326   -0.0000    0.0000    0.0299
N        -0.2900    2.8548    0.1277    0.0000    0.0000   -0.0011
N        -2.5670   -1.3489    0.1285    0.0000    0.0000   -0.0170
C        -2.6308    2.2050    0.1263    0.0001   -0.0000   -0.0554
C        -1.2119    1.9066    0.1276    0.0000    0.0000    0.0512
C         1.0001    2.5643    0.1290    0.0000   -0.0000   -0.0491
C         2.0252    3.5895    0.1292   -0.0001    0.0000    0.0694
C        -3.3016    0.9663    0.1265   -0.0000    0.0000   -0.0139
C        -2.2764   -0.0588    0.1280   -0.0000    0.0000    0.0410
C        -0.6092   -5.7583    0.1333   -0.0000    0.0000    0.0248
C        -3.1252   -4.3959    0.1301    0.0000   -0.0000    0.0012
C        -1.8137   -6.4621    0.1328   -0.0000    0.0000   -0.0002
C        -4.6993    0.8970    0.1255   -0.0001   -0.0000    0.0144
C        -3.3370    3.4131    0.1250   -0.0000    0.0000    0.0263
C        -5.4031    2.1016    0.1242   -0.0000    0.0000    0.0361
C        -3.0557   -5.7893    0.1313   -0.0001    0.0000    0.0372
C        -1.6188   -2.2708    0.1299   -0.0000    0.0000    0.0147
C        -1.9171   -3.6897    0.1307   -0.0000    0.0000    0.0237
C         3.2639    2.9186    0.1308    0.0000   -0.0000   -0.0238
C         2.9656    1.4998    0.1315    0.0000   -0.0000   -0.0146
C        -4.7303    3.3435    0.1239   -0.0000    0.0000    0.0206
C         3.6232   -0.7123    0.1333    0.0001   -0.0000   -0.0410
C         4.6484   -1.7374    0.1346    0.0000   -0.0000    0.0139
C         2.5587   -2.6777    0.1336   -0.0000   -0.0000   -0.0513
C         3.9776   -2.9761    0.1348   -0.0001    0.0000    0.0554
C        -0.6784   -4.3606    0.1322    0.0001   -0.0001   -0.0693
C         0.3466   -3.3353    0.1323   -0.0000    0.0000    0.0490
C         1.9559    4.9872    0.1281    0.0000   -0.0000   -0.0248
C         4.4720    3.6248    0.1315   -0.0000    0.0000   -0.0012
C         3.1605    5.6910    0.1287    0.0000   -0.0000    0.0003
C         4.4025    5.0182    0.1304    0.0001   -0.0000   -0.0372
C         6.0461   -1.6681    0.1356    0.0000    0.0000   -0.0144
C         4.6838   -4.1842    0.1359    0.0000   -0.0000   -0.0263
C         6.7499   -2.8727    0.1368    0.0000   -0.0000   -0.0361
C         6.0771   -4.1146    0.1369    0.0000   -0.0000   -0.0206
H         6.5562   -0.7047    0.1355   -0.0001    0.0001    0.1612
H         4.1560   -5.1380    0.1360   -0.0001    0.0001    0.1040
H         6.6624   -5.0353    0.1378   -0.0002    0.0001    0.2511
H        -5.2094   -0.0664    0.1257    0.0001   -0.0001   -0.1612
H        -2.8092    4.3669    0.1248    0.0001   -0.0001   -0.1040
H        -5.3156    4.2642    0.1229    0.0002   -0.0002   -0.2511
H        -6.4939    2.0893    0.1234    0.0002   -0.0001   -0.2401
H         0.3542   -6.2683    0.1345    0.0000   -0.0000   -0.0134
H        -4.0791   -3.8681    0.1290    0.0002   -0.0001   -0.1564
H        -3.9763   -6.3745    0.1309    0.0001   -0.0002   -0.1585
H        -1.8014   -7.5529    0.1337    0.0002   -0.0001   -0.1594
H         0.9926    5.4972    0.1268   -0.0000    0.0000    0.0133
H         5.4259    3.0971    0.1328   -0.0002    0.0001    0.1565
H         5.3231    5.6035    0.1309   -0.0001    0.0001    0.1585
H         3.1482    6.7818    0.1279   -0.0002    0.0001    0.1594
H         7.8407   -2.8603    0.1376   -0.0002    0.0001    0.2401
    57
stable frequency at    765.750 1/cm IR int. is 5.408 a.m.u.; force const. is 1.868 mDyne/Ang.
Fe        0.6734   -0.3855    0.1306   -0.0000   -0.0000    0.0000
N         3.9138    0.5779    0.1328    0.0000   -0.0000   -0.0273
N         1.6368   -3.6259    0.1334    0.0000    0.0000    0.0269
N        -0.2395   -2.0709    0.1309    0.0000    0.0000   -0.0004
N        -1.0120    0.5273    0.1286    0.0000    0.0000    0.0007
N         1.5863    1.2998    0.1304    0.0000    0.0000   -0.0007
N         2.3588   -1.2984    0.1326    0.0000    0.0000    0.0003
N        -0.2900    2.8548    0.1277    0.0000    0.0000    0.0269
N        -2.5670   -1.3489    0.1285    0.0000   -0.0000   -0.0267
C        -2.6308    2.2050    0.1263   -0.0001    0.0000    0.0726
C        -1.2119    1.9066    0.1276    0.0000   -0.0000   -0.0529
C         1.0001    2.5643    0.1290    0.0001   -0.0000   -0.0511
C         2.0252    3.5895    0.1292   -0.0001    0.0001    0.0713
C        -3.3016    0.9663    0.1265    0.0000   -0.0001   -0.0709
C        -2.2764   -0.0588    0.1280   -0.0000    0.0000    0.0508
C        -0.6092   -5.7583    0.1333    0.0000   -0.0000   -0.0134
C        -3.1252   -4.3959    0.1301   -0.0000    0.0000    0.0143
C        -1.8137   -6.4621    0.1328   -0.0000    0.0000    0.0272
C        -4.6993    0.8970    0.1255   -0.0000   -0.0000    0.0134
C        -3.3370    3.4131    0.1250    0.0000   -0.0000   -0.0146
C        -5.4031    2.1016    0.1242    0.0000   -0.0000   -0.0276
C        -3.0557   -5.7893    0.1313    0.0000   -0.0000   -0.0262
C        -1.6188   -2.2708    0.1299   -0.0001    0.0000    0.0521
C        -1.9171   -3.6897    0.1307    0.0001   -0.0000   -0.0718
C         3.2639    2.9186    0.1308    0.0001   -0.0000   -0.0731
C         2.9656    1.4998    0.1315   -0.0001    0.0000    0.0534
C        -4.7303    3.3435    0.1239   -0.0000    0.0000    0.0263
C         3.6232   -0.7123    0.1333   -0.0000    0.0000    0.0519
C         4.6484   -1.7374    0.1346    0.0000   -0.0001   -0.0721
C         2.5587   -2.6777    0.1336    0.0000   -0.0000   -0.0531
C         3.9776   -2.9761    0.1348   -0.0001    0.0000    0.0734
C        -0.6784   -4.3606    0.1322   -0.0001    0.0001    0.0705
C         0.3466   -3.3353    0.1323    0.0001   -0.0000   -0.0508
C         1.9559    4.9872    0.1281    0.0000   -0.0000   -0.0135
C         4.4720    3.6248    0.1315   -0.0000    0.0000    0.0147
C         3.1605    5.6910    0.1287   -0.0000    0.0000    0.0279
C         4.4025    5.0182    0.1304    0.0000   -0.0000   -0.0264
C         6.0461   -1.6681    0.1356   -0.0000   -0.0000    0.0137
C         4.6838   -4.1842    0.1359    0.0000   -0.0000   -0.0147
C         6.7499   -2.8727    0.1368    0.0000   -0.0000   -0.0279
C         6.0771   -4.1146    0.1369   -0.0000    0.0000    0.0268
H         6.5562   -0.7047    0.1355   -0.0001    0.0001    0.1220
H         4.1560   -5.1380    0.1360    0.0001   -0.0001   -0.1162
H         6.6624   -5.0353    0.1378   -0.0000    0.0000   -0.0013
H        -5.2094   -0.0664    0.1257   -0.0001    0.0001    0.1209
H        -2.8092    4.3669    0.1248    0.0001   -0.0001   -0.1140
H        -5.3156    4.2642    0.1229   -0.0000    0.0000   -0.0001
H        -6.4939    2.0893    0.1234    0.0000    0.0000    0.0113
H         0.3542   -6.2683    0.1345    0.0001   -0.0001   -0.1192
H        -4.0791   -3.8681    0.1290   -0.0001    0.0001    0.1134
H        -3.9763   -6.3745    0.1309   -0.0000   -0.0000    0.0011
H        -1.8014   -7.5529    0.1337    0.0000   -0.0000   -0.0101
H         0.9926    5.4972    0.1268    0.0001   -0.0001   -0.1219
H         5.4259    3.0971    0.1328   -0.0001    0.0001    0.1145
H         5.3231    5.6035    0.1309   -0.0000   -0.0000   -0.0004
H         3.1482    6.7818    0.1279    0.0000   -0.0000   -0.0118
H         7.8407   -2.8603    0.1376    0.0000    0.0000    0.0103
    57
stable frequency at    765.964 1/cm IR int. is 4.421 a.m.u.; force const. is 1.528 mDyne/Ang.
Fe        0.6734   -0.3855    0.1306    0.0000    0.0000   -0.0000
N         3.9138    0.5779    0.1328    0.0000   -0.0000   -0.0310
N         1.6368   -3.6259    0.1334   -0.0000    0.0000    0.0198
N        -0.2395   -2.0709    0.1309   -0.0000   -0.0000    0.0295
N        -1.0120    0.5273    0.1286    0.0000    0.0000    0.0047
N         1.5863    1.2998    0.1304    0.0000   -0.0000   -0.0295
N         2.3588   -1.2984    0.1326   -0.0000    0.0000   -0.0047
N        -0.2900    2.8548    0.1277    0.0000   -0.0000   -0.0202
N        -2.5670   -1.3489    0.1285   -0.0000    0.0000    0.0313
C        -2.6308    2.2050    0.1263    0.0001   -0.0000   -0.0877
C        -1.2119    1.9066    0.1276   -0.0000    0.0000    0.0563
C         1.0001    2.5643    0.1290   -0.0000    0.0000    0.0214
C         2.0252    3.5895    0.1292   -0.0000    0.0000    0.0074
C        -3.3016    0.9663    0.1265   -0.0001    0.0001    0.0903
C        -2.2764   -0.0588    0.1280    0.0001   -0.0000   -0.0668
C        -0.6092   -5.7583    0.1333   -0.0000    0.0000   -0.0026
C        -3.1252   -4.3959    0.1301    0.0000   -0.0000   -0.0134
C        -1.8137   -6.4621    0.1328    0.0000   -0.0000   -0.0232
C        -4.6993    0.8970    0.1255    0.0000   -0.0000   -0.0169
C        -3.3370    3.4131    0.1250   -0.0000    0.0000    0.0169
C        -5.4031    2.1016    0.1242   -0.0000    0.0000    0.0341
C        -3.0557   -5.7893    0.1313    0.0000   -0.0000   -0.0027
C        -1.6188   -2.2708    0.1299    0.0000   -0.0000   -0.0549
C        -1.9171   -3.6897    0.1307   -0.0000    0.0000    0.0447
C         3.2639    2.9186    0.1308    0.0000   -0.0000   -0.0434
C         2.9656    1.4998    0.1315   -0.0000    0.0000    0.0540
C        -4.7303    3.3435    0.1239    0.0000   -0.0000   -0.0354
C         3.6232   -0.7123    0.1333   -0.0001    0.0000    0.0663
C         4.6484   -1.7374    0.1346    0.0001   -0.0000   -0.0897
C         2.5587   -2.6777    0.1336    0.0000   -0.0000   -0.0558
C         3.9776   -2.9761    0.1348   -0.0001    0.0000    0.0871
C        -0.6784   -4.3606    0.1322    0.0000   -0.0000   -0.0087
C         0.3466   -3.3353    0.1323    0.0000   -0.0000   -0.0205
C         1.9559    4.9872    0.1281    0.0000   -0.0000    0.0029
C         4.4720    3.6248    0.1315   -0.0000    0.0000    0.0132
C         3.1605    5.6910    0.1287   -0.0000    0.0000    0.0227
C         4.4025    5.0182    0.1304   -0.0000    0.0000    0.0032
C         6.0461   -1.6681    0.1356    0.0000    0.0000    0.0168
C         4.6838   -4.1842    0.1359    0.0000   -0.0000   -0.0168
C         6.7499   -2.8727    0.1368    0.0000   -0.0000   -0.0338
C         6.0771   -4.1146    0.1369   -0.0000    0.0000    0.0351
H         6.5562   -0.7047    0.1355   -0.0001    0.0001    0.1504
H         4.1560   -5.1380    0.1360    0.0001   -0.0001   -0.1514
H         6.6624   -5.0353    0.1378    0.0000   -0.0000   -0.0129
H        -5.2094   -0.0664    0.1257    0.0001   -0.0001   -0.1515
H        -2.8092    4.3669    0.1248   -0.0001    0.0001    0.1525
H        -5.3156    4.2642    0.1229   -0.0000    0.0000    0.0129
H        -6.4939    2.0893    0.1234    0.0000    0.0000   -0.0056
H         0.3542   -6.2683    0.1345   -0.0001    0.0001    0.0983
H        -4.0791   -3.8681    0.1290    0.0000    0.0000    0.0100
H        -3.9763   -6.3745    0.1309   -0.0001    0.0001    0.1058
H        -1.8014   -7.5529    0.1337   -0.0001    0.0001    0.1077
H         0.9926    5.4972    0.1268    0.0001   -0.0001   -0.0961
H         5.4259    3.0971    0.1328   -0.0000   -0.0000   -0.0121
H         5.3231    5.6035    0.1309    0.0001   -0.0001   -0.1058
H         3.1482    6.7818    0.1279    0.0001   -0.0001   -0.1075
H         7.8407   -2.8603    0.1376    0.0000   -0.0000    0.0055
    57
stable frequency at    765.967 1/cm IR int. is 4.422 a.m.u.; force const. is 1.529 mDyne/Ang.
Fe        0.6734   -0.3855    0.1306   -0.0000    0.0000   -0.0000
N         3.9138    0.5779    0.1328    0.0000   -0.0000   -0.0199
N         1.6368   -3.6259    0.1334    0.0000   -0.0000   -0.0312
N        -0.2395   -2.0709    0.1309   -0.0000   -0.0000   -0.0047
N        -1.0120    0.5273    0.1286   -0.0000    0.0000    0.0295
N         1.5863    1.2998    0.1304    0.0000    0.0000    0.0048
N         2.3588   -1.2984    0.1326    0.0000   -0.0000   -0.0294
N        -0.2900    2.8548    0.1277   -0.0000    0.0000    0.0311
N        -2.5670   -1.3489    0.1285   -0.0000    0.0000    0.0202
C        -2.6308    2.2050    0.1263   -0.0001    0.0000    0.0432
C        -1.2119    1.9066    0.1276    0.0000   -0.0000   -0.0540
C         1.0001    2.5643    0.1290    0.0001   -0.0000   -0.0667
C         2.0252    3.5895    0.1292   -0.0001    0.0001    0.0903
C        -3.3016    0.9663    0.1265    0.0000   -0.0000   -0.0072
C        -2.2764   -0.0588    0.1280    0.0000   -0.0000   -0.0215
C        -0.6092   -5.7583    0.1333   -0.0000    0.0000    0.0168
C        -3.1252   -4.3959    0.1301    0.0000   -0.0000   -0.0168
C        -1.8137   -6.4621    0.1328    0.0000   -0.0000   -0.0339
C        -4.6993    0.8970    0.1255   -0.0000   -0.0000   -0.0029
C        -3.3370    3.4131    0.1250    0.0000    0.0000   -0.0131
C        -5.4031    2.1016    0.1242    0.0000   -0.0000   -0.0227
C        -3.0557   -5.7893    0.1313   -0.0000    0.0000    0.0351
C        -1.6188   -2.2708    0.1299    0.0000   -0.0001   -0.0560
C        -1.9171   -3.6897    0.1307   -0.0001    0.0001    0.0872
C         3.2639    2.9186    0.1308    0.0001   -0.0001   -0.0876
C         2.9656    1.4998    0.1315   -0.0000    0.0000    0.0561
C        -4.7303    3.3435    0.1239    0.0000    0.0000   -0.0033
C         3.6232   -0.7123    0.1333   -0.0000    0.0000    0.0203
C         4.6484   -1.7374    0.1346   -0.0000    0.0000    0.0089
C         2.5587   -2.6777    0.1336   -0.0000    0.0000    0.0549
C         3.9776   -2.9761    0.1348    0.0001   -0.0000   -0.0449
C        -0.6784   -4.3606    0.1322    0.0001   -0.0001   -0.0898
C         0.3466   -3.3353    0.1323   -0.0001    0.0000    0.0664
C         1.9559    4.9872    0.1281    0.0000   -0.0000   -0.0169
C         4.4720    3.6248    0.1315   -0.0000    0.0000    0.0169
C         3.1605    5.6910    0.1287   -0.0000    0.0000    0.0340
C         4.4025    5.0182    0.1304    0.0000   -0.0000   -0.0354
C         6.0461   -1.6681    0.1356    0.0000    0.0000    0.0026
C         4.6838   -4.1842    0.1359   -0.0000   -0.0000    0.0134
C         6.7499   -2.8727    0.1368   -0.0000    0.0000    0.0233
C         6.0771   -4.1146    0.1369   -0.0000   -0.0000    0.0026
H         6.5562   -0.7047    0.1355    0.0001   -0.0001   -0.0985
H         4.1560   -5.1380    0.1360    0.0000   -0.0000   -0.0096
H         6.6624   -5.0353    0.1378    0.0001   -0.0001   -0.1056
H        -5.2094   -0.0664    0.1257   -0.0001    0.0001    0.0957
H        -2.8092    4.3669    0.1248   -0.0000    0.0000    0.0125
H        -5.3156    4.2642    0.1229   -0.0001    0.0001    0.1059
H        -6.4939    2.0893    0.1234   -0.0001    0.0001    0.1076
H         0.3542   -6.2683    0.1345   -0.0001    0.0001    0.1506
H        -4.0791   -3.8681    0.1290    0.0002   -0.0001   -0.1516
H        -3.9763   -6.3745    0.1309    0.0000    0.0000   -0.0129
H        -1.8014   -7.5529    0.1337   -0.0000   -0.0000    0.0055
H         0.9926    5.4972    0.1268    0.0001   -0.0001   -0.1512
H         5.4259    3.0971    0.1328   -0.0002    0.0001    0.1525
H         5.3231    5.6035    0.1309   -0.0000   -0.0000    0.0132
H         3.1482    6.7818    0.1279    0.0000    0.0000   -0.0054
H         7.8407   -2.8603    0.1376    0.0001   -0.0001   -0.1076
    57
stable frequency at    766.273 1/cm IR int. is 4.737 a.m.u.; force const. is 1.639 mDyne/Ang.
Fe        0.6734   -0.3855    0.1306    0.0000    0.0000    0.0007
N         3.9138    0.5779    0.1328    0.0000   -0.0000   -0.0037
N         1.6368   -3.6259    0.1334   -0.0000    0.0000   -0.0041
N        -0.2395   -2.0709    0.1309    0.0000   -0.0000   -0.0057
N        -1.0120    0.5273    0.1286   -0.0000   -0.0000   -0.0054
N         1.5863    1.2998    0.1304    0.0000   -0.0000   -0.0055
N         2.3588   -1.2984    0.1326   -0.0000   -0.0000   -0.0058
N        -0.2900    2.8548    0.1277   -0.0000    0.0000   -0.0036
N        -2.5670   -1.3489    0.1285    0.0000   -0.0000   -0.0036
C        -2.6308    2.2050    0.1263   -0.0000    0.0000    0.0741
C        -1.2119    1.9066    0.1276    0.0000   -0.0000   -0.0357
C         1.0001    2.5643    0.1290   -0.0001    0.0000    0.0489
C         2.0252    3.5895    0.1292    0.0001   -0.0001   -0.0797
C        -3.3016    0.9663    0.1265    0.0001   -0.0000   -0.0800
C        -2.2764   -0.0588    0.1280   -0.0001    0.0000    0.0491
C        -0.6092   -5.7583    0.1333   -0.0000    0.0000    0.0161
C        -3.1252   -4.3959    0.1301    0.0000   -0.0000   -0.0140
C        -1.8137   -6.4621    0.1328    0.0000   -0.0000   -0.0284
C        -4.6993    0.8970    0.1255   -0.0000    0.0000    0.0159
C        -3.3370    3.4131    0.1250    0.0000   -0.0000   -0.0139
C        -5.4031    2.1016    0.1242    0.0000   -0.0000   -0.0283
C        -3.0557   -5.7893    0.1313   -0.0000    0.0000    0.0327
C        -1.6188   -2.2708    0.1299    0.0000   -0.0000   -0.0359
C        -1.9171   -3.6897    0.1307   -0.0001    0.0001    0.0747
C         3.2639    2.9186    0.1308   -0.0001    0.0001    0.0737
C         2.9656    1.4998    0.1315    0.0000   -0.0000   -0.0353
C        -4.7303    3.3435    0.1239   -0.0000    0.0000    0.0323
C         3.6232   -0.7123    0.1333   -0.0001    0.0000    0.0490
C         4.6484   -1.7374    0.1346    0.0001   -0.0000   -0.0795
C         2.5587   -2.6777    0.1336    0.0000   -0.0000   -0.0347
C         3.9776   -2.9761    0.1348   -0.0000    0.0000    0.0732
C        -0.6784   -4.3606    0.1322    0.0001   -0.0001   -0.0809
C         0.3466   -3.3353    0.1323   -0.0000    0.0000    0.0499
C         1.9559    4.9872    0.1281   -0.0000    0.0000    0.0159
C         4.4720    3.6248    0.1315    0.0000   -0.0000   -0.0138
C         3.1605    5.6910    0.1287    0.0000   -0.0000   -0.0281
C         4.4025    5.0182    0.1304   -0.0000    0.0000    0.0322
C         6.0461   -1.6681    0.1356   -0.0000    0.0000    0.0159
C         4.6838   -4.1842    0.1359    0.0000   -0.0000   -0.0137
C         6.7499   -2.8727    0.1368    0.0000   -0.0000   -0.0278
C         6.0771   -4.1146    0.1369   -0.0000    0.0000    0.0322
H         6.5562   -0.7047    0.1355   -0.0001    0.0001    0.1221
H         4.1560   -5.1380    0.1360    0.0001   -0.0001   -0.1371
H         6.6624   -5.0353    0.1378    0.0000   -0.0000   -0.0247
H        -5.2094   -0.0664    0.1257   -0.0001    0.0001    0.1240
H        -2.8092    4.3669    0.1248    0.0001   -0.0001   -0.1376
H        -5.3156    4.2642    0.1229    0.0000   -0.0000   -0.0234
H        -6.4939    2.0893    0.1234   -0.0000   -0.0000   -0.0084
H         0.3542   -6.2683    0.1345   -0.0001    0.0001    0.1248
H        -4.0791   -3.8681    0.1290    0.0001   -0.0001   -0.1393
H        -3.9763   -6.3745    0.1309    0.0000   -0.0000   -0.0244
H        -1.8014   -7.5529    0.1337    0.0000   -0.0000   -0.0092
H         0.9926    5.4972    0.1268   -0.0001    0.0001    0.1231
H         5.4259    3.0971    0.1328    0.0001   -0.0001   -0.1371
H         5.3231    5.6035    0.1309    0.0000   -0.0000   -0.0238
H         3.1482    6.7818    0.1279    0.0000   -0.0000   -0.0089
H         7.8407   -2.8603    0.1376   -0.0000   -0.0000   -0.0098
    57
stable frequency at    769.268 1/cm IR int. is 3.002 a.m.u.; force const. is 1.047 mDyne/Ang.
Fe        0.6734   -0.3855    0.1306   -0.0000   -0.0000    0.0063
N         3.9138    0.5779    0.1328    0.0000   -0.0000   -0.0336
N         1.6368   -3.6259    0.1334    0.0000    0.0000   -0.0336
N        -0.2395   -2.0709    0.1309    0.0001    0.0000   -0.0496
N        -1.0120    0.5273    0.1286    0.0000   -0.0000   -0.0496
N         1.5863    1.2998    0.1304    0.0001    0.0000   -0.0496
N         2.3588   -1.2984    0.1326    0.0000   -0.0000   -0.0496
N        -0.2900    2.8548    0.1277    0.0000    0.0000   -0.0336
N        -2.5670   -1.3489    0.1285    0.0000   -0.0000   -0.0336
C        -2.6308    2.2050    0.1263    0.0001   -0.0000   -0.0375
C        -1.2119    1.9066    0.1276   -0.0000    0.0000    0.0670
C         1.0001    2.5643    0.1290   -0.0000    0.0001    0.0578
C         2.0252    3.5895    0.1292    0.0000   -0.0000   -0.0209
C        -3.3016    0.9663    0.1265    0.0000   -0.0000   -0.0208
C        -2.2764   -0.0588    0.1280   -0.0001    0.0000    0.0577
C        -0.6092   -5.7583    0.1333    0.0000   -0.0000    0.0101
C        -3.1252   -4.3959    0.1301   -0.0001    0.0000    0.0134
C        -1.8137   -6.4621    0.1328   -0.0000   -0.0000    0.0236
C        -4.6993    0.8970    0.1255   -0.0000   -0.0000    0.0101
C        -3.3370    3.4131    0.1250   -0.0000   -0.0000    0.0134
C        -5.4031    2.1016    0.1242   -0.0000    0.0000    0.0236
C        -3.0557   -5.7893    0.1313   -0.0000    0.0000    0.0176
C        -1.6188   -2.2708    0.1299   -0.0000    0.0001    0.0670
C        -1.9171   -3.6897    0.1307    0.0000   -0.0000   -0.0374
C         3.2639    2.9186    0.1308    0.0000   -0.0000   -0.0374
C         2.9656    1.4998    0.1315   -0.0000    0.0001    0.0670
C        -4.7303    3.3435    0.1239   -0.0000    0.0000    0.0176
C         3.6232   -0.7123    0.1333   -0.0001    0.0000    0.0578
C         4.6484   -1.7374    0.1346    0.0000   -0.0000   -0.0209
C         2.5587   -2.6777    0.1336   -0.0000    0.0000    0.0670
C         3.9776   -2.9761    0.1348    0.0000   -0.0000   -0.0374
C        -0.6784   -4.3606    0.1322    0.0000   -0.0000   -0.0209
C         0.3466   -3.3353    0.1323   -0.0000    0.0001    0.0577
C         1.9559    4.9872    0.1281    0.0000   -0.0001    0.0101
C         4.4720    3.6248    0.1315   -0.0001    0.0000    0.0134
C         3.1605    5.6910    0.1287   -0.0000   -0.0000    0.0236
C         4.4025    5.0182    0.1304   -0.0000    0.0000    0.0176
C         6.0461   -1.6681    0.1356   -0.0000   -0.0000    0.0101
C         4.6838   -4.1842    0.1359   -0.0000   -0.0000    0.0134
C         6.7499   -2.8727    0.1368   -0.0000    0.0000    0.0236
C         6.0771   -4.1146    0.1369   -0.0000    0.0000    0.0176
H         6.5562   -0.7047    0.1355    0.0001   -0.0001   -0.0928
H         4.1560   -5.1380    0.1360    0.0001   -0.0001   -0.0661
H         6.6624   -5.0353    0.1378    0.0001   -0.0001   -0.1681
H        -5.2094   -0.0664    0.1257    0.0001   -0.0001   -0.0929
H        -2.8092    4.3669    0.1248    0.0001   -0.0001   -0.0661
H        -5.3156    4.2642    0.1229    0.0001   -0.0001   -0.1681
H        -6.4939    2.0893    0.1234    0.0001   -0.0001   -0.1662
H         0.3542   -6.2683    0.1345    0.0001   -0.0001   -0.0927
H        -4.0791   -3.8681    0.1290   -0.0000   -0.0001   -0.0661
H        -3.9763   -6.3745    0.1309    0.0002   -0.0002   -0.1681
H        -1.8014   -7.5529    0.1337    0.0001   -0.0002   -0.1661
H         0.9926    5.4972    0.1268    0.0001   -0.0001   -0.0928
H         5.4259    3.0971    0.1328   -0.0001   -0.0001   -0.0662
H         5.3231    5.6035    0.1309    0.0002   -0.0002   -0.1682
H         3.1482    6.7818    0.1279    0.0001   -0.0002   -0.1662
H         7.8407   -2.8603    0.1376    0.0001   -0.0001   -0.1662
    57
stable frequency at    779.735 1/cm IR int. is 6.394 a.m.u.; force const. is 2.290 mDyne/Ang.
Fe        0.6734   -0.3855    0.1306   -0.0000    0.0000   -0.0000
N         3.9138    0.5779    0.1328   -0.0009    0.0039    0.0000
N         1.6368   -3.6259    0.1334   -0.0039   -0.0009   -0.0000
N        -0.2395   -2.0709    0.1309   -0.0326   -0.0603   -0.0000
N        -1.0120    0.5273    0.1286    0.0603   -0.0326    0.0001
N         1.5863    1.2998    0.1304    0.0326    0.0603    0.0000
N         2.3588   -1.2984    0.1326   -0.0603    0.0326   -0.0001
N        -0.2900    2.8548    0.1277    0.0039    0.0009    0.0000
N        -2.5670   -1.3489    0.1285    0.0009   -0.0039   -0.0000
C        -2.6308    2.2050    0.1263   -0.0041    0.0190   -0.0000
C        -1.2119    1.9066    0.1276    0.0281   -0.0225    0.0000
C         1.0001    2.5643    0.1290    0.0119    0.0349   -0.0000
C         2.0252    3.5895    0.1292    0.0087   -0.0181   -0.0000
C        -3.3016    0.9663    0.1265   -0.0181   -0.0087    0.0000
C        -2.2764   -0.0588    0.1280    0.0349   -0.0119    0.0000
C        -0.6092   -5.7583    0.1333   -0.0419    0.0561   -0.0001
C        -3.1252   -4.3959    0.1301    0.0698   -0.0039    0.0001
C        -1.8137   -6.4621    0.1328   -0.0045    0.0115    0.0000
C        -4.6993    0.8970    0.1255   -0.0561   -0.0419   -0.0000
C        -3.3370    3.4131    0.1250    0.0039    0.0698   -0.0001
C        -5.4031    2.1016    0.1242   -0.0115   -0.0045   -0.0000
C        -3.0557   -5.7893    0.1313    0.0135    0.0028    0.0000
C        -1.6188   -2.2708    0.1299   -0.0225   -0.0281    0.0001
C        -1.9171   -3.6897    0.1307    0.0190    0.0041   -0.0001
C         3.2639    2.9186    0.1308   -0.0190   -0.0041    0.0001
C         2.9656    1.4998    0.1315    0.0225    0.0281   -0.0001
C        -4.7303    3.3435    0.1239   -0.0028    0.0135   -0.0000
C         3.6232   -0.7123    0.1333   -0.0349    0.0119   -0.0000
C         4.6484   -1.7374    0.1346    0.0181    0.0087   -0.0000
C         2.5587   -2.6777    0.1336   -0.0281    0.0225   -0.0000
C         3.9776   -2.9761    0.1348    0.0041   -0.0190    0.0000
C        -0.6784   -4.3606    0.1322   -0.0087    0.0181    0.0000
C         0.3466   -3.3353    0.1323   -0.0119   -0.0349    0.0000
C         1.9559    4.9872    0.1281    0.0419   -0.0561    0.0001
C         4.4720    3.6248    0.1315   -0.0698    0.0039   -0.0001
C         3.1605    5.6910    0.1287    0.0045   -0.0115   -0.0000
C         4.4025    5.0182    0.1304   -0.0135   -0.0028   -0.0000
C         6.0461   -1.6681    0.1356    0.0561    0.0419    0.0000
C         4.6838   -4.1842    0.1359   -0.0039   -0.0698    0.0000
C         6.7499   -2.8727    0.1368    0.0115    0.0045    0.0000
C         6.0771   -4.1146    0.1369    0.0028   -0.0135    0.0000
H         6.5562   -0.7047    0.1355    0.0820    0.0299   -0.0000
H         4.1560   -5.1380    0.1360    0.0218   -0.0862   -0.0000
H         6.6624   -5.0353    0.1378    0.0493    0.0143   -0.0001
H        -5.2094   -0.0664    0.1257   -0.0820   -0.0299    0.0000
H        -2.8092    4.3669    0.1248   -0.0218    0.0862    0.0000
H        -5.3156    4.2642    0.1229   -0.0493   -0.0143    0.0001
H        -6.4939    2.0893    0.1234   -0.0137    0.0496    0.0001
H         0.3542   -6.2683    0.1345   -0.0299    0.0820   -0.0002
H        -4.0791   -3.8681    0.1290    0.0862    0.0218   -0.0000
H        -3.9763   -6.3745    0.1309   -0.0143    0.0493   -0.0003
H        -1.8014   -7.5529    0.1337    0.0496    0.0137   -0.0001
H         0.9926    5.4972    0.1268    0.0299   -0.0820    0.0002
H         5.4259    3.0971    0.1328   -0.0862   -0.0218    0.0000
H         5.3231    5.6035    0.1309    0.0143   -0.0493    0.0003
H         3.1482    6.7818    0.1279   -0.0496   -0.0137    0.0002
H         7.8407   -2.8603    0.1376    0.0137   -0.0496   -0.0001
    57
stable frequency at    796.056 1/cm IR int. is 6.368 a.m.u.; force const. is 2.377 mDyne/Ang.
Fe        0.6734   -0.3855    0.1306   -0.0090    0.0058   -0.0000
N         3.9138    0.5779    0.1328   -0.0106   -0.0359    0.0000
N         1.6368   -3.6259    0.1334    0.0209    0.0286   -0.0000
N        -0.2395   -2.0709    0.1309   -0.0101   -0.0016   -0.0000
N        -1.0120    0.5273    0.1286    0.0707   -0.0366    0.0001
N         1.5863    1.2998    0.1304   -0.0101   -0.0016   -0.0000
N         2.3588   -1.2984    0.1326    0.0707   -0.0366    0.0001
N        -0.2900    2.8548    0.1277    0.0209    0.0286   -0.0000
N        -2.5670   -1.3489    0.1285   -0.0106   -0.0359    0.0000
C        -2.6308    2.2050    0.1263    0.0068    0.0251   -0.0000
C        -1.2119    1.9066    0.1276    0.0435   -0.0063    0.0000
C         1.0001    2.5643    0.1290    0.0138    0.0062    0.0000
C         2.0252    3.5895    0.1292   -0.0239    0.0084   -0.0000
C        -3.3016    0.9663    0.1265   -0.0163   -0.0185    0.0000
C        -2.2764   -0.0588    0.1280    0.0320   -0.0355    0.0000
C        -0.6092   -5.7583    0.1333   -0.0291    0.0061   -0.0000
C        -3.1252   -4.3959    0.1301   -0.0072    0.0202   -0.0000
C        -1.8137   -6.4621    0.1328    0.0023   -0.0420    0.0000
C        -4.6993    0.8970    0.1255   -0.0682   -0.0479   -0.0000
C        -3.3370    3.4131    0.1250    0.0053    0.0849   -0.0001
C        -5.4031    2.1016    0.1242   -0.0193   -0.0048   -0.0000
C        -3.0557   -5.7893    0.1313    0.0390    0.0216    0.0000
C        -1.6188   -2.2708    0.1299   -0.0002   -0.0211    0.0000
C        -1.9171   -3.6897    0.1307   -0.0160    0.0154   -0.0000
C         3.2639    2.9186    0.1308   -0.0160    0.0154   -0.0000
C         2.9656    1.4998    0.1315   -0.0002   -0.0211    0.0000
C        -4.7303    3.3435    0.1239   -0.0035    0.0146   -0.0000
C         3.6232   -0.7123    0.1333    0.0320   -0.0355    0.0000
C         4.6484   -1.7374    0.1346   -0.0163   -0.0185    0.0000
C         2.5587   -2.6777    0.1336    0.0435   -0.0063    0.0000
C         3.9776   -2.9761    0.1348    0.0068    0.0251   -0.0000
C        -0.6784   -4.3606    0.1322   -0.0239    0.0084   -0.0000
C         0.3466   -3.3353    0.1323    0.0138    0.0062    0.0000
C         1.9559    4.9872    0.1281   -0.0291    0.0061   -0.0000
C         4.4720    3.6248    0.1315   -0.0072    0.0202   -0.0000
C         3.1605    5.6910    0.1287    0.0023   -0.0420    0.0001
C         4.4025    5.0182    0.1304    0.0390    0.0216    0.0000
C         6.0461   -1.6681    0.1356   -0.0682   -0.0479   -0.0000
C         4.6838   -4.1842    0.1359    0.0053    0.0849   -0.0000
C         6.7499   -2.8727    0.1368   -0.0193   -0.0048   -0.0000
C         6.0771   -4.1146    0.1369   -0.0035    0.0146   -0.0000
H         6.5562   -0.7047    0.1355   -0.1045   -0.0312   -0.0001
H         4.1560   -5.1380    0.1360   -0.0365    0.1108   -0.0000
H         6.6624   -5.0353    0.1378   -0.0576   -0.0174   -0.0000
H        -5.2094   -0.0664    0.1257   -0.1045   -0.0312   -0.0001
H        -2.8092    4.3669    0.1248   -0.0365    0.1108   -0.0000
H        -5.3156    4.2642    0.1229   -0.0576   -0.0174    0.0000
H        -6.4939    2.0893    0.1234   -0.0220    0.0616    0.0000
H         0.3542   -6.2683    0.1345   -0.0039    0.0531   -0.0001
H        -4.0791   -3.8681    0.1290   -0.0295   -0.0216   -0.0000
H        -3.9763   -6.3745    0.1309    0.0245    0.0444    0.0000
H        -1.8014   -7.5529    0.1337   -0.0158   -0.0420   -0.0001
H         0.9926    5.4972    0.1268   -0.0039    0.0531   -0.0001
H         5.4259    3.0971    0.1328   -0.0295   -0.0216   -0.0000
H         5.3231    5.6035    0.1309    0.0245    0.0444    0.0000
H         3.1482    6.7818    0.1279   -0.0158   -0.0420   -0.0001
H         7.8407   -2.8603    0.1376   -0.0220    0.0616   -0.0000
    57
stable frequency at    796.056 1/cm IR int. is 6.368 a.m.u.; force const. is 2.377 mDyne/Ang.
Fe        0.6734   -0.3855    0.1306   -0.0058   -0.0090   -0.0000
N         3.9138    0.5779    0.1328   -0.0286    0.0209   -0.0000
N         1.6368   -3.6259    0.1334    0.0359   -0.0106    0.0000
N        -0.2395   -2.0709    0.1309    0.0366    0.0707   -0.0000
N        -1.0120    0.5273    0.1286    0.0016   -0.0101    0.0000
N         1.5863    1.2998    0.1304    0.0366    0.0707   -0.0000
N         2.3588   -1.2984    0.1326    0.0016   -0.0101    0.0000
N        -0.2900    2.8548    0.1277    0.0359   -0.0106    0.0000
N        -2.5670   -1.3489    0.1285   -0.0286    0.0209   -0.0000
C        -2.6308    2.2050    0.1263   -0.0154   -0.0160    0.0000
C        -1.2119    1.9066    0.1276    0.0211   -0.0002   -0.0000
C         1.0001    2.5643    0.1290    0.0355    0.0320    0.0000
C         2.0252    3.5895    0.1292    0.0185   -0.0163   -0.0000
C        -3.3016    0.9663    0.1265   -0.0084   -0.0239    0.0001
C        -2.2764   -0.0588    0.1280   -0.0062    0.0138   -0.0001
C        -0.6092   -5.7583    0.1333    0.0479   -0.0682    0.0001
C        -3.1252   -4.3959    0.1301   -0.0849    0.0053   -0.0001
C        -1.8137   -6.4621    0.1328    0.0048   -0.0193   -0.0000
C        -4.6993    0.8970    0.1255   -0.0061   -0.0291   -0.0000
C        -3.3370    3.4131    0.1250   -0.0202   -0.0072   -0.0000
C        -5.4031    2.1016    0.1242    0.0420    0.0023   -0.0000
C        -3.0557   -5.7893    0.1313   -0.0146   -0.0035   -0.0000
C        -1.6188   -2.2708    0.1299    0.0063    0.0435   -0.0001
C        -1.9171   -3.6897    0.1307   -0.0251    0.0068    0.0000
C         3.2639    2.9186    0.1308   -0.0251    0.0068    0.0000
C         2.9656    1.4998    0.1315    0.0063    0.0435   -0.0001
C        -4.7303    3.3435    0.1239   -0.0216    0.0390   -0.0001
C         3.6232   -0.7123    0.1333   -0.0062    0.0138   -0.0000
C         4.6484   -1.7374    0.1346   -0.0084   -0.0239    0.0000
C         2.5587   -2.6777    0.1336    0.0211   -0.0002   -0.0000
C         3.9776   -2.9761    0.1348   -0.0154   -0.0160    0.0000
C        -0.6784   -4.3606    0.1322    0.0185   -0.0163   -0.0000
C         0.3466   -3.3353    0.1323    0.0355    0.0320    0.0000
C         1.9559    4.9872    0.1281    0.0479   -0.0682    0.0001
C         4.4720    3.6248    0.1315   -0.0849    0.0053   -0.0001
C         3.1605    5.6910    0.1287    0.0048   -0.0193   -0.0000
C         4.4025    5.0182    0.1304   -0.0146   -0.0035   -0.0000
C         6.0461   -1.6681    0.1356   -0.0061   -0.0291   -0.0000
C         4.6838   -4.1842    0.1359   -0.0202   -0.0072   -0.0000
C         6.7499   -2.8727    0.1368    0.0420    0.0023   -0.0000
C         6.0771   -4.1146    0.1369   -0.0216    0.0390   -0.0000
H         6.5562   -0.7047    0.1355   -0.0531   -0.0039    0.0002
H         4.1560   -5.1380    0.1360    0.0216   -0.0295    0.0002
H         6.6624   -5.0353    0.1378   -0.0444    0.0245    0.0001
H        -5.2094   -0.0664    0.1257   -0.0531   -0.0039    0.0002
H        -2.8092    4.3669    0.1248    0.0216   -0.0295    0.0002
H        -5.3156    4.2642    0.1229   -0.0444    0.0245    0.0001
H        -6.4939    2.0893    0.1234    0.0420   -0.0158    0.0004
H         0.3542   -6.2683    0.1345    0.0312   -0.1045    0.0001
H        -4.0791   -3.8681    0.1290   -0.1108   -0.0365    0.0000
H        -3.9763   -6.3745    0.1309    0.0174   -0.0576    0.0002
H        -1.8014   -7.5529    0.1337   -0.0616   -0.0220    0.0001
H         0.9926    5.4972    0.1268    0.0312   -0.1045    0.0001
H         5.4259    3.0971    0.1328   -0.1108   -0.0365    0.0000
H         5.3231    5.6035    0.1309    0.0174   -0.0576    0.0002
H         3.1482    6.7818    0.1279   -0.0616   -0.0220    0.0001
H         7.8407   -2.8603    0.1376    0.0420   -0.0158    0.0003
    57
stable frequency at    827.353 1/cm IR int. is 7.765 a.m.u.; force const. is 3.132 mDyne/Ang.
Fe        0.6734   -0.3855    0.1306    0.0000    0.0000   -0.0000
N         3.9138    0.5779    0.1328    0.0478    0.0155    0.0000
N         1.6368   -3.6259    0.1334    0.0155   -0.0478    0.0000
N        -0.2395   -2.0709    0.1309    0.0388    0.0742   -0.0000
N        -1.0120    0.5273    0.1286    0.0742   -0.0388    0.0001
N         1.5863    1.2998    0.1304   -0.0388   -0.0742    0.0000
N         2.3588   -1.2984    0.1326   -0.0742    0.0388   -0.0001
N        -0.2900    2.8548    0.1277   -0.0155    0.0478   -0.0000
N        -2.5670   -1.3489    0.1285   -0.0478   -0.0155   -0.0000
C        -2.6308    2.2050    0.1263    0.0089    0.0106   -0.0000
C        -1.2119    1.9066    0.1276    0.0275   -0.0127    0.0000
C         1.0001    2.5643    0.1290   -0.0183   -0.0282   -0.0000
C         2.0252    3.5895    0.1292   -0.0131    0.0030    0.0000
C        -3.3016    0.9663    0.1265   -0.0030   -0.0131    0.0000
C        -2.2764   -0.0588    0.1280    0.0282   -0.0183    0.0000
C        -0.6092   -5.7583    0.1333    0.0288   -0.0434    0.0001
C        -3.1252   -4.3959    0.1301   -0.0535    0.0022   -0.0001
C        -1.8137   -6.4621    0.1328    0.0027   -0.0175    0.0000
C        -4.6993    0.8970    0.1255   -0.0434   -0.0288   -0.0000
C        -3.3370    3.4131    0.1250    0.0022    0.0535   -0.0000
C        -5.4031    2.1016    0.1242   -0.0175   -0.0027   -0.0000
C        -3.0557   -5.7893    0.1313   -0.0132   -0.0050   -0.0000
C        -1.6188   -2.2708    0.1299    0.0127    0.0275   -0.0000
C        -1.9171   -3.6897    0.1307   -0.0106    0.0089    0.0000
C         3.2639    2.9186    0.1308    0.0106   -0.0089   -0.0000
C         2.9656    1.4998    0.1315   -0.0127   -0.0275    0.0000
C        -4.7303    3.3435    0.1239   -0.0050    0.0132   -0.0000
C         3.6232   -0.7123    0.1333   -0.0282    0.0183   -0.0000
C         4.6484   -1.7374    0.1346    0.0030    0.0131   -0.0000
C         2.5587   -2.6777    0.1336   -0.0275    0.0127   -0.0000
C         3.9776   -2.9761    0.1348   -0.0089   -0.0106    0.0000
C        -0.6784   -4.3606    0.1322    0.0131   -0.0030   -0.0000
C         0.3466   -3.3353    0.1323    0.0183    0.0282    0.0000
C         1.9559    4.9872    0.1281   -0.0288    0.0434   -0.0001
C         4.4720    3.6248    0.1315    0.0535   -0.0022    0.0001
C         3.1605    5.6910    0.1287   -0.0027    0.0175   -0.0000
C         4.4025    5.0182    0.1304    0.0132    0.0050    0.0000
C         6.0461   -1.6681    0.1356    0.0434    0.0288    0.0000
C         4.6838   -4.1842    0.1359   -0.0022   -0.0535    0.0000
C         6.7499   -2.8727    0.1368    0.0175    0.0027    0.0000
C         6.0771   -4.1146    0.1369    0.0050   -0.0132    0.0000
H         6.5562   -0.7047    0.1355    0.0697    0.0167   -0.0000
H         4.1560   -5.1380    0.1360    0.0278   -0.0721    0.0000
H         6.6624   -5.0353    0.1378    0.0364    0.0050    0.0000
H        -5.2094   -0.0664    0.1257   -0.0697   -0.0167    0.0000
H        -2.8092    4.3669    0.1248   -0.0278    0.0721   -0.0000
H        -5.3156    4.2642    0.1229   -0.0364   -0.0050   -0.0000
H        -6.4939    2.0893    0.1234   -0.0195    0.0363    0.0000
H         0.3542   -6.2683    0.1345    0.0167   -0.0697   -0.0000
H        -4.0791   -3.8681    0.1290   -0.0721   -0.0278    0.0001
H        -3.9763   -6.3745    0.1309    0.0050   -0.0364    0.0001
H        -1.8014   -7.5529    0.1337   -0.0363   -0.0195    0.0000
H         0.9926    5.4972    0.1268   -0.0167    0.0697   -0.0000
H         5.4259    3.0971    0.1328    0.0721    0.0278   -0.0001
H         5.3231    5.6035    0.1309   -0.0050    0.0364   -0.0001
H         3.1482    6.7818    0.1279    0.0363    0.0195   -0.0000
H         7.8407   -2.8603    0.1376    0.0195   -0.0363   -0.0000
    57
stable frequency at    851.153 1/cm IR int. is 7.064 a.m.u.; force const. is 3.015 mDyne/Ang.
Fe        0.6734   -0.3855    0.1306    0.0000    0.0000    0.0000
N         3.9138    0.5779    0.1328   -0.0129    0.0385   -0.0000
N         1.6368   -3.6259    0.1334    0.0385    0.0129    0.0000
N        -0.2395   -2.0709    0.1309   -0.0288    0.0126   -0.0000
N        -1.0120    0.5273    0.1286    0.0126    0.0288   -0.0000
N         1.5863    1.2998    0.1304    0.0288   -0.0126    0.0000
N         2.3588   -1.2984    0.1326   -0.0126   -0.0288    0.0000
N        -0.2900    2.8548    0.1277   -0.0385   -0.0129   -0.0000
N        -2.5670   -1.3489    0.1285    0.0129   -0.0385    0.0000
C        -2.6308    2.2050    0.1263   -0.0009    0.0200    0.0001
C        -1.2119    1.9066    0.1276   -0.0472    0.0129   -0.0001
C         1.0001    2.5643    0.1290   -0.0317   -0.0350   -0.0000
C         2.0252    3.5895    0.1292    0.0109   -0.0180    0.0001
C        -3.3016    0.9663    0.1265    0.0180    0.0109   -0.0001
C        -2.2764   -0.0588    0.1280    0.0350   -0.0317    0.0001
C        -0.6092   -5.7583    0.1333   -0.0392    0.0067    0.0000
C        -3.1252   -4.3959    0.1301   -0.0230    0.0288   -0.0001
C        -1.8137   -6.4621    0.1328    0.0006   -0.0624    0.0001
C        -4.6993    0.8970    0.1255    0.0067    0.0392    0.0002
C        -3.3370    3.4131    0.1250    0.0288    0.0230   -0.0001
C        -5.4031    2.1016    0.1242   -0.0624   -0.0005    0.0001
C        -3.0557   -5.7893    0.1313    0.0538    0.0339   -0.0000
C        -1.6188   -2.2708    0.1299   -0.0129   -0.0472   -0.0000
C        -1.9171   -3.6897    0.1307   -0.0200   -0.0009    0.0000
C         3.2639    2.9186    0.1308    0.0200    0.0009   -0.0001
C         2.9656    1.4998    0.1315    0.0129    0.0472    0.0000
C        -4.7303    3.3435    0.1239    0.0339   -0.0538   -0.0000
C         3.6232   -0.7123    0.1333   -0.0350    0.0317   -0.0001
C         4.6484   -1.7374    0.1346   -0.0180   -0.0109    0.0001
C         2.5587   -2.6777    0.1336    0.0472   -0.0129    0.0001
C         3.9776   -2.9761    0.1348    0.0009   -0.0200   -0.0001
C        -0.6784   -4.3606    0.1322   -0.0109    0.0180   -0.0001
C         0.3466   -3.3353    0.1323    0.0317    0.0350    0.0000
C         1.9559    4.9872    0.1281    0.0392   -0.0067   -0.0001
C         4.4720    3.6248    0.1315    0.0230   -0.0288    0.0001
C         3.1605    5.6910    0.1287   -0.0006    0.0624   -0.0001
C         4.4025    5.0182    0.1304   -0.0538   -0.0339    0.0000
C         6.0461   -1.6681    0.1356   -0.0067   -0.0392   -0.0001
C         4.6838   -4.1842    0.1359   -0.0288   -0.0230    0.0001
C         6.7499   -2.8727    0.1368    0.0624    0.0006   -0.0000
C         6.0771   -4.1146    0.1369   -0.0339    0.0538    0.0000
H         6.5562   -0.7047    0.1355   -0.0562   -0.0122    0.0008
H         4.1560   -5.1380    0.1360    0.0212   -0.0496   -0.0004
H         6.6624   -5.0353    0.1378   -0.0622    0.0358   -0.0005
H        -5.2094   -0.0664    0.1257    0.0562    0.0122   -0.0010
H        -2.8092    4.3669    0.1248   -0.0212    0.0496    0.0005
H        -5.3156    4.2642    0.1229    0.0622   -0.0358    0.0006
H        -6.4939    2.0893    0.1234   -0.0628    0.0330   -0.0008
H         0.3542   -6.2683    0.1345   -0.0122    0.0562   -0.0005
H        -4.0791   -3.8681    0.1290   -0.0496   -0.0212    0.0004
H        -3.9763   -6.3745    0.1309    0.0358    0.0622    0.0003
H        -1.8014   -7.5529    0.1337   -0.0330   -0.0628   -0.0004
H         0.9926    5.4972    0.1268    0.0122   -0.0562    0.0006
H         5.4259    3.0971    0.1328    0.0496    0.0212   -0.0005
H         5.3231    5.6035    0.1309   -0.0358   -0.0622   -0.0004
H         3.1482    6.7818    0.1279    0.0330    0.0628    0.0005
H         7.8407   -2.8603    0.1376    0.0628   -0.0330    0.0007
    57
stable frequency at    856.242 1/cm IR int. is 1.458 a.m.u.; force const. is 0.630 mDyne/Ang.
Fe        0.6734   -0.3855    0.1306   -0.0000    0.0000   -0.0000
N         3.9138    0.5779    0.1328   -0.0000    0.0000   -0.0000
N         1.6368   -3.6259    0.1334   -0.0000    0.0000    0.0001
N        -0.2395   -2.0709    0.1309    0.0000   -0.0000    0.0001
N        -1.0120    0.5273    0.1286    0.0000   -0.0000    0.0001
N         1.5863    1.2998    0.1304    0.0000   -0.0000    0.0001
N         2.3588   -1.2984    0.1326    0.0000   -0.0000    0.0001
N        -0.2900    2.8548    0.1277   -0.0000    0.0000    0.0001
N        -2.5670   -1.3489    0.1285    0.0000    0.0000   -0.0000
C        -2.6308    2.2050    0.1263    0.0000   -0.0000   -0.0283
C        -1.2119    1.9066    0.1276    0.0000    0.0000    0.0151
C         1.0001    2.5643    0.1290    0.0000   -0.0000   -0.0155
C         2.0252    3.5895    0.1292   -0.0000    0.0000    0.0292
C        -3.3016    0.9663    0.1265   -0.0000    0.0000    0.0287
C        -2.2764   -0.0588    0.1280   -0.0000   -0.0000   -0.0152
C        -0.6092   -5.7583    0.1333    0.0000   -0.0000   -0.0436
C        -3.1252   -4.3959    0.1301   -0.0000    0.0000    0.0430
C        -1.8137   -6.4621    0.1328    0.0000   -0.0000   -0.0250
C        -4.6993    0.8970    0.1255    0.0000   -0.0001   -0.0426
C        -3.3370    3.4131    0.1250   -0.0000    0.0000    0.0420
C        -5.4031    2.1016    0.1242    0.0000   -0.0000   -0.0244
C        -3.0557   -5.7893    0.1313   -0.0000    0.0000    0.0248
C        -1.6188   -2.2708    0.1299   -0.0000    0.0000    0.0154
C        -1.9171   -3.6897    0.1307    0.0000   -0.0000   -0.0289
C         3.2639    2.9186    0.1308    0.0000   -0.0000   -0.0288
C         2.9656    1.4998    0.1315   -0.0000    0.0000    0.0154
C        -4.7303    3.3435    0.1239   -0.0000    0.0000    0.0242
C         3.6232   -0.7123    0.1333   -0.0000   -0.0000   -0.0152
C         4.6484   -1.7374    0.1346   -0.0000    0.0000    0.0287
C         2.5587   -2.6777    0.1336    0.0000    0.0000    0.0151
C         3.9776   -2.9761    0.1348    0.0000   -0.0000   -0.0284
C        -0.6784   -4.3606    0.1322   -0.0000    0.0000    0.0292
C         0.3466   -3.3353    0.1323    0.0000   -0.0000   -0.0155
C         1.9559    4.9872    0.1281    0.0000   -0.0000   -0.0436
C         4.4720    3.6248    0.1315   -0.0000    0.0000    0.0430
C         3.1605    5.6910    0.1287    0.0000   -0.0000   -0.0250
C         4.4025    5.0182    0.1304   -0.0000    0.0000    0.0248
C         6.0461   -1.6681    0.1356    0.0000   -0.0000   -0.0428
C         4.6838   -4.1842    0.1359   -0.0000    0.0000    0.0422
C         6.7499   -2.8727    0.1368    0.0000   -0.0000   -0.0245
C         6.0771   -4.1146    0.1369   -0.0000    0.0000    0.0243
H         6.5562   -0.7047    0.1355   -0.0002    0.0001    0.2430
H         4.1560   -5.1380    0.1360    0.0002   -0.0001   -0.2391
H         6.6624   -5.0353    0.1378    0.0001   -0.0001   -0.1496
H        -5.2094   -0.0664    0.1257   -0.0002    0.0001    0.2422
H        -2.8092    4.3669    0.1248    0.0002   -0.0002   -0.2383
H        -5.3156    4.2642    0.1229    0.0001   -0.0001   -0.1491
H        -6.4939    2.0893    0.1234   -0.0001    0.0001    0.1510
H         0.3542   -6.2683    0.1345   -0.0002    0.0002    0.2478
H        -4.0791   -3.8681    0.1290    0.0002   -0.0002   -0.2438
H        -3.9763   -6.3745    0.1309    0.0002   -0.0001   -0.1526
H        -1.8014   -7.5529    0.1337   -0.0001    0.0001    0.1545
H         0.9926    5.4972    0.1268   -0.0002    0.0002    0.2478
H         5.4259    3.0971    0.1328    0.0002   -0.0002   -0.2437
H         5.3231    5.6035    0.1309    0.0002   -0.0001   -0.1526
H         3.1482    6.7818    0.1279   -0.0001    0.0001    0.1545
H         7.8407   -2.8603    0.1376   -0.0001    0.0001    0.1516
    57
stable frequency at    856.525 1/cm IR int. is 1.420 a.m.u.; force const. is 0.614 mDyne/Ang.
Fe        0.6734   -0.3855    0.1306    0.0000    0.0000    0.0000
N         3.9138    0.5779    0.1328    0.0000    0.0000    0.0046
N         1.6368   -3.6259    0.1334    0.0000    0.0000   -0.0046
N        -0.2395   -2.0709    0.1309   -0.0000   -0.0000   -0.0001
N        -1.0120    0.5273    0.1286   -0.0000    0.0000    0.0000
N         1.5863    1.2998    0.1304   -0.0000   -0.0000   -0.0000
N         2.3588   -1.2984    0.1326   -0.0000   -0.0000    0.0000
N        -0.2900    2.8548    0.1277   -0.0000    0.0000   -0.0045
N        -2.5670   -1.3489    0.1285    0.0000   -0.0000    0.0045
C        -2.6308    2.2050    0.1263    0.0000   -0.0000   -0.0257
C        -1.2119    1.9066    0.1276   -0.0000    0.0000    0.0136
C         1.0001    2.5643    0.1290   -0.0000    0.0000    0.0135
C         2.0252    3.5895    0.1292    0.0000   -0.0000   -0.0254
C        -3.3016    0.9663    0.1265   -0.0000    0.0000    0.0259
C        -2.2764   -0.0588    0.1280    0.0000   -0.0000   -0.0138
C        -0.6092   -5.7583    0.1333   -0.0001    0.0001    0.0420
C        -3.1252   -4.3959    0.1301    0.0001   -0.0000   -0.0414
C        -1.8137   -6.4621    0.1328   -0.0000    0.0000    0.0257
C        -4.6993    0.8970    0.1255    0.0000   -0.0000   -0.0427
C        -3.3370    3.4131    0.1250   -0.0000    0.0000    0.0421
C        -5.4031    2.1016    0.1242   -0.0000   -0.0000   -0.0261
C        -3.0557   -5.7893    0.1313    0.0000   -0.0000   -0.0256
C        -1.6188   -2.2708    0.1299    0.0000   -0.0000   -0.0134
C        -1.9171   -3.6897    0.1307   -0.0000    0.0000    0.0252
C         3.2639    2.9186    0.1308   -0.0000    0.0000    0.0252
C         2.9656    1.4998    0.1315    0.0000   -0.0000   -0.0133
C        -4.7303    3.3435    0.1239   -0.0000    0.0000    0.0260
C         3.6232   -0.7123    0.1333   -0.0000    0.0000   -0.0139
C         4.6484   -1.7374    0.1346   -0.0000    0.0000    0.0262
C         2.5587   -2.6777    0.1336    0.0000   -0.0000    0.0137
C         3.9776   -2.9761    0.1348    0.0000   -0.0000   -0.0259
C        -0.6784   -4.3606    0.1322    0.0000   -0.0000   -0.0255
C         0.3466   -3.3353    0.1323   -0.0000    0.0000    0.0135
C         1.9559    4.9872    0.1281   -0.0000    0.0001    0.0420
C         4.4720    3.6248    0.1315    0.0001   -0.0000   -0.0413
C         3.1605    5.6910    0.1287   -0.0000    0.0000    0.0257
C         4.4025    5.0182    0.1304    0.0000   -0.0000   -0.0256
C         6.0461   -1.6681    0.1356    0.0000   -0.0000   -0.0430
C         4.6838   -4.1842    0.1359   -0.0000    0.0000    0.0424
C         6.7499   -2.8727    0.1368    0.0000   -0.0000   -0.0263
C         6.0771   -4.1146    0.1369   -0.0000    0.0000    0.0262
H         6.5562   -0.7047    0.1355   -0.0002    0.0001    0.2517
H         4.1560   -5.1380    0.1360    0.0002   -0.0001   -0.2483
H         6.6624   -5.0353    0.1378    0.0001   -0.0001   -0.1568
H        -5.2094   -0.0664    0.1257   -0.0001    0.0001    0.2497
H        -2.8092    4.3669    0.1248    0.0002   -0.0001   -0.2463
H        -5.3156    4.2642    0.1229    0.0001   -0.0001   -0.1556
H        -6.4939    2.0893    0.1234   -0.0001    0.0001    0.1557
H         0.3542   -6.2683    0.1345    0.0002   -0.0001   -0.2458
H        -4.0791   -3.8681    0.1290   -0.0002    0.0002    0.2425
H        -3.9763   -6.3745    0.1309   -0.0001    0.0002    0.1532
H        -1.8014   -7.5529    0.1337    0.0001   -0.0001   -0.1533
H         0.9926    5.4972    0.1268    0.0002   -0.0002   -0.2455
H         5.4259    3.0971    0.1328   -0.0002    0.0002    0.2422
H         5.3231    5.6035    0.1309   -0.0002    0.0001    0.1531
H         3.1482    6.7818    0.1279    0.0002   -0.0001   -0.1531
H         7.8407   -2.8603    0.1376   -0.0001    0.0001    0.1570
    57
stable frequency at    856.994 1/cm IR int. is 1.437 a.m.u.; force const. is 0.622 mDyne/Ang.
Fe        0.6734   -0.3855    0.1306    0.0000   -0.0000   -0.0000
N         3.9138    0.5779    0.1328   -0.0000    0.0001    0.0028
N         1.6368   -3.6259    0.1334    0.0001    0.0000    0.0028
N        -0.2395   -2.0709    0.1309   -0.0000    0.0000    0.0001
N        -1.0120    0.5273    0.1286    0.0000    0.0000   -0.0009
N         1.5863    1.2998    0.1304    0.0000   -0.0000   -0.0001
N         2.3588   -1.2984    0.1326   -0.0000   -0.0000    0.0009
N        -0.2900    2.8548    0.1277   -0.0001   -0.0000   -0.0028
N        -2.5670   -1.3489    0.1285    0.0000   -0.0001   -0.0028
C        -2.6308    2.2050    0.1263   -0.0000    0.0000    0.0006
C        -1.2119    1.9066    0.1276   -0.0001    0.0000   -0.0008
C         1.0001    2.5643    0.1290   -0.0001   -0.0000    0.0199
C         2.0252    3.5895    0.1292    0.0001   -0.0000   -0.0390
C        -3.3016    0.9663    0.1265    0.0000    0.0000    0.0004
C        -2.2764   -0.0588    0.1280    0.0001   -0.0000   -0.0007
C        -0.6092   -5.7583    0.1333    0.0000   -0.0001   -0.0607
C        -3.1252   -4.3959    0.1301   -0.0001    0.0001    0.0596
C        -1.8137   -6.4621    0.1328    0.0000   -0.0001   -0.0358
C        -4.6993    0.8970    0.1255    0.0000    0.0001    0.0000
C        -3.3370    3.4131    0.1250    0.0000    0.0000   -0.0006
C        -5.4031    2.1016    0.1242   -0.0001    0.0000    0.0008
C        -3.0557   -5.7893    0.1313    0.0001    0.0001    0.0354
C        -1.6188   -2.2708    0.1299   -0.0000   -0.0000    0.0195
C        -1.9171   -3.6897    0.1307   -0.0000   -0.0000   -0.0383
C         3.2639    2.9186    0.1308   -0.0000    0.0000    0.0383
C         2.9656    1.4998    0.1315    0.0000    0.0000   -0.0195
C        -4.7303    3.3435    0.1239    0.0001   -0.0001    0.0009
C         3.6232   -0.7123    0.1333   -0.0001    0.0000    0.0007
C         4.6484   -1.7374    0.1346   -0.0000   -0.0000   -0.0003
C         2.5587   -2.6777    0.1336    0.0001   -0.0000    0.0008
C         3.9776   -2.9761    0.1348    0.0000   -0.0000   -0.0007
C        -0.6784   -4.3606    0.1322   -0.0000    0.0000    0.0390
C         0.3466   -3.3353    0.1323    0.0001    0.0000   -0.0199
C         1.9559    4.9872    0.1281   -0.0000    0.0001    0.0607
C         4.4720    3.6248    0.1315    0.0001   -0.0001   -0.0596
C         3.1605    5.6910    0.1287   -0.0000    0.0001    0.0358
C         4.4025    5.0182    0.1304   -0.0001   -0.0001   -0.0354
C         6.0461   -1.6681    0.1356   -0.0000   -0.0001   -0.0001
C         4.6838   -4.1842    0.1359   -0.0000   -0.0000    0.0006
C         6.7499   -2.8727    0.1368    0.0001   -0.0000   -0.0008
C         6.0771   -4.1146    0.1369   -0.0001    0.0001   -0.0009
H         6.5562   -0.7047    0.1355   -0.0001   -0.0000    0.0039
H         4.1560   -5.1380    0.1360    0.0000   -0.0001    0.0008
H         6.6624   -5.0353    0.1378   -0.0001    0.0001    0.0075
H        -5.2094   -0.0664    0.1257    0.0001    0.0000   -0.0038
H        -2.8092    4.3669    0.1248   -0.0000    0.0001   -0.0009
H        -5.3156    4.2642    0.1229    0.0001   -0.0001   -0.0076
H        -6.4939    2.0893    0.1234   -0.0001    0.0000   -0.0073
H         0.3542   -6.2683    0.1345   -0.0003    0.0003    0.3500
H        -4.0791   -3.8681    0.1290    0.0002   -0.0003   -0.3427
H        -3.9763   -6.3745    0.1309    0.0003   -0.0001   -0.2149
H        -1.8014   -7.5529    0.1337   -0.0003    0.0001    0.2188
H         0.9926    5.4972    0.1268    0.0003   -0.0003   -0.3502
H         5.4259    3.0971    0.1328   -0.0002    0.0003    0.3429
H         5.3231    5.6035    0.1309   -0.0003    0.0001    0.2151
H         3.1482    6.7818    0.1279    0.0003   -0.0001   -0.2189
H         7.8407   -2.8603    0.1376    0.0001   -0.0000    0.0073
    57
stable frequency at    857.000 1/cm IR int. is 1.437 a.m.u.; force const. is 0.622 mDyne/Ang.
Fe        0.6734   -0.3855    0.1306    0.0000    0.0000    0.0000
N         3.9138    0.5779    0.1328   -0.0000    0.0001   -0.0028
N         1.6368   -3.6259    0.1334    0.0001    0.0000    0.0027
N        -0.2395   -2.0709    0.1309   -0.0001    0.0000    0.0009
N        -1.0120    0.5273    0.1286    0.0000    0.0001    0.0001
N         1.5863    1.2998    0.1304    0.0001   -0.0000   -0.0009
N         2.3588   -1.2984    0.1326   -0.0000   -0.0001   -0.0001
N        -0.2900    2.8548    0.1277   -0.0001   -0.0000   -0.0028
N        -2.5670   -1.3489    0.1285    0.0000   -0.0001    0.0028
C        -2.6308    2.2050    0.1263    0.0000    0.0000   -0.0384
C        -1.2119    1.9066    0.1276   -0.0001    0.0000    0.0196
C         1.0001    2.5643    0.1290   -0.0001   -0.0001   -0.0006
C         2.0252    3.5895    0.1292    0.0000   -0.0000    0.0003
C        -3.3016    0.9663    0.1265    0.0000    0.0001    0.0391
C        -2.2764   -0.0588    0.1280    0.0001   -0.0001   -0.0199
C        -0.6092   -5.7583    0.1333   -0.0001    0.0000    0.0000
C        -3.1252   -4.3959    0.1301   -0.0000    0.0001    0.0005
C        -1.8137   -6.4621    0.1328   -0.0000   -0.0001   -0.0007
C        -4.6993    0.8970    0.1255    0.0001    0.0000   -0.0609
C        -3.3370    3.4131    0.1250    0.0000    0.0001    0.0598
C        -5.4031    2.1016    0.1242   -0.0001   -0.0000   -0.0359
C        -3.0557   -5.7893    0.1313    0.0001    0.0001   -0.0009
C        -1.6188   -2.2708    0.1299   -0.0000   -0.0001    0.0008
C        -1.9171   -3.6897    0.1307   -0.0000   -0.0000   -0.0006
C         3.2639    2.9186    0.1308    0.0000    0.0000    0.0007
C         2.9656    1.4998    0.1315    0.0000    0.0001   -0.0008
C        -4.7303    3.3435    0.1239    0.0001   -0.0001    0.0355
C         3.6232   -0.7123    0.1333   -0.0001    0.0001    0.0198
C         4.6484   -1.7374    0.1346   -0.0000   -0.0001   -0.0389
C         2.5587   -2.6777    0.1336    0.0001   -0.0000   -0.0195
C         3.9776   -2.9761    0.1348   -0.0000   -0.0000    0.0382
C        -0.6784   -4.3606    0.1322   -0.0000    0.0000   -0.0004
C         0.3466   -3.3353    0.1323    0.0001    0.0001    0.0007
C         1.9559    4.9872    0.1281    0.0001   -0.0000    0.0001
C         4.4720    3.6248    0.1315    0.0001   -0.0001   -0.0006
C         3.1605    5.6910    0.1287    0.0000    0.0001    0.0008
C         4.4025    5.0182    0.1304   -0.0001   -0.0001    0.0009
C         6.0461   -1.6681    0.1356   -0.0001   -0.0000    0.0606
C         4.6838   -4.1842    0.1359   -0.0000   -0.0001   -0.0595
C         6.7499   -2.8727    0.1368    0.0001    0.0000    0.0357
C         6.0771   -4.1146    0.1369   -0.0001    0.0001   -0.0353
H         6.5562   -0.7047    0.1355    0.0001   -0.0002   -0.3491
H         4.1560   -5.1380    0.1360   -0.0003    0.0001    0.3418
H         6.6624   -5.0353    0.1378   -0.0003    0.0002    0.2143
H        -5.2094   -0.0664    0.1257   -0.0001    0.0002    0.3511
H        -2.8092    4.3669    0.1248    0.0003   -0.0001   -0.3438
H        -5.3156    4.2642    0.1229    0.0003   -0.0002   -0.2156
H        -6.4939    2.0893    0.1234   -0.0003    0.0002    0.2195
H         0.3542   -6.2683    0.1345   -0.0000    0.0001    0.0034
H        -4.0791   -3.8681    0.1290   -0.0001   -0.0000    0.0013
H        -3.9763   -6.3745    0.1309    0.0001    0.0001    0.0078
H        -1.8014   -7.5529    0.1337   -0.0001   -0.0001    0.0070
H         0.9926    5.4972    0.1268    0.0000   -0.0001   -0.0043
H         5.4259    3.0971    0.1328    0.0001    0.0000   -0.0005
H         5.3231    5.6035    0.1309   -0.0001   -0.0001   -0.0073
H         3.1482    6.7818    0.1279    0.0001    0.0001   -0.0075
H         7.8407   -2.8603    0.1376    0.0003   -0.0002   -0.2183
    57
stable frequency at    901.426 1/cm IR int. is 9.600 a.m.u.; force const. is 4.596 mDyne/Ang.
Fe        0.6734   -0.3855    0.1306    0.0003    0.0136   -0.0000
N         3.9138    0.5779    0.1328    0.0179    0.0326   -0.0000
N         1.6368   -3.6259    0.1334   -0.0149    0.0808   -0.0001
N        -0.2395   -2.0709    0.1309   -0.0001   -0.0569    0.0000
N        -1.0120    0.5273    0.1286   -0.0024   -0.0590    0.0000
N         1.5863    1.2998    0.1304   -0.0001   -0.0569    0.0000
N         2.3588   -1.2984    0.1326   -0.0024   -0.0590    0.0000
N        -0.2900    2.8548    0.1277   -0.0149    0.0808   -0.0001
N        -2.5670   -1.3489    0.1285    0.0179    0.0326   -0.0000
C        -2.6308    2.2050    0.1263    0.0249   -0.0136    0.0001
C        -1.2119    1.9066    0.1276    0.0530   -0.0375    0.0001
C         1.0001    2.5643    0.1290   -0.0150   -0.0320    0.0000
C         2.0252    3.5895    0.1292   -0.0071   -0.0147    0.0000
C        -3.3016    0.9663    0.1265   -0.0228    0.0132   -0.0000
C        -2.2764   -0.0588    0.1280   -0.0580    0.0197   -0.0001
C        -0.6092   -5.7583    0.1333    0.0096    0.0062    0.0000
C        -3.1252   -4.3959    0.1301    0.0209   -0.0127    0.0000
C        -1.8137   -6.4621    0.1328    0.0004    0.0333   -0.0000
C        -4.6993    0.8970    0.1255   -0.0090   -0.0352   -0.0000
C        -3.3370    3.4131    0.1250   -0.0234   -0.0148   -0.0001
C        -5.4031    2.1016    0.1242    0.0527   -0.0032    0.0001
C        -3.0557   -5.7893    0.1313   -0.0179   -0.0145   -0.0000
C        -1.6188   -2.2708    0.1299    0.0197    0.0213    0.0000
C        -1.9171   -3.6897    0.1307    0.0043    0.0108   -0.0000
C         3.2639    2.9186    0.1308    0.0043    0.0108   -0.0000
C         2.9656    1.4998    0.1315    0.0197    0.0213    0.0000
C        -4.7303    3.3435    0.1239   -0.0337    0.0482   -0.0000
C         3.6232   -0.7123    0.1333   -0.0580    0.0197   -0.0001
C         4.6484   -1.7374    0.1346   -0.0228    0.0132   -0.0000
C         2.5587   -2.6777    0.1336    0.0530   -0.0375    0.0001
C         3.9776   -2.9761    0.1348    0.0249   -0.0136    0.0000
C        -0.6784   -4.3606    0.1322   -0.0071   -0.0147    0.0000
C         0.3466   -3.3353    0.1323   -0.0150   -0.0320    0.0000
C         1.9559    4.9872    0.1281    0.0096    0.0062    0.0000
C         4.4720    3.6248    0.1315    0.0209   -0.0127    0.0000
C         3.1605    5.6910    0.1287    0.0004    0.0333   -0.0000
C         4.4025    5.0182    0.1304   -0.0179   -0.0145   -0.0000
C         6.0461   -1.6681    0.1356   -0.0090   -0.0351   -0.0000
C         4.6838   -4.1842    0.1359   -0.0234   -0.0148   -0.0001
C         6.7499   -2.8727    0.1368    0.0527   -0.0032    0.0001
C         6.0771   -4.1146    0.1369   -0.0337    0.0482   -0.0000
H         6.5562   -0.7047    0.1355   -0.0299   -0.0233    0.0001
H         4.1560   -5.1380    0.1360   -0.0043   -0.0241    0.0004
H         6.6624   -5.0353    0.1378   -0.0645    0.0289   -0.0002
H        -5.2094   -0.0664    0.1257   -0.0299   -0.0233    0.0001
H        -2.8092    4.3669    0.1248   -0.0043   -0.0241    0.0005
H        -5.3156    4.2642    0.1229   -0.0645    0.0289   -0.0002
H        -6.4939    2.0893    0.1234    0.0530   -0.0357    0.0001
H         0.3542   -6.2683    0.1345    0.0060    0.0010   -0.0001
H        -4.0791   -3.8681    0.1290    0.0292    0.0025    0.0000
H        -3.9763   -6.3745    0.1309   -0.0118   -0.0234    0.0000
H        -1.8014   -7.5529    0.1337    0.0248    0.0341    0.0001
H         0.9926    5.4972    0.1268    0.0060    0.0010   -0.0001
H         5.4259    3.0971    0.1328    0.0292    0.0025    0.0001
H         5.3231    5.6035    0.1309   -0.0118   -0.0234    0.0000
H         3.1482    6.7818    0.1279    0.0248    0.0341    0.0001
H         7.8407   -2.8603    0.1376    0.0530   -0.0357    0.0000
    57
stable frequency at    901.426 1/cm IR int. is 9.600 a.m.u.; force const. is 4.596 mDyne/Ang.
Fe        0.6734   -0.3855    0.1306   -0.0136    0.0003   -0.0000
N         3.9138    0.5779    0.1328   -0.0808   -0.0149   -0.0001
N         1.6368   -3.6259    0.1334   -0.0326    0.0179   -0.0000
N        -0.2395   -2.0709    0.1309    0.0590   -0.0024    0.0000
N        -1.0120    0.5273    0.1286    0.0569   -0.0001    0.0000
N         1.5863    1.2998    0.1304    0.0590   -0.0024    0.0000
N         2.3588   -1.2984    0.1326    0.0569   -0.0001    0.0000
N        -0.2900    2.8548    0.1277   -0.0326    0.0179   -0.0000
N        -2.5670   -1.3489    0.1285   -0.0808   -0.0149   -0.0001
C        -2.6308    2.2050    0.1263   -0.0108    0.0043   -0.0000
C        -1.2119    1.9066    0.1276   -0.0213    0.0197   -0.0000
C         1.0001    2.5643    0.1290   -0.0197   -0.0580    0.0000
C         2.0252    3.5895    0.1292   -0.0132   -0.0228   -0.0000
C        -3.3016    0.9663    0.1265    0.0147   -0.0071    0.0000
C        -2.2764   -0.0588    0.1280    0.0320   -0.0150    0.0000
C        -0.6092   -5.7583    0.1333    0.0351   -0.0090    0.0001
C        -3.1252   -4.3959    0.1301    0.0148   -0.0234    0.0000
C        -1.8137   -6.4621    0.1328    0.0032    0.0527   -0.0001
C        -4.6993    0.8970    0.1255   -0.0062    0.0096    0.0000
C        -3.3370    3.4131    0.1250    0.0127    0.0209    0.0000
C        -5.4031    2.1016    0.1242   -0.0333    0.0004   -0.0000
C        -3.0557   -5.7893    0.1313   -0.0482   -0.0337   -0.0000
C        -1.6188   -2.2708    0.1299    0.0375    0.0530   -0.0000
C        -1.9171   -3.6897    0.1307    0.0136    0.0249   -0.0000
C         3.2639    2.9186    0.1308    0.0136    0.0249   -0.0000
C         2.9656    1.4998    0.1315    0.0375    0.0530   -0.0000
C        -4.7303    3.3435    0.1239    0.0145   -0.0179    0.0000
C         3.6232   -0.7123    0.1333    0.0320   -0.0150    0.0000
C         4.6484   -1.7374    0.1346    0.0147   -0.0071    0.0000
C         2.5587   -2.6777    0.1336   -0.0213    0.0197   -0.0000
C         3.9776   -2.9761    0.1348   -0.0108    0.0043   -0.0000
C        -0.6784   -4.3606    0.1322   -0.0132   -0.0228    0.0000
C         0.3466   -3.3353    0.1323   -0.0197   -0.0580    0.0000
C         1.9559    4.9872    0.1281    0.0352   -0.0090    0.0001
C         4.4720    3.6248    0.1315    0.0148   -0.0234    0.0000
C         3.1605    5.6910    0.1287    0.0032    0.0527   -0.0001
C         4.4025    5.0182    0.1304   -0.0482   -0.0337   -0.0000
C         6.0461   -1.6681    0.1356   -0.0062    0.0096    0.0000
C         4.6838   -4.1842    0.1359    0.0127    0.0209    0.0000
C         6.7499   -2.8727    0.1368   -0.0333    0.0004   -0.0000
C         6.0771   -4.1146    0.1369    0.0145   -0.0179    0.0000
H         6.5562   -0.7047    0.1355   -0.0010    0.0060   -0.0001
H         4.1560   -5.1380    0.1360   -0.0025    0.0292   -0.0002
H         6.6624   -5.0353    0.1378    0.0234   -0.0118    0.0001
H        -5.2094   -0.0664    0.1257   -0.0010    0.0060   -0.0001
H        -2.8092    4.3669    0.1248   -0.0025    0.0292   -0.0002
H        -5.3156    4.2642    0.1229    0.0234   -0.0118    0.0001
H        -6.4939    2.0893    0.1234   -0.0341    0.0248   -0.0000
H         0.3542   -6.2683    0.1345    0.0233   -0.0299   -0.0001
H        -4.0791   -3.8681    0.1290    0.0241   -0.0043    0.0001
H        -3.9763   -6.3745    0.1309   -0.0289   -0.0645    0.0000
H        -1.8014   -7.5529    0.1337    0.0357    0.0530    0.0001
H         0.9926    5.4972    0.1268    0.0233   -0.0299   -0.0001
H         5.4259    3.0971    0.1328    0.0241   -0.0043    0.0001
H         5.3231    5.6035    0.1309   -0.0289   -0.0645   -0.0000
H         3.1482    6.7818    0.1279    0.0357    0.0530    0.0002
H         7.8407   -2.8603    0.1376   -0.0341    0.0248   -0.0000
    57
stable frequency at    932.678 1/cm IR int. is 1.390 a.m.u.; force const. is 0.713 mDyne/Ang.
Fe        0.6734   -0.3855    0.1306    0.0000    0.0000   -0.0000
N         3.9138    0.5779    0.1328    0.0000    0.0000    0.0000
N         1.6368   -3.6259    0.1334   -0.0000    0.0000   -0.0000
N        -0.2395   -2.0709    0.1309   -0.0000   -0.0000    0.0026
N        -1.0120    0.5273    0.1286   -0.0000   -0.0000   -0.0026
N         1.5863    1.2998    0.1304   -0.0000   -0.0000    0.0026
N         2.3588   -1.2984    0.1326   -0.0000   -0.0000   -0.0026
N        -0.2900    2.8548    0.1277   -0.0000    0.0000   -0.0000
N        -2.5670   -1.3489    0.1285    0.0000    0.0000    0.0000
C        -2.6308    2.2050    0.1263    0.0000   -0.0000   -0.0117
C        -1.2119    1.9066    0.1276    0.0000   -0.0000    0.0065
C         1.0001    2.5643    0.1290    0.0000   -0.0000   -0.0064
C         2.0252    3.5895    0.1292   -0.0000   -0.0000    0.0117
C        -3.3016    0.9663    0.1265   -0.0000   -0.0000   -0.0116
C        -2.2764   -0.0588    0.1280   -0.0000    0.0000    0.0063
C        -0.6092   -5.7583    0.1333    0.0001   -0.0000   -0.0442
C        -3.1252   -4.3959    0.1301    0.0000   -0.0000   -0.0453
C        -1.8137   -6.4621    0.1328   -0.0000    0.0000    0.0306
C        -4.6993    0.8970    0.1255   -0.0000    0.0000    0.0438
C        -3.3370    3.4131    0.1250   -0.0001    0.0000    0.0449
C        -5.4031    2.1016    0.1242    0.0001   -0.0000   -0.0303
C        -3.0557   -5.7893    0.1313   -0.0000    0.0000    0.0313
C        -1.6188   -2.2708    0.1299    0.0000    0.0000   -0.0065
C        -1.9171   -3.6897    0.1307   -0.0000    0.0000    0.0118
C         3.2639    2.9186    0.1308   -0.0000    0.0000    0.0118
C         2.9656    1.4998    0.1315    0.0000    0.0000   -0.0065
C        -4.7303    3.3435    0.1239   -0.0000    0.0000   -0.0310
C         3.6232   -0.7123    0.1333   -0.0000    0.0000    0.0064
C         4.6484   -1.7374    0.1346   -0.0000   -0.0000   -0.0117
C         2.5587   -2.6777    0.1336    0.0000   -0.0000    0.0065
C         3.9776   -2.9761    0.1348    0.0000   -0.0000   -0.0117
C        -0.6784   -4.3606    0.1322   -0.0000   -0.0000    0.0117
C         0.3466   -3.3353    0.1323    0.0000   -0.0000   -0.0064
C         1.9559    4.9872    0.1281    0.0001   -0.0000   -0.0442
C         4.4720    3.6248    0.1315    0.0000   -0.0000   -0.0453
C         3.1605    5.6910    0.1287   -0.0000    0.0000    0.0306
C         4.4025    5.0182    0.1304   -0.0000    0.0000    0.0313
C         6.0461   -1.6681    0.1356   -0.0000    0.0000    0.0441
C         4.6838   -4.1842    0.1359   -0.0001    0.0000    0.0452
C         6.7499   -2.8727    0.1368    0.0001   -0.0000   -0.0305
C         6.0771   -4.1146    0.1369    0.0000    0.0000   -0.0312
H         6.5562   -0.7047    0.1355    0.0001   -0.0001   -0.2365
H         4.1560   -5.1380    0.1360    0.0002   -0.0001   -0.2437
H         6.6624   -5.0353    0.1378   -0.0002    0.0001    0.1739
H        -5.2094   -0.0664    0.1257    0.0001   -0.0001   -0.2349
H        -2.8092    4.3669    0.1248    0.0002   -0.0002   -0.2421
H        -5.3156    4.2642    0.1229   -0.0002    0.0001    0.1728
H        -6.4939    2.0893    0.1234   -0.0001    0.0001    0.1666
H         0.3542   -6.2683    0.1345   -0.0002    0.0002    0.2370
H        -4.0791   -3.8681    0.1290   -0.0002    0.0002    0.2442
H        -3.9763   -6.3745    0.1309    0.0001   -0.0002   -0.1742
H        -1.8014   -7.5529    0.1337    0.0002   -0.0001   -0.1682
H         0.9926    5.4972    0.1268   -0.0002    0.0002    0.2371
H         5.4259    3.0971    0.1328   -0.0002    0.0002    0.2443
H         5.3231    5.6035    0.1309    0.0002   -0.0002   -0.1743
H         3.1482    6.7818    0.1279    0.0002   -0.0001   -0.1682
H         7.8407   -2.8603    0.1376   -0.0001    0.0001    0.1678
    57
stable frequency at    933.122 1/cm IR int. is 1.389 a.m.u.; force const. is 0.713 mDyne/Ang.
Fe        0.6734   -0.3855    0.1306    0.0000   -0.0000   -0.0000
N         3.9138    0.5779    0.1328    0.0001    0.0000    0.0012
N         1.6368   -3.6259    0.1334   -0.0000    0.0001   -0.0012
N        -0.2395   -2.0709    0.1309    0.0000   -0.0000   -0.0039
N        -1.0120    0.5273    0.1286    0.0000    0.0000   -0.0000
N         1.5863    1.2998    0.1304   -0.0000    0.0000    0.0039
N         2.3588   -1.2984    0.1326   -0.0000   -0.0000    0.0000
N        -0.2900    2.8548    0.1277    0.0000   -0.0001    0.0012
N        -2.5670   -1.3489    0.1285   -0.0000   -0.0000   -0.0012
C        -2.6308    2.2050    0.1263   -0.0000    0.0000   -0.0004
C        -1.2119    1.9066    0.1276   -0.0000    0.0000    0.0001
C         1.0001    2.5643    0.1290    0.0000    0.0000   -0.0090
C         2.0252    3.5895    0.1292    0.0000    0.0000    0.0164
C        -3.3016    0.9663    0.1265    0.0000   -0.0000    0.0001
C        -2.2764   -0.0588    0.1280    0.0000   -0.0000    0.0000
C        -0.6092   -5.7583    0.1333   -0.0000    0.0000    0.0623
C        -3.1252   -4.3959    0.1301   -0.0000    0.0000    0.0638
C        -1.8137   -6.4621    0.1328    0.0000    0.0000   -0.0430
C        -4.6993    0.8970    0.1255    0.0000    0.0000    0.0004
C        -3.3370    3.4131    0.1250    0.0000    0.0000    0.0007
C        -5.4031    2.1016    0.1242   -0.0000   -0.0000    0.0007
C        -3.0557   -5.7893    0.1313    0.0000   -0.0001   -0.0440
C        -1.6188   -2.2708    0.1299    0.0000    0.0000    0.0092
C        -1.9171   -3.6897    0.1307    0.0000    0.0000   -0.0164
C         3.2639    2.9186    0.1308   -0.0000   -0.0000    0.0164
C         2.9656    1.4998    0.1315   -0.0000   -0.0000   -0.0092
C        -4.7303    3.3435    0.1239    0.0000   -0.0000   -0.0014
C         3.6232   -0.7123    0.1333   -0.0000    0.0000   -0.0000
C         4.6484   -1.7374    0.1346   -0.0000    0.0000   -0.0001
C         2.5587   -2.6777    0.1336    0.0000   -0.0000   -0.0001
C         3.9776   -2.9761    0.1348    0.0000   -0.0000    0.0004
C        -0.6784   -4.3606    0.1322   -0.0000   -0.0000   -0.0164
C         0.3466   -3.3353    0.1323   -0.0000   -0.0000    0.0090
C         1.9559    4.9872    0.1281    0.0001   -0.0000   -0.0623
C         4.4720    3.6248    0.1315    0.0000   -0.0000   -0.0638
C         3.1605    5.6910    0.1287   -0.0000   -0.0000    0.0430
C         4.4025    5.0182    0.1304   -0.0000    0.0001    0.0440
C         6.0461   -1.6681    0.1356   -0.0000   -0.0000   -0.0004
C         4.6838   -4.1842    0.1359   -0.0000   -0.0000   -0.0007
C         6.7499   -2.8727    0.1368    0.0000    0.0000   -0.0007
C         6.0771   -4.1146    0.1369   -0.0000    0.0000    0.0014
H         6.5562   -0.7047    0.1355   -0.0000   -0.0000    0.0038
H         4.1560   -5.1380    0.1360   -0.0000   -0.0000    0.0024
H         6.6624   -5.0353    0.1378   -0.0000    0.0000   -0.0075
H        -5.2094   -0.0664    0.1257    0.0000    0.0000   -0.0037
H        -2.8092    4.3669    0.1248    0.0000    0.0000   -0.0023
H        -5.3156    4.2642    0.1229    0.0000   -0.0000    0.0075
H        -6.4939    2.0893    0.1234   -0.0000    0.0000   -0.0039
H         0.3542   -6.2683    0.1345    0.0003   -0.0003   -0.3358
H        -4.0791   -3.8681    0.1290    0.0003   -0.0003   -0.3460
H        -3.9763   -6.3745    0.1309   -0.0002    0.0002    0.2440
H        -1.8014   -7.5529    0.1337   -0.0002    0.0002    0.2355
H         0.9926    5.4972    0.1268   -0.0003    0.0003    0.3358
H         5.4259    3.0971    0.1328   -0.0003    0.0003    0.3460
H         5.3231    5.6035    0.1309    0.0003   -0.0002   -0.2439
H         3.1482    6.7818    0.1279    0.0003   -0.0002   -0.2355
H         7.8407   -2.8603    0.1376    0.0000   -0.0000    0.0039
    57
stable frequency at    933.127 1/cm IR int. is 1.389 a.m.u.; force const. is 0.713 mDyne/Ang.
Fe        0.6734   -0.3855    0.1306    0.0000    0.0000   -0.0000
N         3.9138    0.5779    0.1328    0.0002    0.0000    0.0012
N         1.6368   -3.6259    0.1334   -0.0001    0.0001    0.0012
N        -0.2395   -2.0709    0.1309    0.0001   -0.0001    0.0001
N        -1.0120    0.5273    0.1286    0.0001    0.0001   -0.0039
N         1.5863    1.2998    0.1304   -0.0001    0.0001   -0.0000
N         2.3588   -1.2984    0.1326   -0.0001   -0.0001    0.0039
N        -0.2900    2.8548    0.1277    0.0001   -0.0001   -0.0012
N        -2.5670   -1.3489    0.1285   -0.0001   -0.0000   -0.0012
C        -2.6308    2.2050    0.1263   -0.0001    0.0000   -0.0164
C        -1.2119    1.9066    0.1276   -0.0001    0.0001    0.0092
C         1.0001    2.5643    0.1290    0.0000    0.0001   -0.0000
C         2.0252    3.5895    0.1292    0.0000    0.0000    0.0001
C        -3.3016    0.9663    0.1265    0.0001   -0.0001   -0.0164
C        -2.2764   -0.0588    0.1280    0.0001   -0.0000    0.0090
C        -0.6092   -5.7583    0.1333    0.0001   -0.0000   -0.0006
C        -3.1252   -4.3959    0.1301    0.0000   -0.0000   -0.0008
C        -1.8137   -6.4621    0.1328    0.0000    0.0001   -0.0006
C        -4.6993    0.8970    0.1255   -0.0000    0.0001    0.0624
C        -3.3370    3.4131    0.1250   -0.0001    0.0001    0.0638
C        -5.4031    2.1016    0.1242    0.0000   -0.0000   -0.0430
C        -3.0557   -5.7893    0.1313   -0.0001   -0.0001    0.0015
C        -1.6188   -2.2708    0.1299    0.0001    0.0001   -0.0002
C        -1.9171   -3.6897    0.1307    0.0000    0.0001    0.0005
C         3.2639    2.9186    0.1308   -0.0000   -0.0001   -0.0004
C         2.9656    1.4998    0.1315   -0.0001   -0.0001    0.0001
C        -4.7303    3.3435    0.1239    0.0001   -0.0001   -0.0440
C         3.6232   -0.7123    0.1333   -0.0001    0.0000   -0.0090
C         4.6484   -1.7374    0.1346   -0.0001    0.0001    0.0164
C         2.5587   -2.6777    0.1336    0.0001   -0.0001   -0.0092
C         3.9776   -2.9761    0.1348    0.0001   -0.0000    0.0164
C        -0.6784   -4.3606    0.1322   -0.0000   -0.0000   -0.0001
C         0.3466   -3.3353    0.1323   -0.0000   -0.0001   -0.0001
C         1.9559    4.9872    0.1281   -0.0001    0.0000    0.0002
C         4.4720    3.6248    0.1315   -0.0000    0.0000    0.0005
C         3.1605    5.6910    0.1287   -0.0000   -0.0001    0.0008
C         4.4025    5.0182    0.1304    0.0001    0.0001   -0.0013
C         6.0461   -1.6681    0.1356    0.0000   -0.0001   -0.0623
C         4.6838   -4.1842    0.1359    0.0000   -0.0001   -0.0638
C         6.7499   -2.8727    0.1368    0.0000    0.0000    0.0429
C         6.0771   -4.1146    0.1369   -0.0001    0.0001    0.0440
H         6.5562   -0.7047    0.1355   -0.0002    0.0001    0.3356
H         4.1560   -5.1380    0.1360   -0.0002    0.0001    0.3459
H         6.6624   -5.0353    0.1378    0.0001   -0.0001   -0.2439
H        -5.2094   -0.0664    0.1257    0.0002   -0.0001   -0.3359
H        -2.8092    4.3669    0.1248    0.0002   -0.0002   -0.3462
H        -5.3156    4.2642    0.1229   -0.0001    0.0001    0.2441
H        -6.4939    2.0893    0.1234   -0.0002    0.0002    0.2355
H         0.3542   -6.2683    0.1345    0.0001   -0.0000    0.0047
H        -4.0791   -3.8681    0.1290    0.0001   -0.0000    0.0034
H        -3.9763   -6.3745    0.1309   -0.0001   -0.0001   -0.0082
H        -1.8014   -7.5529    0.1337    0.0001    0.0001    0.0032
H         0.9926    5.4972    0.1268   -0.0001    0.0000   -0.0028
H         5.4259    3.0971    0.1328   -0.0001    0.0000   -0.0013
H         5.3231    5.6035    0.1309    0.0001    0.0001    0.0068
H         3.1482    6.7818    0.1279   -0.0000   -0.0001   -0.0046
H         7.8407   -2.8603    0.1376    0.0002   -0.0002   -0.2353
    57
stable frequency at    933.761 1/cm IR int. is 1.387 a.m.u.; force const. is 0.713 mDyne/Ang.
Fe        0.6734   -0.3855    0.1306   -0.0000   -0.0000   -0.0002
N         3.9138    0.5779    0.1328   -0.0000   -0.0000    0.0017
N         1.6368   -3.6259    0.1334   -0.0000   -0.0000    0.0017
N        -0.2395   -2.0709    0.1309    0.0000    0.0000    0.0031
N        -1.0120    0.5273    0.1286    0.0000    0.0000    0.0031
N         1.5863    1.2998    0.1304    0.0000    0.0000    0.0031
N         2.3588   -1.2984    0.1326    0.0000    0.0000    0.0031
N        -0.2900    2.8548    0.1277   -0.0000   -0.0000    0.0017
N        -2.5670   -1.3489    0.1285   -0.0000   -0.0000    0.0017
C        -2.6308    2.2050    0.1263   -0.0000    0.0000    0.0116
C        -1.2119    1.9066    0.1276   -0.0000    0.0000   -0.0065
C         1.0001    2.5643    0.1290   -0.0000   -0.0000   -0.0063
C         2.0252    3.5895    0.1292   -0.0000    0.0000    0.0115
C        -3.3016    0.9663    0.1265   -0.0000    0.0000    0.0116
C        -2.2764   -0.0588    0.1280    0.0000   -0.0000   -0.0063
C        -0.6092   -5.7583    0.1333    0.0000   -0.0000   -0.0441
C        -3.1252   -4.3959    0.1301    0.0000   -0.0000   -0.0449
C        -1.8137   -6.4621    0.1328   -0.0000    0.0000    0.0302
C        -4.6993    0.8970    0.1255    0.0000   -0.0000   -0.0444
C        -3.3370    3.4131    0.1250    0.0001   -0.0000   -0.0453
C        -5.4031    2.1016    0.1242   -0.0001    0.0000    0.0305
C        -3.0557   -5.7893    0.1313   -0.0000    0.0000    0.0308
C        -1.6188   -2.2708    0.1299    0.0000   -0.0000   -0.0064
C        -1.9171   -3.6897    0.1307   -0.0000    0.0000    0.0115
C         3.2639    2.9186    0.1308   -0.0000    0.0000    0.0115
C         2.9656    1.4998    0.1315    0.0000    0.0000   -0.0064
C        -4.7303    3.3435    0.1239   -0.0000    0.0000    0.0311
C         3.6232   -0.7123    0.1333    0.0000   -0.0000   -0.0063
C         4.6484   -1.7374    0.1346    0.0000    0.0000    0.0115
C         2.5587   -2.6777    0.1336   -0.0000    0.0000   -0.0064
C         3.9776   -2.9761    0.1348   -0.0000    0.0000    0.0115
C        -0.6784   -4.3606    0.1322   -0.0000    0.0000    0.0115
C         0.3466   -3.3353    0.1323   -0.0000   -0.0000   -0.0063
C         1.9559    4.9872    0.1281    0.0001   -0.0000   -0.0441
C         4.4720    3.6248    0.1315    0.0000   -0.0000   -0.0449
C         3.1605    5.6910    0.1287   -0.0000    0.0000    0.0302
C         4.4025    5.0182    0.1304   -0.0000    0.0000    0.0308
C         6.0461   -1.6681    0.1356    0.0000   -0.0000   -0.0442
C         4.6838   -4.1842    0.1359    0.0001   -0.0000   -0.0450
C         6.7499   -2.8727    0.1368   -0.0001    0.0000    0.0303
C         6.0771   -4.1146    0.1369   -0.0000   -0.0000    0.0309
H         6.5562   -0.7047    0.1355   -0.0001    0.0001    0.2392
H         4.1560   -5.1380    0.1360   -0.0001    0.0001    0.2453
H         6.6624   -5.0353    0.1378    0.0002   -0.0001   -0.1711
H        -5.2094   -0.0664    0.1257   -0.0001    0.0001    0.2404
H        -2.8092    4.3669    0.1248   -0.0001    0.0001    0.2465
H        -5.3156    4.2642    0.1229    0.0002   -0.0001   -0.1720
H        -6.4939    2.0893    0.1234    0.0001   -0.0001   -0.1665
H         0.3542   -6.2683    0.1345   -0.0002    0.0002    0.2385
H        -4.0791   -3.8681    0.1290   -0.0002    0.0002    0.2445
H        -3.9763   -6.3745    0.1309    0.0002   -0.0002   -0.1705
H        -1.8014   -7.5529    0.1337    0.0002   -0.0001   -0.1652
H         0.9926    5.4972    0.1268   -0.0002    0.0002    0.2385
H         5.4259    3.0971    0.1328   -0.0002    0.0002    0.2445
H         5.3231    5.6035    0.1309    0.0002   -0.0002   -0.1705
H         3.1482    6.7818    0.1279    0.0002   -0.0001   -0.1652
H         7.8407   -2.8603    0.1376    0.0001   -0.0001   -0.1657
    57
stable frequency at    940.312 1/cm IR int. is 10.249 a.m.u.; force const. is 5.339 mDyne/Ang.
Fe        0.6734   -0.3855    0.1306   -0.0000   -0.0000   -0.0000
N         3.9138    0.5779    0.1328   -0.0715   -0.0211   -0.0000
N         1.6368   -3.6259    0.1334    0.0211   -0.0715    0.0001
N        -0.2395   -2.0709    0.1309   -0.0461    0.0249   -0.0001
N        -1.0120    0.5273    0.1286   -0.0249   -0.0461    0.0000
N         1.5863    1.2998    0.1304    0.0461   -0.0249    0.0001
N         2.3588   -1.2984    0.1326    0.0249    0.0461   -0.0000
N        -0.2900    2.8548    0.1277   -0.0211    0.0715   -0.0001
N        -2.5670   -1.3489    0.1285    0.0715    0.0211    0.0000
C        -2.6308    2.2050    0.1263    0.0286   -0.0062   -0.0000
C        -1.2119    1.9066    0.1276    0.0394   -0.0288    0.0001
C         1.0001    2.5643    0.1290   -0.0172   -0.0456    0.0000
C         2.0252    3.5895    0.1292   -0.0206   -0.0210    0.0000
C        -3.3016    0.9663    0.1265   -0.0210    0.0206   -0.0001
C        -2.2764   -0.0588    0.1280   -0.0456    0.0172   -0.0000
C        -0.6092   -5.7583    0.1333   -0.0230    0.0056    0.0000
C        -3.1252   -4.3959    0.1301   -0.0167    0.0157    0.0001
C        -1.8137   -6.4621    0.1328   -0.0023   -0.0388    0.0000
C        -4.6993    0.8970    0.1255   -0.0056   -0.0230    0.0002
C        -3.3370    3.4131    0.1250   -0.0157   -0.0167    0.0001
C        -5.4031    2.1016    0.1242    0.0388   -0.0023   -0.0001
C        -3.0557   -5.7893    0.1313    0.0322    0.0234   -0.0001
C        -1.6188   -2.2708    0.1299   -0.0288   -0.0394    0.0000
C        -1.9171   -3.6897    0.1307   -0.0062   -0.0286    0.0000
C         3.2639    2.9186    0.1308    0.0062    0.0286   -0.0000
C         2.9656    1.4998    0.1315    0.0288    0.0394   -0.0000
C        -4.7303    3.3435    0.1239   -0.0234    0.0322   -0.0001
C         3.6232   -0.7123    0.1333    0.0456   -0.0172    0.0000
C         4.6484   -1.7374    0.1346    0.0210   -0.0206    0.0001
C         2.5587   -2.6777    0.1336   -0.0394    0.0288   -0.0001
C         3.9776   -2.9761    0.1348   -0.0286    0.0062    0.0000
C        -0.6784   -4.3606    0.1322    0.0206    0.0210   -0.0000
C         0.3466   -3.3353    0.1323    0.0172    0.0456   -0.0000
C         1.9559    4.9872    0.1281    0.0230   -0.0056    0.0000
C         4.4720    3.6248    0.1315    0.0167   -0.0157   -0.0000
C         3.1605    5.6910    0.1287    0.0023    0.0388   -0.0000
C         4.4025    5.0182    0.1304   -0.0322   -0.0234    0.0001
C         6.0461   -1.6681    0.1356    0.0056    0.0230   -0.0002
C         4.6838   -4.1842    0.1359    0.0157    0.0167   -0.0001
C         6.7499   -2.8727    0.1368   -0.0388    0.0023    0.0001
C         6.0771   -4.1146    0.1369    0.0234   -0.0322    0.0001
H         6.5562   -0.7047    0.1355    0.0062    0.0221    0.0008
H         4.1560   -5.1380    0.1360    0.0114    0.0184    0.0005
H         6.6624   -5.0353    0.1378    0.0417   -0.0207   -0.0003
H        -5.2094   -0.0664    0.1257   -0.0062   -0.0221   -0.0009
H        -2.8092    4.3669    0.1248   -0.0114   -0.0184   -0.0005
H        -5.3156    4.2642    0.1229   -0.0417    0.0207    0.0004
H        -6.4939    2.0893    0.1234    0.0392   -0.0267    0.0008
H         0.3542   -6.2683    0.1345   -0.0221    0.0062   -0.0002
H        -4.0791   -3.8681    0.1290   -0.0184    0.0114   -0.0005
H        -3.9763   -6.3745    0.1309    0.0207    0.0417    0.0004
H        -1.8014   -7.5529    0.1337   -0.0267   -0.0392    0.0000
H         0.9926    5.4972    0.1268    0.0221   -0.0062    0.0001
H         5.4259    3.0971    0.1328    0.0184   -0.0114    0.0005
H         5.3231    5.6035    0.1309   -0.0207   -0.0417   -0.0004
H         3.1482    6.7818    0.1279    0.0267    0.0392    0.0001
H         7.8407   -2.8603    0.1376   -0.0392    0.0267   -0.0007
    57
stable frequency at    961.223 1/cm IR int. is 1.312 a.m.u.; force const. is 0.714 mDyne/Ang.
Fe        0.6734   -0.3855    0.1306   -0.0000    0.0000   -0.0000
N         3.9138    0.5779    0.1328   -0.0000    0.0000   -0.0000
N         1.6368   -3.6259    0.1334   -0.0000    0.0000   -0.0000
N        -0.2395   -2.0709    0.1309    0.0000   -0.0000   -0.0000
N        -1.0120    0.5273    0.1286    0.0000   -0.0000   -0.0000
N         1.5863    1.2998    0.1304    0.0000   -0.0000   -0.0000
N         2.3588   -1.2984    0.1326    0.0000   -0.0000   -0.0000
N        -0.2900    2.8548    0.1277   -0.0000    0.0000   -0.0000
N        -2.5670   -1.3489    0.1285   -0.0000    0.0000   -0.0000
C        -2.6308    2.2050    0.1263   -0.0000    0.0000    0.0020
C        -1.2119    1.9066    0.1276    0.0000   -0.0000    0.0011
C         1.0001    2.5643    0.1290   -0.0000   -0.0000   -0.0012
C         2.0252    3.5895    0.1292    0.0000   -0.0000   -0.0019
C        -3.3016    0.9663    0.1265   -0.0000   -0.0000   -0.0019
C        -2.2764   -0.0588    0.1280   -0.0000    0.0000   -0.0012
C        -0.6092   -5.7583    0.1333    0.0000   -0.0000   -0.0259
C        -3.1252   -4.3959    0.1301   -0.0000    0.0000    0.0250
C        -1.8137   -6.4621    0.1328   -0.0000    0.0001    0.0446
C        -4.6993    0.8970    0.1255    0.0000    0.0000   -0.0261
C        -3.3370    3.4131    0.1250   -0.0001    0.0000    0.0252
C        -5.4031    2.1016    0.1242    0.0001    0.0001    0.0448
C        -3.0557   -5.7893    0.1313    0.0000   -0.0000   -0.0434
C        -1.6188   -2.2708    0.1299    0.0000    0.0000    0.0011
C        -1.9171   -3.6897    0.1307    0.0000   -0.0000    0.0020
C         3.2639    2.9186    0.1308    0.0000   -0.0000    0.0020
C         2.9656    1.4998    0.1315    0.0000    0.0000    0.0011
C        -4.7303    3.3435    0.1239    0.0000   -0.0001   -0.0436
C         3.6232   -0.7123    0.1333   -0.0000    0.0000   -0.0012
C         4.6484   -1.7374    0.1346   -0.0000   -0.0000   -0.0019
C         2.5587   -2.6777    0.1336    0.0000   -0.0000    0.0011
C         3.9776   -2.9761    0.1348   -0.0000    0.0000    0.0020
C        -0.6784   -4.3606    0.1322    0.0000   -0.0000   -0.0019
C         0.3466   -3.3353    0.1323    0.0000   -0.0000   -0.0012
C         1.9559    4.9872    0.1281    0.0000   -0.0000   -0.0264
C         4.4720    3.6248    0.1315   -0.0000   -0.0000    0.0255
C         3.1605    5.6910    0.1287   -0.0000    0.0001    0.0453
C         4.4025    5.0182    0.1304    0.0000   -0.0000   -0.0441
C         6.0461   -1.6681    0.1356    0.0000    0.0000   -0.0262
C         4.6838   -4.1842    0.1359   -0.0001    0.0000    0.0253
C         6.7499   -2.8727    0.1368    0.0001    0.0001    0.0450
C         6.0771   -4.1146    0.1369    0.0000   -0.0001   -0.0438
H         6.5562   -0.7047    0.1355   -0.0003    0.0002    0.1645
H         4.1560   -5.1380    0.1360   -0.0001   -0.0000   -0.1609
H         6.6624   -5.0353    0.1378   -0.0002    0.0000    0.2548
H        -5.2094   -0.0664    0.1257   -0.0004    0.0003    0.1636
H        -2.8092    4.3669    0.1248   -0.0001   -0.0000   -0.1599
H        -5.3156    4.2642    0.1229   -0.0003    0.0000    0.2534
H        -6.4939    2.0893    0.1234    0.0003   -0.0000   -0.2600
H         0.3542   -6.2683    0.1345   -0.0001    0.0001    0.1628
H        -4.0791   -3.8681    0.1290    0.0001   -0.0001   -0.1592
H        -3.9763   -6.3745    0.1309   -0.0002    0.0002    0.2523
H        -1.8014   -7.5529    0.1337    0.0002   -0.0002   -0.2588
H         0.9926    5.4972    0.1268   -0.0002    0.0001    0.1655
H         5.4259    3.0971    0.1328    0.0001   -0.0001   -0.1619
H         5.3231    5.6035    0.1309   -0.0002    0.0002    0.2564
H         3.1482    6.7818    0.1279    0.0003   -0.0002   -0.2631
H         7.8407   -2.8603    0.1376    0.0003   -0.0000   -0.2614
    57
stable frequency at    961.457 1/cm IR int. is 1.311 a.m.u.; force const. is 0.714 mDyne/Ang.
Fe        0.6734   -0.3855    0.1306   -0.0000   -0.0000    0.0000
N         3.9138    0.5779    0.1328   -0.0001   -0.0000   -0.0003
N         1.6368   -3.6259    0.1334    0.0000   -0.0000   -0.0004
N        -0.2395   -2.0709    0.1309   -0.0000    0.0000   -0.0000
N        -1.0120    0.5273    0.1286   -0.0000   -0.0000    0.0001
N         1.5863    1.2998    0.1304    0.0001   -0.0000    0.0000
N         2.3588   -1.2984    0.1326    0.0000    0.0000   -0.0001
N        -0.2900    2.8548    0.1277   -0.0000    0.0000    0.0004
N        -2.5670   -1.3489    0.1285    0.0001    0.0000    0.0003
C        -2.6308    2.2050    0.1263    0.0000   -0.0000   -0.0002
C        -1.2119    1.9066    0.1276    0.0000   -0.0000   -0.0003
C         1.0001    2.5643    0.1290   -0.0000   -0.0000   -0.0019
C         2.0252    3.5895    0.1292    0.0000   -0.0000   -0.0028
C        -3.3016    0.9663    0.1265   -0.0000    0.0000    0.0005
C        -2.2764   -0.0588    0.1280   -0.0000   -0.0000    0.0000
C        -0.6092   -5.7583    0.1333   -0.0000    0.0000    0.0371
C        -3.1252   -4.3959    0.1301    0.0000   -0.0000   -0.0354
C        -1.8137   -6.4621    0.1328    0.0001   -0.0001   -0.0631
C        -4.6993    0.8970    0.1255    0.0000   -0.0000    0.0034
C        -3.3370    3.4131    0.1250    0.0000   -0.0000   -0.0046
C        -5.4031    2.1016    0.1242    0.0000   -0.0000   -0.0067
C        -3.0557   -5.7893    0.1313   -0.0000    0.0001    0.0611
C        -1.6188   -2.2708    0.1299   -0.0000   -0.0000   -0.0017
C        -1.9171   -3.6897    0.1307   -0.0000    0.0000   -0.0029
C         3.2639    2.9186    0.1308    0.0000   -0.0000    0.0030
C         2.9656    1.4998    0.1315    0.0000    0.0000    0.0017
C        -4.7303    3.3435    0.1239   -0.0000    0.0000    0.0073
C         3.6232   -0.7123    0.1333    0.0000    0.0000   -0.0000
C         4.6484   -1.7374    0.1346    0.0000   -0.0000   -0.0005
C         2.5587   -2.6777    0.1336   -0.0000    0.0000    0.0003
C         3.9776   -2.9761    0.1348   -0.0000    0.0000    0.0002
C        -0.6784   -4.3606    0.1322   -0.0000    0.0000    0.0028
C         0.3466   -3.3353    0.1323    0.0000    0.0000    0.0019
C         1.9559    4.9872    0.1281    0.0000   -0.0000   -0.0372
C         4.4720    3.6248    0.1315   -0.0000   -0.0000    0.0355
C         3.1605    5.6910    0.1287   -0.0001    0.0001    0.0632
C         4.4025    5.0182    0.1304    0.0000   -0.0001   -0.0612
C         6.0461   -1.6681    0.1356   -0.0000    0.0000   -0.0026
C         4.6838   -4.1842    0.1359   -0.0000    0.0000    0.0039
C         6.7499   -2.8727    0.1368   -0.0000    0.0000    0.0055
C         6.0771   -4.1146    0.1369    0.0000   -0.0000   -0.0061
H         6.5562   -0.7047    0.1355   -0.0000    0.0000    0.0161
H         4.1560   -5.1380    0.1360    0.0000   -0.0000   -0.0245
H         6.6624   -5.0353    0.1378   -0.0000    0.0000    0.0348
H        -5.2094   -0.0664    0.1257    0.0001   -0.0000   -0.0208
H        -2.8092    4.3669    0.1248   -0.0000    0.0000    0.0290
H        -5.3156    4.2642    0.1229    0.0000   -0.0000   -0.0420
H        -6.4939    2.0893    0.1234   -0.0000   -0.0000    0.0398
H         0.3542   -6.2683    0.1345    0.0002   -0.0001   -0.2330
H        -4.0791   -3.8681    0.1290   -0.0002    0.0002    0.2263
H        -3.9763   -6.3745    0.1309    0.0003   -0.0002   -0.3550
H        -1.8014   -7.5529    0.1337   -0.0003    0.0002    0.3667
H         0.9926    5.4972    0.1268   -0.0003    0.0001    0.2337
H         5.4259    3.0971    0.1328    0.0002   -0.0002   -0.2270
H         5.3231    5.6035    0.1309   -0.0003    0.0002    0.3561
H         3.1482    6.7818    0.1279    0.0004   -0.0002   -0.3677
H         7.8407   -2.8603    0.1376    0.0000    0.0000   -0.0325
    57
stable frequency at    961.457 1/cm IR int. is 1.311 a.m.u.; force const. is 0.714 mDyne/Ang.
Fe        0.6734   -0.3855    0.1306    0.0000   -0.0000    0.0000
N         3.9138    0.5779    0.1328    0.0000    0.0000    0.0004
N         1.6368   -3.6259    0.1334   -0.0000    0.0001   -0.0003
N        -0.2395   -2.0709    0.1309    0.0000   -0.0000   -0.0001
N        -1.0120    0.5273    0.1286   -0.0000    0.0001   -0.0000
N         1.5863    1.2998    0.1304   -0.0000    0.0000    0.0001
N         2.3588   -1.2984    0.1326    0.0000   -0.0001    0.0000
N        -0.2900    2.8548    0.1277    0.0000   -0.0001    0.0003
N        -2.5670   -1.3489    0.1285   -0.0000   -0.0000   -0.0004
C        -2.6308    2.2050    0.1263    0.0000   -0.0000   -0.0029
C        -1.2119    1.9066    0.1276   -0.0000    0.0000   -0.0017
C         1.0001    2.5643    0.1290   -0.0000    0.0000    0.0000
C         2.0252    3.5895    0.1292    0.0000    0.0000    0.0005
C        -3.3016    0.9663    0.1265    0.0000    0.0000    0.0028
C        -2.2764   -0.0588    0.1280    0.0000   -0.0000    0.0019
C        -0.6092   -5.7583    0.1333    0.0000   -0.0000   -0.0029
C        -3.1252   -4.3959    0.1301   -0.0000    0.0000    0.0041
C        -1.8137   -6.4621    0.1328   -0.0000    0.0000    0.0059
C        -4.6993    0.8970    0.1255   -0.0000   -0.0000    0.0371
C        -3.3370    3.4131    0.1250    0.0001   -0.0000   -0.0354
C        -5.4031    2.1016    0.1242   -0.0001   -0.0001   -0.0631
C        -3.0557   -5.7893    0.1313   -0.0000   -0.0000   -0.0065
C        -1.6188   -2.2708    0.1299    0.0000    0.0000    0.0003
C        -1.9171   -3.6897    0.1307    0.0000    0.0000    0.0002
C         3.2639    2.9186    0.1308   -0.0000   -0.0000   -0.0002
C         2.9656    1.4998    0.1315   -0.0000   -0.0000   -0.0003
C        -4.7303    3.3435    0.1239   -0.0000    0.0001    0.0611
C         3.6232   -0.7123    0.1333   -0.0000    0.0000   -0.0019
C         4.6484   -1.7374    0.1346   -0.0000   -0.0000   -0.0028
C         2.5587   -2.6777    0.1336    0.0000   -0.0000    0.0017
C         3.9776   -2.9761    0.1348   -0.0000    0.0000    0.0030
C        -0.6784   -4.3606    0.1322   -0.0000   -0.0000   -0.0005
C         0.3466   -3.3353    0.1323    0.0000   -0.0000   -0.0000
C         1.9559    4.9872    0.1281   -0.0000    0.0000    0.0031
C         4.4720    3.6248    0.1315    0.0000    0.0000   -0.0044
C         3.1605    5.6910    0.1287    0.0000   -0.0000   -0.0063
C         4.4025    5.0182    0.1304    0.0000    0.0000    0.0069
C         6.0461   -1.6681    0.1356    0.0000    0.0000   -0.0372
C         4.6838   -4.1842    0.1359   -0.0001    0.0000    0.0355
C         6.7499   -2.8727    0.1368    0.0001    0.0001    0.0632
C         6.0771   -4.1146    0.1369    0.0000   -0.0001   -0.0612
H         6.5562   -0.7047    0.1355   -0.0004    0.0003    0.2338
H         4.1560   -5.1380    0.1360   -0.0001   -0.0000   -0.2270
H         6.6624   -5.0353    0.1378   -0.0003    0.0001    0.3561
H        -5.2094   -0.0664    0.1257    0.0005   -0.0004   -0.2331
H        -2.8092    4.3669    0.1248    0.0001    0.0000    0.2263
H        -5.3156    4.2642    0.1229    0.0004   -0.0001   -0.3550
H        -6.4939    2.0893    0.1234   -0.0004    0.0001    0.3667
H         0.3542   -6.2683    0.1345   -0.0000    0.0000    0.0176
H        -4.0791   -3.8681    0.1290    0.0000   -0.0000   -0.0260
H        -3.9763   -6.3745    0.1309   -0.0000   -0.0000    0.0372
H        -1.8014   -7.5529    0.1337    0.0001   -0.0000   -0.0349
H         0.9926    5.4972    0.1268    0.0000   -0.0000   -0.0192
H         5.4259    3.0971    0.1328   -0.0000    0.0000    0.0275
H         5.3231    5.6035    0.1309    0.0000    0.0000   -0.0396
H         3.1482    6.7818    0.1279   -0.0001    0.0000    0.0374
H         7.8407   -2.8603    0.1376    0.0004   -0.0001   -0.3678
    57
stable frequency at    961.622 1/cm IR int. is 1.310 a.m.u.; force const. is 0.714 mDyne/Ang.
Fe        0.6734   -0.3855    0.1306   -0.0000   -0.0000    0.0000
N         3.9138    0.5779    0.1328   -0.0000   -0.0000   -0.0005
N         1.6368   -3.6259    0.1334   -0.0000   -0.0000    0.0005
N        -0.2395   -2.0709    0.1309    0.0000    0.0000    0.0000
N        -1.0120    0.5273    0.1286    0.0000    0.0000   -0.0000
N         1.5863    1.2998    0.1304    0.0000    0.0000    0.0000
N         2.3588   -1.2984    0.1326    0.0000    0.0000   -0.0000
N        -0.2900    2.8548    0.1277   -0.0000   -0.0000    0.0005
N        -2.5670   -1.3489    0.1285   -0.0000   -0.0000   -0.0005
C        -2.6308    2.2050    0.1263    0.0000   -0.0000   -0.0020
C        -1.2119    1.9066    0.1276   -0.0000    0.0000   -0.0014
C         1.0001    2.5643    0.1290   -0.0000   -0.0000   -0.0015
C         2.0252    3.5895    0.1292    0.0000   -0.0000   -0.0017
C        -3.3016    0.9663    0.1265    0.0000    0.0000    0.0018
C        -2.2764   -0.0588    0.1280    0.0000    0.0000    0.0015
C        -0.6092   -5.7583    0.1333    0.0000   -0.0000   -0.0268
C        -3.1252   -4.3959    0.1301   -0.0000    0.0000    0.0257
C        -1.8137   -6.4621    0.1328   -0.0000    0.0001    0.0452
C        -4.6993    0.8970    0.1255   -0.0000   -0.0000    0.0266
C        -3.3370    3.4131    0.1250    0.0001   -0.0000   -0.0255
C        -5.4031    2.1016    0.1242   -0.0001   -0.0001   -0.0449
C        -3.0557   -5.7893    0.1313    0.0000   -0.0000   -0.0439
C        -1.6188   -2.2708    0.1299    0.0000    0.0000    0.0014
C        -1.9171   -3.6897    0.1307    0.0000   -0.0000    0.0020
C         3.2639    2.9186    0.1308    0.0000   -0.0000    0.0020
C         2.9656    1.4998    0.1315    0.0000    0.0000    0.0014
C        -4.7303    3.3435    0.1239   -0.0000    0.0001    0.0436
C         3.6232   -0.7123    0.1333    0.0000    0.0000    0.0015
C         4.6484   -1.7374    0.1346    0.0000    0.0000    0.0018
C         2.5587   -2.6777    0.1336   -0.0000    0.0000   -0.0014
C         3.9776   -2.9761    0.1348    0.0000   -0.0000   -0.0020
C        -0.6784   -4.3606    0.1322    0.0000   -0.0000   -0.0018
C         0.3466   -3.3353    0.1323   -0.0000   -0.0000   -0.0015
C         1.9559    4.9872    0.1281    0.0000   -0.0000   -0.0262
C         4.4720    3.6248    0.1315   -0.0000    0.0000    0.0251
C         3.1605    5.6910    0.1287   -0.0000    0.0001    0.0442
C         4.4025    5.0182    0.1304    0.0000   -0.0000   -0.0429
C         6.0461   -1.6681    0.1356   -0.0000   -0.0000    0.0264
C         4.6838   -4.1842    0.1359    0.0001   -0.0000   -0.0253
C         6.7499   -2.8727    0.1368   -0.0001   -0.0001   -0.0446
C         6.0771   -4.1146    0.1369   -0.0000    0.0001    0.0433
H         6.5562   -0.7047    0.1355    0.0003   -0.0002   -0.1667
H         4.1560   -5.1380    0.1360    0.0001    0.0000    0.1612
H         6.6624   -5.0353    0.1378    0.0003   -0.0000   -0.2525
H        -5.2094   -0.0664    0.1257    0.0004   -0.0003   -0.1680
H        -2.8092    4.3669    0.1248    0.0001    0.0000    0.1623
H        -5.3156    4.2642    0.1229    0.0003   -0.0000   -0.2543
H        -6.4939    2.0893    0.1234   -0.0003    0.0000    0.2603
H         0.3542   -6.2683    0.1345   -0.0002    0.0001    0.1692
H        -4.0791   -3.8681    0.1290    0.0001   -0.0001   -0.1636
H        -3.9763   -6.3745    0.1309   -0.0002    0.0002    0.2562
H        -1.8014   -7.5529    0.1337    0.0002   -0.0002   -0.2622
H         0.9926    5.4972    0.1268   -0.0002    0.0000    0.1653
H         5.4259    3.0971    0.1328    0.0001   -0.0002   -0.1598
H         5.3231    5.6035    0.1309   -0.0002    0.0001    0.2503
H         3.1482    6.7818    0.1279    0.0002   -0.0001   -0.2561
H         7.8407   -2.8603    0.1376   -0.0003    0.0000    0.2584
    57
stable frequency at   1003.355 1/cm IR int. is 2.071 a.m.u.; force const. is 1.228 mDyne/Ang.
Fe        0.6734   -0.3855    0.1306    0.0000   -0.0000    0.0000
N         3.9138    0.5779    0.1328    0.0025    0.0025    0.0000
N         1.6368   -3.6259    0.1334   -0.0025    0.0025   -0.0000
N        -0.2395   -2.0709    0.1309    0.0080    0.0071    0.0000
N        -1.0120    0.5273    0.1286   -0.0071    0.0080   -0.0000
N         1.5863    1.2998    0.1304   -0.0080   -0.0071   -0.0000
N         2.3588   -1.2984    0.1326    0.0071   -0.0080    0.0000
N        -0.2900    2.8548    0.1277    0.0025   -0.0025    0.0000
N        -2.5670   -1.3489    0.1285   -0.0025   -0.0025   -0.0000
C        -2.6308    2.2050    0.1263    0.0025   -0.0068    0.0000
C        -1.2119    1.9066    0.1276    0.0002    0.0016   -0.0000
C         1.0001    2.5643    0.1290   -0.0006   -0.0015    0.0000
C         2.0252    3.5895    0.1292   -0.0053    0.0070   -0.0000
C        -3.3016    0.9663    0.1265    0.0070    0.0053   -0.0000
C        -2.2764   -0.0588    0.1280   -0.0015    0.0006   -0.0000
C        -0.6092   -5.7583    0.1333   -0.0399   -0.0110   -0.0000
C        -3.1252   -4.3959    0.1301    0.0085   -0.0372    0.0000
C        -1.8137   -6.4621    0.1328   -0.0197    0.0597   -0.0001
C        -4.6993    0.8970    0.1255    0.0110   -0.0399    0.0000
C        -3.3370    3.4131    0.1250    0.0372    0.0085    0.0001
C        -5.4031    2.1016    0.1242   -0.0597   -0.0197    0.0000
C        -3.0557   -5.7893    0.1313    0.0634    0.0166    0.0001
C        -1.6188   -2.2708    0.1299    0.0016   -0.0002    0.0000
C        -1.9171   -3.6897    0.1307   -0.0068   -0.0025   -0.0000
C         3.2639    2.9186    0.1308    0.0068    0.0025    0.0000
C         2.9656    1.4998    0.1315   -0.0016    0.0002   -0.0000
C        -4.7303    3.3435    0.1239   -0.0165    0.0634   -0.0001
C         3.6232   -0.7123    0.1333    0.0015   -0.0006    0.0000
C         4.6484   -1.7374    0.1346   -0.0069   -0.0053    0.0000
C         2.5587   -2.6777    0.1336   -0.0002   -0.0016    0.0000
C         3.9776   -2.9761    0.1348   -0.0025    0.0067   -0.0000
C        -0.6784   -4.3606    0.1322    0.0053   -0.0070    0.0000
C         0.3466   -3.3353    0.1323    0.0006    0.0015   -0.0000
C         1.9559    4.9872    0.1281    0.0398    0.0110    0.0000
C         4.4720    3.6248    0.1315   -0.0085    0.0371   -0.0000
C         3.1605    5.6910    0.1287    0.0196   -0.0596    0.0001
C         4.4025    5.0182    0.1304   -0.0632   -0.0165   -0.0001
C         6.0461   -1.6681    0.1356   -0.0109    0.0398   -0.0000
C         4.6838   -4.1842    0.1359   -0.0370   -0.0085   -0.0001
C         6.7499   -2.8727    0.1368    0.0594    0.0196   -0.0000
C         6.0771   -4.1146    0.1369    0.0165   -0.0631    0.0001
H         6.5562   -0.7047    0.1355   -0.1661    0.1264   -0.0003
H         4.1560   -5.1380    0.1360   -0.1893    0.0714   -0.0000
H         6.6624   -5.0353    0.1378   -0.0422   -0.1060   -0.0004
H        -5.2094   -0.0664    0.1257    0.1670   -0.1270    0.0003
H        -2.8092    4.3669    0.1248    0.1902   -0.0718   -0.0000
H        -5.3156    4.2642    0.1229    0.0425    0.1065    0.0004
H        -6.4939    2.0893    0.1234   -0.0639   -0.0833   -0.0003
H         0.3542   -6.2683    0.1345   -0.1270   -0.1669   -0.0000
H        -4.0791   -3.8681    0.1290   -0.0718   -0.1902    0.0001
H        -3.9763   -6.3745    0.1309    0.1065   -0.0424    0.0000
H        -1.8014   -7.5529    0.1337   -0.0833    0.0639   -0.0001
H         0.9926    5.4972    0.1268    0.1267    0.1665    0.0000
H         5.4259    3.0971    0.1328    0.0716    0.1897   -0.0001
H         5.3231    5.6035    0.1309   -0.1063    0.0424   -0.0000
H         3.1482    6.7818    0.1279    0.0831   -0.0637    0.0001
H         7.8407   -2.8603    0.1376    0.0636    0.0829    0.0003
    57
stable frequency at   1003.634 1/cm IR int. is 2.049 a.m.u.; force const. is 1.216 mDyne/Ang.
Fe        0.6734   -0.3855    0.1306    0.0006    0.0002    0.0000
N         3.9138    0.5779    0.1328   -0.0016   -0.0017   -0.0000
N         1.6368   -3.6259    0.1334    0.0002   -0.0017    0.0000
N        -0.2395   -2.0709    0.1309   -0.0025   -0.0103    0.0000
N        -1.0120    0.5273    0.1286   -0.0026    0.0084   -0.0000
N         1.5863    1.2998    0.1304   -0.0025   -0.0102    0.0000
N         2.3588   -1.2984    0.1326   -0.0026    0.0084   -0.0000
N        -0.2900    2.8548    0.1277    0.0002   -0.0017    0.0000
N        -2.5670   -1.3489    0.1285   -0.0016   -0.0017   -0.0000
C        -2.6308    2.2050    0.1263    0.0022   -0.0044    0.0000
C        -1.2119    1.9066    0.1276    0.0014   -0.0014    0.0000
C         1.0001    2.5643    0.1290   -0.0013    0.0009   -0.0000
C         2.0252    3.5895    0.1292   -0.0068    0.0087   -0.0000
C        -3.3016    0.9663    0.1265    0.0039    0.0048   -0.0000
C        -2.2764   -0.0588    0.1280   -0.0034    0.0014   -0.0000
C        -0.6092   -5.7583    0.1333    0.0482    0.0157    0.0000
C        -3.1252   -4.3959    0.1301   -0.0118    0.0472   -0.0000
C        -1.8137   -6.4621    0.1328    0.0245   -0.0765    0.0001
C        -4.6993    0.8970    0.1255    0.0073   -0.0263    0.0000
C        -3.3370    3.4131    0.1250    0.0243    0.0050    0.0000
C        -5.4031    2.1016    0.1242   -0.0374   -0.0134    0.0000
C        -3.0557   -5.7893    0.1313   -0.0772   -0.0190   -0.0001
C        -1.6188   -2.2708    0.1299   -0.0018   -0.0041    0.0000
C        -1.9171   -3.6897    0.1307    0.0092   -0.0010    0.0000
C         3.2639    2.9186    0.1308    0.0092   -0.0010    0.0000
C         2.9656    1.4998    0.1315   -0.0018   -0.0041    0.0000
C        -4.7303    3.3435    0.1239   -0.0119    0.0420   -0.0001
C         3.6232   -0.7123    0.1333   -0.0034    0.0014   -0.0000
C         4.6484   -1.7374    0.1346    0.0039    0.0048   -0.0000
C         2.5587   -2.6777    0.1336    0.0014   -0.0014    0.0000
C         3.9776   -2.9761    0.1348    0.0022   -0.0044    0.0000
C        -0.6784   -4.3606    0.1322   -0.0068    0.0087   -0.0000
C         0.3466   -3.3353    0.1323   -0.0013    0.0009   -0.0000
C         1.9559    4.9872    0.1281    0.0482    0.0157    0.0000
C         4.4720    3.6248    0.1315   -0.0118    0.0471   -0.0000
C         3.1605    5.6910    0.1287    0.0245   -0.0765    0.0001
C         4.4025    5.0182    0.1304   -0.0772   -0.0190   -0.0001
C         6.0461   -1.6681    0.1356    0.0073   -0.0263    0.0000
C         4.6838   -4.1842    0.1359    0.0243    0.0050    0.0000
C         6.7499   -2.8727    0.1368   -0.0374   -0.0134    0.0000
C         6.0771   -4.1146    0.1369   -0.0119    0.0420   -0.0001
H         6.5562   -0.7047    0.1355    0.1074   -0.0821    0.0002
H         4.1560   -5.1380    0.1360    0.1269   -0.0488    0.0000
H         6.6624   -5.0353    0.1378    0.0243    0.0687    0.0002
H        -5.2094   -0.0664    0.1257    0.1074   -0.0821    0.0002
H        -2.8092    4.3669    0.1248    0.1269   -0.0488    0.0000
H        -5.3156    4.2642    0.1229    0.0243    0.0687    0.0002
H        -6.4939    2.0893    0.1234   -0.0401   -0.0571   -0.0002
H         0.3542   -6.2683    0.1345    0.1593    0.2151   -0.0000
H        -4.0791   -3.8681    0.1290    0.0883    0.2379   -0.0002
H        -3.9763   -6.3745    0.1309   -0.1326    0.0572   -0.0001
H        -1.8014   -7.5529    0.1337    0.1027   -0.0817    0.0002
H         0.9926    5.4972    0.1268    0.1593    0.2151    0.0000
H         5.4259    3.0971    0.1328    0.0883    0.2378   -0.0002
H         5.3231    5.6035    0.1309   -0.1325    0.0572    0.0000
H         3.1482    6.7818    0.1279    0.1026   -0.0817    0.0002
H         7.8407   -2.8603    0.1376   -0.0401   -0.0571   -0.0002
    57
stable frequency at   1003.634 1/cm IR int. is 2.049 a.m.u.; force const. is 1.216 mDyne/Ang.
Fe        0.6734   -0.3855    0.1306   -0.0002    0.0006   -0.0000
N         3.9138    0.5779    0.1328    0.0017    0.0002    0.0000
N         1.6368   -3.6259    0.1334    0.0017   -0.0016    0.0000
N        -0.2395   -2.0709    0.1309   -0.0084   -0.0025   -0.0000
N        -1.0120    0.5273    0.1286    0.0102   -0.0025    0.0000
N         1.5863    1.2998    0.1304   -0.0084   -0.0026   -0.0000
N         2.3588   -1.2984    0.1326    0.0103   -0.0025    0.0000
N        -0.2900    2.8548    0.1277    0.0017   -0.0016    0.0000
N        -2.5670   -1.3489    0.1285    0.0017    0.0002    0.0000
C        -2.6308    2.2050    0.1263    0.0010    0.0092   -0.0000
C        -1.2119    1.9066    0.1276    0.0041   -0.0018    0.0000
C         1.0001    2.5643    0.1290   -0.0014   -0.0034    0.0000
C         2.0252    3.5895    0.1292   -0.0048    0.0039   -0.0000
C        -3.3016    0.9663    0.1265   -0.0087   -0.0068    0.0000
C        -2.2764   -0.0588    0.1280   -0.0009   -0.0013   -0.0000
C        -0.6092   -5.7583    0.1333    0.0261    0.0072    0.0000
C        -3.1252   -4.3959    0.1301   -0.0050    0.0242   -0.0000
C        -1.8137   -6.4621    0.1328    0.0133   -0.0372    0.0000
C        -4.6993    0.8970    0.1255   -0.0157    0.0481   -0.0000
C        -3.3370    3.4131    0.1250   -0.0471   -0.0117   -0.0001
C        -5.4031    2.1016    0.1242    0.0764    0.0244   -0.0000
C        -3.0557   -5.7893    0.1313   -0.0419   -0.0119   -0.0000
C        -1.6188   -2.2708    0.1299    0.0014    0.0014    0.0000
C        -1.9171   -3.6897    0.1307    0.0044    0.0021    0.0000
C         3.2639    2.9186    0.1308    0.0045    0.0022    0.0000
C         2.9656    1.4998    0.1315    0.0014    0.0014    0.0000
C        -4.7303    3.3435    0.1239    0.0190   -0.0771    0.0002
C         3.6232   -0.7123    0.1333   -0.0008   -0.0013   -0.0000
C         4.6484   -1.7374    0.1346   -0.0087   -0.0068    0.0000
C         2.5587   -2.6777    0.1336    0.0041   -0.0018    0.0000
C         3.9776   -2.9761    0.1348    0.0010    0.0092   -0.0000
C        -0.6784   -4.3606    0.1322   -0.0048    0.0038   -0.0000
C         0.3466   -3.3353    0.1323   -0.0014   -0.0034    0.0000
C         1.9559    4.9872    0.1281    0.0264    0.0073    0.0000
C         4.4720    3.6248    0.1315   -0.0050    0.0244   -0.0000
C         3.1605    5.6910    0.1287    0.0134   -0.0376    0.0000
C         4.4025    5.0182    0.1304   -0.0422   -0.0120   -0.0000
C         6.0461   -1.6681    0.1356   -0.0157    0.0482   -0.0000
C         4.6838   -4.1842    0.1359   -0.0472   -0.0118   -0.0001
C         6.7499   -2.8727    0.1368    0.0765    0.0245   -0.0000
C         6.0771   -4.1146    0.1369    0.0190   -0.0773    0.0001
H         6.5562   -0.7047    0.1355   -0.2153    0.1594   -0.0004
H         4.1560   -5.1380    0.1360   -0.2380    0.0884    0.0000
H         6.6624   -5.0353    0.1378   -0.0573   -0.1327   -0.0005
H        -5.2094   -0.0664    0.1257   -0.2149    0.1591   -0.0004
H        -2.8092    4.3669    0.1248   -0.2376    0.0882    0.0000
H        -5.3156    4.2642    0.1229   -0.0572   -0.1325   -0.0006
H        -6.4939    2.0893    0.1234    0.0816    0.1025    0.0004
H         0.3542   -6.2683    0.1345    0.0817    0.1069    0.0000
H        -4.0791   -3.8681    0.1290    0.0486    0.1264   -0.0001
H        -3.9763   -6.3745    0.1309   -0.0684    0.0242   -0.0000
H        -1.8014   -7.5529    0.1337    0.0568   -0.0399    0.0001
H         0.9926    5.4972    0.1268    0.0824    0.1079    0.0001
H         5.4259    3.0971    0.1328    0.0490    0.1275   -0.0001
H         5.3231    5.6035    0.1309   -0.0690    0.0244   -0.0000
H         3.1482    6.7818    0.1279    0.0573   -0.0403    0.0001
H         7.8407   -2.8603    0.1376    0.0817    0.1027    0.0004
    57
stable frequency at   1004.407 1/cm IR int. is 2.043 a.m.u.; force const. is 1.215 mDyne/Ang.
Fe        0.6734   -0.3855    0.1306   -0.0000    0.0000    0.0000
N         3.9138    0.5779    0.1328    0.0002    0.0007   -0.0000
N         1.6368   -3.6259    0.1334    0.0007   -0.0002    0.0000
N        -0.2395   -2.0709    0.1309   -0.0040   -0.0075    0.0000
N        -1.0120    0.5273    0.1286   -0.0075    0.0040   -0.0000
N         1.5863    1.2998    0.1304    0.0040    0.0075   -0.0000
N         2.3588   -1.2984    0.1326    0.0075   -0.0040    0.0000
N        -0.2900    2.8548    0.1277   -0.0007    0.0002   -0.0000
N        -2.5670   -1.3489    0.1285   -0.0002   -0.0007    0.0000
C        -2.6308    2.2050    0.1263   -0.0003   -0.0072    0.0000
C        -1.2119    1.9066    0.1276   -0.0025    0.0011   -0.0000
C         1.0001    2.5643    0.1290    0.0007    0.0013   -0.0000
C         2.0252    3.5895    0.1292    0.0058   -0.0067    0.0000
C        -3.3016    0.9663    0.1265    0.0067    0.0058   -0.0000
C        -2.2764   -0.0588    0.1280   -0.0013    0.0007   -0.0000
C        -0.6092   -5.7583    0.1333    0.0386    0.0127    0.0000
C        -3.1252   -4.3959    0.1301   -0.0092    0.0377   -0.0000
C        -1.8137   -6.4621    0.1328    0.0201   -0.0604    0.0001
C        -4.6993    0.8970    0.1255    0.0127   -0.0385    0.0000
C        -3.3370    3.4131    0.1250    0.0376    0.0092    0.0001
C        -5.4031    2.1016    0.1242   -0.0604   -0.0201    0.0000
C        -3.0557   -5.7893    0.1313   -0.0620   -0.0157   -0.0000
C        -1.6188   -2.2708    0.1299   -0.0011   -0.0025    0.0000
C        -1.9171   -3.6897    0.1307    0.0072   -0.0003    0.0000
C         3.2639    2.9186    0.1308   -0.0072    0.0003   -0.0000
C         2.9656    1.4998    0.1315    0.0011    0.0025   -0.0000
C        -4.7303    3.3435    0.1239   -0.0156    0.0619   -0.0001
C         3.6232   -0.7123    0.1333    0.0013   -0.0007    0.0000
C         4.6484   -1.7374    0.1346   -0.0067   -0.0058    0.0000
C         2.5587   -2.6777    0.1336    0.0025   -0.0011    0.0000
C         3.9776   -2.9761    0.1348    0.0003    0.0072   -0.0000
C        -0.6784   -4.3606    0.1322   -0.0058    0.0067   -0.0000
C         0.3466   -3.3353    0.1323   -0.0007   -0.0013    0.0000
C         1.9559    4.9872    0.1281   -0.0385   -0.0127   -0.0000
C         4.4720    3.6248    0.1315    0.0092   -0.0376    0.0000
C         3.1605    5.6910    0.1287   -0.0201    0.0603   -0.0001
C         4.4025    5.0182    0.1304    0.0619    0.0156    0.0001
C         6.0461   -1.6681    0.1356   -0.0127    0.0386   -0.0000
C         4.6838   -4.1842    0.1359   -0.0377   -0.0092   -0.0000
C         6.7499   -2.8727    0.1368    0.0605    0.0201   -0.0000
C         6.0771   -4.1146    0.1369    0.0157   -0.0621    0.0001
H         6.5562   -0.7047    0.1355   -0.1705    0.1266   -0.0003
H         4.1560   -5.1380    0.1360   -0.1914    0.0715   -0.0000
H         6.6624   -5.0353    0.1378   -0.0444   -0.1058   -0.0003
H        -5.2094   -0.0664    0.1257    0.1701   -0.1263    0.0003
H        -2.8092    4.3669    0.1248    0.1909   -0.0713    0.0000
H        -5.3156    4.2642    0.1229    0.0443    0.1056    0.0004
H        -6.4939    2.0893    0.1234   -0.0644   -0.0839   -0.0003
H         0.3542   -6.2683    0.1345    0.1263    0.1702    0.0000
H        -4.0791   -3.8681    0.1290    0.0714    0.1910   -0.0001
H        -3.9763   -6.3745    0.1309   -0.1056    0.0443   -0.0001
H        -1.8014   -7.5529    0.1337    0.0839   -0.0645    0.0001
H         0.9926    5.4972    0.1268   -0.1262   -0.1700   -0.0000
H         5.4259    3.0971    0.1328   -0.0713   -0.1908    0.0001
H         5.3231    5.6035    0.1309    0.1055   -0.0443    0.0000
H         3.1482    6.7818    0.1279   -0.0838    0.0644   -0.0001
H         7.8407   -2.8603    0.1376    0.0646    0.0841    0.0002
    57
stable frequency at   1024.328 1/cm IR int. is 9.773 a.m.u.; force const. is 6.042 mDyne/Ang.
Fe        0.6734   -0.3855    0.1306   -0.0000   -0.0000   -0.0000
N         3.9138    0.5779    0.1328   -0.0482   -0.0144   -0.0000
N         1.6368   -3.6259    0.1334    0.0144   -0.0482    0.0000
N        -0.2395   -2.0709    0.1309   -0.0688    0.0381   -0.0001
N        -1.0120    0.5273    0.1286   -0.0381   -0.0688    0.0000
N         1.5863    1.2998    0.1304    0.0688   -0.0381    0.0001
N         2.3588   -1.2984    0.1326    0.0381    0.0688   -0.0000
N        -0.2900    2.8548    0.1277   -0.0144    0.0482   -0.0000
N        -2.5670   -1.3489    0.1285    0.0482    0.0144    0.0000
C        -2.6308    2.2050    0.1263   -0.0348   -0.0103   -0.0000
C        -1.2119    1.9066    0.1276   -0.0312    0.0062   -0.0000
C         1.0001    2.5643    0.1290    0.0226    0.0222    0.0000
C         2.0252    3.5895    0.1292    0.0347    0.0115    0.0000
C        -3.3016    0.9663    0.1265    0.0115   -0.0347    0.0000
C        -2.2764   -0.0588    0.1280    0.0222   -0.0226    0.0000
C        -0.6092   -5.7583    0.1333    0.0323   -0.0241    0.0000
C        -3.1252   -4.3959    0.1301    0.0387   -0.0178    0.0000
C        -1.8137   -6.4621    0.1328   -0.0037    0.0342   -0.0000
C        -4.6993    0.8970    0.1255    0.0241    0.0323   -0.0000
C        -3.3370    3.4131    0.1250    0.0178    0.0387   -0.0000
C        -5.4031    2.1016    0.1242   -0.0342   -0.0037   -0.0000
C        -3.0557   -5.7893    0.1313   -0.0243   -0.0140   -0.0000
C        -1.6188   -2.2708    0.1299    0.0062    0.0312   -0.0000
C        -1.9171   -3.6897    0.1307   -0.0103    0.0348   -0.0000
C         3.2639    2.9186    0.1308    0.0103   -0.0348    0.0000
C         2.9656    1.4998    0.1315   -0.0062   -0.0312    0.0000
C        -4.7303    3.3435    0.1239    0.0140   -0.0243    0.0000
C         3.6232   -0.7123    0.1333   -0.0222    0.0226   -0.0000
C         4.6484   -1.7374    0.1346   -0.0115    0.0347   -0.0000
C         2.5587   -2.6777    0.1336    0.0312   -0.0062    0.0000
C         3.9776   -2.9761    0.1348    0.0348    0.0103    0.0000
C        -0.6784   -4.3606    0.1322   -0.0347   -0.0115   -0.0000
C         0.3466   -3.3353    0.1323   -0.0226   -0.0222   -0.0000
C         1.9559    4.9872    0.1281   -0.0323    0.0241   -0.0000
C         4.4720    3.6248    0.1315   -0.0387    0.0178   -0.0001
C         3.1605    5.6910    0.1287    0.0037   -0.0342    0.0000
C         4.4025    5.0182    0.1304    0.0243    0.0140    0.0000
C         6.0461   -1.6681    0.1356   -0.0241   -0.0323    0.0000
C         4.6838   -4.1842    0.1359   -0.0178   -0.0387    0.0000
C         6.7499   -2.8727    0.1368    0.0342    0.0037    0.0000
C         6.0771   -4.1146    0.1369   -0.0140    0.0243   -0.0000
H         6.5562   -0.7047    0.1355   -0.0281   -0.0304   -0.0000
H         4.1560   -5.1380    0.1360   -0.0267   -0.0344   -0.0000
H         6.6624   -5.0353    0.1378    0.0026    0.0340    0.0001
H        -5.2094   -0.0664    0.1257    0.0281    0.0304   -0.0000
H        -2.8092    4.3669    0.1248    0.0268    0.0344    0.0000
H        -5.3156    4.2642    0.1229   -0.0026   -0.0340   -0.0001
H        -6.4939    2.0893    0.1234   -0.0338   -0.0294   -0.0000
H         0.3542   -6.2683    0.1345    0.0304   -0.0281    0.0001
H        -4.0791   -3.8681    0.1290    0.0344   -0.0267    0.0000
H        -3.9763   -6.3745    0.1309   -0.0340    0.0026    0.0000
H        -1.8014   -7.5529    0.1337   -0.0294    0.0338   -0.0001
H         0.9926    5.4972    0.1268   -0.0304    0.0281   -0.0001
H         5.4259    3.0971    0.1328   -0.0344    0.0267   -0.0000
H         5.3231    5.6035    0.1309    0.0340   -0.0026   -0.0000
H         3.1482    6.7818    0.1279    0.0294   -0.0338    0.0002
H         7.8407   -2.8603    0.1376    0.0338    0.0294    0.0000
    57
stable frequency at   1040.435 1/cm IR int. is 11.373 a.m.u.; force const. is 7.254 mDyne/Ang.
Fe        0.6734   -0.3855    0.1306   -0.0107   -0.0014   -0.0000
N         3.9138    0.5779    0.1328   -0.0342   -0.0037   -0.0000
N         1.6368   -3.6259    0.1334   -0.0391   -0.0059   -0.0000
N        -0.2395   -2.0709    0.1309    0.1020   -0.0371    0.0001
N        -1.0120    0.5273    0.1286    0.0568    0.0577    0.0000
N         1.5863    1.2998    0.1304    0.1020   -0.0371    0.0001
N         2.3588   -1.2984    0.1326    0.0568    0.0576    0.0000
N        -0.2900    2.8548    0.1277   -0.0391   -0.0060   -0.0000
N        -2.5670   -1.3489    0.1285   -0.0342   -0.0037   -0.0000
C        -2.6308    2.2050    0.1263    0.0047   -0.0015    0.0000
C        -1.2119    1.9066    0.1276   -0.0003   -0.0520    0.0000
C         1.0001    2.5643    0.1290   -0.0217    0.0564   -0.0001
C         2.0252    3.5895    0.1292    0.0138    0.0083    0.0000
C        -3.3016    0.9663    0.1265   -0.0123    0.0316   -0.0000
C        -2.2764   -0.0588    0.1280   -0.0326    0.0257   -0.0000
C        -0.6092   -5.7583    0.1333   -0.0130    0.0110   -0.0000
C        -3.1252   -4.3959    0.1301   -0.0076   -0.0009   -0.0000
C        -1.8137   -6.4621    0.1328   -0.0055   -0.0199    0.0000
C        -4.6993    0.8970    0.1255   -0.0039    0.0014   -0.0000
C        -3.3370    3.4131    0.1250   -0.0058   -0.0144    0.0000
C        -5.4031    2.1016    0.1242    0.0245   -0.0049    0.0000
C        -3.0557   -5.7893    0.1313    0.0207    0.0211    0.0000
C        -1.6188   -2.2708    0.1299   -0.0310   -0.0413    0.0000
C        -1.9171   -3.6897    0.1307    0.0070   -0.0364    0.0000
C         3.2639    2.9186    0.1308    0.0070   -0.0364    0.0000
C         2.9656    1.4998    0.1315   -0.0310   -0.0413   -0.0000
C        -4.7303    3.3435    0.1239   -0.0091    0.0067   -0.0000
C         3.6232   -0.7123    0.1333   -0.0326    0.0257   -0.0000
C         4.6484   -1.7374    0.1346   -0.0123    0.0316   -0.0000
C         2.5587   -2.6777    0.1336   -0.0003   -0.0520    0.0000
C         3.9776   -2.9761    0.1348    0.0047   -0.0015    0.0000
C        -0.6784   -4.3606    0.1322    0.0138    0.0083    0.0000
C         0.3466   -3.3353    0.1323   -0.0217    0.0564   -0.0001
C         1.9559    4.9872    0.1281   -0.0130    0.0110   -0.0000
C         4.4720    3.6248    0.1315   -0.0076   -0.0009   -0.0000
C         3.1605    5.6910    0.1287   -0.0055   -0.0199    0.0000
C         4.4025    5.0182    0.1304    0.0207    0.0211    0.0000
C         6.0461   -1.6681    0.1356   -0.0039    0.0014   -0.0000
C         4.6838   -4.1842    0.1359   -0.0058   -0.0144    0.0000
C         6.7499   -2.8727    0.1368    0.0245   -0.0049    0.0000
C         6.0771   -4.1146    0.1369   -0.0091    0.0067   -0.0000
H         6.5562   -0.7047    0.1355    0.0035   -0.0009   -0.0000
H         4.1560   -5.1380    0.1360    0.0054   -0.0211    0.0000
H         6.6624   -5.0353    0.1378   -0.0271   -0.0055    0.0000
H        -5.2094   -0.0664    0.1257    0.0035   -0.0009   -0.0000
H        -2.8092    4.3669    0.1248    0.0054   -0.0211    0.0000
H        -5.3156    4.2642    0.1229   -0.0271   -0.0055    0.0000
H        -6.4939    2.0893    0.1234    0.0259   -0.0245    0.0001
H         0.3542   -6.2683    0.1345   -0.0075    0.0212   -0.0001
H        -4.0791   -3.8681    0.1290   -0.0033    0.0042    0.0000
H        -3.9763   -6.3745    0.1309    0.0076    0.0433   -0.0001
H        -1.8014   -7.5529    0.1337   -0.0348   -0.0201    0.0000
H         0.9926    5.4972    0.1268   -0.0075    0.0212   -0.0001
H         5.4259    3.0971    0.1328   -0.0033    0.0042    0.0000
H         5.3231    5.6035    0.1309    0.0076    0.0433   -0.0001
H         3.1482    6.7818    0.1279   -0.0348   -0.0201    0.0000
H         7.8407   -2.8603    0.1376    0.0259   -0.0245    0.0001
    57
stable frequency at   1040.435 1/cm IR int. is 11.373 a.m.u.; force const. is 7.254 mDyne/Ang.
Fe        0.6734   -0.3855    0.1306   -0.0014    0.0107   -0.0000
N         3.9138    0.5779    0.1328   -0.0060    0.0391   -0.0000
N         1.6368   -3.6259    0.1334   -0.0037    0.0342   -0.0000
N        -0.2395   -2.0709    0.1309    0.0576   -0.0568    0.0001
N        -1.0120    0.5273    0.1286   -0.0371   -0.1020    0.0000
N         1.5863    1.2998    0.1304    0.0576   -0.0568    0.0001
N         2.3588   -1.2984    0.1326   -0.0371   -0.1020    0.0000
N        -0.2900    2.8548    0.1277   -0.0037    0.0342   -0.0000
N        -2.5670   -1.3489    0.1285   -0.0059    0.0391   -0.0000
C        -2.6308    2.2050    0.1263   -0.0364   -0.0070   -0.0000
C        -1.2119    1.9066    0.1276   -0.0413    0.0310   -0.0001
C         1.0001    2.5643    0.1290    0.0257    0.0326    0.0000
C         2.0252    3.5895    0.1292    0.0316    0.0123    0.0000
C        -3.3016    0.9663    0.1265    0.0083   -0.0138    0.0000
C        -2.2764   -0.0588    0.1280    0.0564    0.0217    0.0000
C        -0.6092   -5.7583    0.1333    0.0014    0.0039   -0.0000
C        -3.1252   -4.3959    0.1301   -0.0144    0.0058   -0.0000
C        -1.8137   -6.4621    0.1328   -0.0049   -0.0245    0.0000
C        -4.6993    0.8970    0.1255    0.0110    0.0130   -0.0000
C        -3.3370    3.4131    0.1250   -0.0009    0.0076   -0.0000
C        -5.4031    2.1016    0.1242   -0.0199    0.0055   -0.0000
C        -3.0557   -5.7893    0.1313    0.0067    0.0091    0.0000
C        -1.6188   -2.2708    0.1299   -0.0520    0.0003   -0.0000
C        -1.9171   -3.6897    0.1307   -0.0015   -0.0047    0.0000
C         3.2639    2.9186    0.1308   -0.0015   -0.0047    0.0000
C         2.9656    1.4998    0.1315   -0.0520    0.0003   -0.0000
C        -4.7303    3.3435    0.1239    0.0211   -0.0207    0.0000
C         3.6232   -0.7123    0.1333    0.0564    0.0217    0.0000
C         4.6484   -1.7374    0.1346    0.0083   -0.0138    0.0000
C         2.5587   -2.6777    0.1336   -0.0413    0.0310   -0.0000
C         3.9776   -2.9761    0.1348   -0.0364   -0.0070   -0.0000
C        -0.6784   -4.3606    0.1322    0.0316    0.0123    0.0000
C         0.3466   -3.3353    0.1323    0.0257    0.0326   -0.0000
C         1.9559    4.9872    0.1281    0.0014    0.0039    0.0000
C         4.4720    3.6248    0.1315   -0.0144    0.0058   -0.0000
C         3.1605    5.6910    0.1287   -0.0049   -0.0245    0.0000
C         4.4025    5.0182    0.1304    0.0067    0.0091    0.0000
C         6.0461   -1.6681    0.1356    0.0110    0.0130   -0.0000
C         4.6838   -4.1842    0.1359   -0.0009    0.0076   -0.0000
C         6.7499   -2.8727    0.1368   -0.0199    0.0055   -0.0000
C         6.0771   -4.1146    0.1369    0.0211   -0.0207    0.0000
H         6.5562   -0.7047    0.1355    0.0212    0.0075    0.0000
H         4.1560   -5.1380    0.1360    0.0042    0.0033    0.0000
H         6.6624   -5.0353    0.1378    0.0433   -0.0076   -0.0001
H        -5.2094   -0.0664    0.1257    0.0212    0.0075    0.0000
H        -2.8092    4.3669    0.1248    0.0042    0.0033    0.0000
H        -5.3156    4.2642    0.1229    0.0433   -0.0076   -0.0001
H        -6.4939    2.0893    0.1234   -0.0201    0.0348   -0.0000
H         0.3542   -6.2683    0.1345   -0.0009   -0.0035   -0.0000
H        -4.0791   -3.8681    0.1290   -0.0211   -0.0054   -0.0000
H        -3.9763   -6.3745    0.1309   -0.0055    0.0271   -0.0000
H        -1.8014   -7.5529    0.1337   -0.0245   -0.0259    0.0000
H         0.9926    5.4972    0.1268   -0.0009   -0.0035   -0.0000
H         5.4259    3.0971    0.1328   -0.0211   -0.0054   -0.0000
H         5.3231    5.6035    0.1309   -0.0055    0.0271   -0.0001
H         3.1482    6.7818    0.1279   -0.0245   -0.0259    0.0000
H         7.8407   -2.8603    0.1376   -0.0201    0.0348   -0.0000
    57
stable frequency at   1073.653 1/cm IR int. is 2.653 a.m.u.; force const. is 1.802 mDyne/Ang.
Fe        0.6734   -0.3855    0.1306   -0.0010    0.0013   -0.0000
N         3.9138    0.5779    0.1328   -0.0125    0.0150   -0.0000
N         1.6368   -3.6259    0.1334   -0.0127    0.0151   -0.0000
N        -0.2395   -2.0709    0.1309   -0.0267   -0.0020   -0.0000
N        -1.0120    0.5273    0.1286    0.0334   -0.0074    0.0000
N         1.5863    1.2998    0.1304   -0.0267   -0.0020   -0.0000
N         2.3588   -1.2984    0.1326    0.0334   -0.0074    0.0000
N        -0.2900    2.8548    0.1277   -0.0127    0.0151   -0.0000
N        -2.5670   -1.3489    0.1285   -0.0125    0.0150   -0.0000
C        -2.6308    2.2050    0.1263   -0.0471   -0.0154   -0.0000
C        -1.2119    1.9066    0.1276   -0.0064   -0.0122    0.0000
C         1.0001    2.5643    0.1290    0.0161   -0.0323    0.0000
C         2.0252    3.5895    0.1292    0.0566    0.0014    0.0001
C        -3.3016    0.9663    0.1265   -0.0169    0.0134   -0.0000
C        -2.2764   -0.0588    0.1280   -0.0218   -0.0000   -0.0000
C        -0.6092   -5.7583    0.1333   -0.0614    0.0230   -0.0001
C        -3.1252   -4.3959    0.1301   -0.0621    0.0446   -0.0001
C        -1.8137   -6.4621    0.1328    0.0276   -0.0213    0.0000
C        -4.6993    0.8970    0.1255    0.0167    0.0338   -0.0000
C        -3.3370    3.4131    0.1250    0.0140    0.0137    0.0000
C        -5.4031    2.1016    0.1242    0.0026   -0.0101    0.0000
C        -3.0557   -5.7893    0.1313    0.0201   -0.0159    0.0000
C        -1.6188   -2.2708    0.1299    0.0387    0.0114    0.0000
C        -1.9171   -3.6897    0.1307    0.0267   -0.0186    0.0000
C         3.2639    2.9186    0.1308    0.0267   -0.0186    0.0000
C         2.9656    1.4998    0.1315    0.0387    0.0114    0.0000
C        -4.7303    3.3435    0.1239   -0.0007   -0.0178    0.0000
C         3.6232   -0.7123    0.1333   -0.0218   -0.0000   -0.0000
C         4.6484   -1.7374    0.1346   -0.0169    0.0134   -0.0000
C         2.5587   -2.6777    0.1336   -0.0064   -0.0122    0.0000
C         3.9776   -2.9761    0.1348   -0.0471   -0.0154   -0.0000
C        -0.6784   -4.3606    0.1322    0.0566    0.0014    0.0000
C         0.3466   -3.3353    0.1323    0.0161   -0.0323    0.0000
C         1.9559    4.9872    0.1281   -0.0614    0.0230   -0.0001
C         4.4720    3.6248    0.1315   -0.0621    0.0446   -0.0001
C         3.1605    5.6910    0.1287    0.0276   -0.0213    0.0000
C         4.4025    5.0182    0.1304    0.0201   -0.0159    0.0000
C         6.0461   -1.6681    0.1356    0.0167    0.0338   -0.0000
C         4.6838   -4.1842    0.1359    0.0140    0.0137    0.0000
C         6.7499   -2.8727    0.1368    0.0026   -0.0101    0.0000
C         6.0771   -4.1146    0.1369   -0.0007   -0.0178    0.0000
H         6.5562   -0.7047    0.1355    0.0392    0.0249    0.0000
H         4.1560   -5.1380    0.1360    0.1169   -0.0426    0.0001
H         6.6624   -5.0353    0.1378   -0.0788   -0.0678   -0.0000
H        -5.2094   -0.0664    0.1257    0.0392    0.0249    0.0000
H        -2.8092    4.3669    0.1248    0.1169   -0.0426    0.0001
H        -5.3156    4.2642    0.1229   -0.0788   -0.0678   -0.0000
H        -6.4939    2.0893    0.1234    0.0047   -0.0588    0.0000
H         0.3542   -6.2683    0.1345   -0.1329   -0.1051   -0.0001
H        -4.0791   -3.8681    0.1290   -0.0234    0.1241   -0.0001
H        -3.9763   -6.3745    0.1309    0.1042   -0.1526    0.0002
H        -1.8014   -7.5529    0.1337    0.2230   -0.0181    0.0002
H         0.9926    5.4972    0.1268   -0.1329   -0.1051   -0.0001
H         5.4259    3.0971    0.1328   -0.0234    0.1241   -0.0001
H         5.3231    5.6035    0.1309    0.1042   -0.1526    0.0002
H         3.1482    6.7818    0.1279    0.2230   -0.0181    0.0003
H         7.8407   -2.8603    0.1376    0.0047   -0.0588    0.0000
    57
stable frequency at   1073.654 1/cm IR int. is 2.653 a.m.u.; force const. is 1.802 mDyne/Ang.
Fe        0.6734   -0.3855    0.1306   -0.0013   -0.0010   -0.0000
N         3.9138    0.5779    0.1328   -0.0151   -0.0127   -0.0000
N         1.6368   -3.6259    0.1334   -0.0150   -0.0125   -0.0000
N        -0.2395   -2.0709    0.1309    0.0074    0.0334   -0.0000
N        -1.0120    0.5273    0.1286    0.0020   -0.0267    0.0000
N         1.5863    1.2998    0.1304    0.0074    0.0334   -0.0000
N         2.3588   -1.2984    0.1326    0.0020   -0.0267    0.0000
N        -0.2900    2.8548    0.1277   -0.0150   -0.0125   -0.0000
N        -2.5670   -1.3489    0.1285   -0.0151   -0.0127   -0.0000
C        -2.6308    2.2050    0.1263    0.0186    0.0267   -0.0000
C        -1.2119    1.9066    0.1276   -0.0114    0.0387   -0.0000
C         1.0001    2.5643    0.1290    0.0000   -0.0218    0.0000
C         2.0252    3.5895    0.1292   -0.0134   -0.0169   -0.0000
C        -3.3016    0.9663    0.1265   -0.0014    0.0566   -0.0000
C        -2.2764   -0.0588    0.1280    0.0323    0.0161    0.0000
C        -0.6092   -5.7583    0.1333   -0.0338    0.0167   -0.0000
C        -3.1252   -4.3959    0.1301   -0.0137    0.0140   -0.0000
C        -1.8137   -6.4621    0.1328    0.0101    0.0026    0.0000
C        -4.6993    0.8970    0.1255   -0.0230   -0.0614    0.0000
C        -3.3370    3.4131    0.1250   -0.0446   -0.0621    0.0000
C        -5.4031    2.1016    0.1242    0.0213    0.0276   -0.0000
C        -3.0557   -5.7893    0.1313    0.0178   -0.0007    0.0000
C        -1.6188   -2.2708    0.1299    0.0122   -0.0064    0.0000
C        -1.9171   -3.6897    0.1307    0.0154   -0.0471    0.0000
C         3.2639    2.9186    0.1308    0.0154   -0.0471    0.0000
C         2.9656    1.4998    0.1315    0.0122   -0.0064    0.0000
C        -4.7303    3.3435    0.1239    0.0159    0.0201    0.0000
C         3.6232   -0.7123    0.1333    0.0323    0.0161    0.0000
C         4.6484   -1.7374    0.1346   -0.0014    0.0566   -0.0000
C         2.5587   -2.6777    0.1336   -0.0114    0.0387   -0.0000
C         3.9776   -2.9761    0.1348    0.0186    0.0267    0.0000
C        -0.6784   -4.3606    0.1322   -0.0134   -0.0169    0.0000
C         0.3466   -3.3353    0.1323    0.0000   -0.0218    0.0000
C         1.9559    4.9872    0.1281   -0.0338    0.0167   -0.0000
C         4.4720    3.6248    0.1315   -0.0137    0.0140   -0.0000
C         3.1605    5.6910    0.1287    0.0101    0.0026    0.0000
C         4.4025    5.0182    0.1304    0.0178   -0.0007    0.0000
C         6.0461   -1.6681    0.1356   -0.0230   -0.0614    0.0000
C         4.6838   -4.1842    0.1359   -0.0446   -0.0621   -0.0000
C         6.7499   -2.8727    0.1368    0.0213    0.0276   -0.0000
C         6.0771   -4.1146    0.1369    0.0159    0.0201    0.0000
H         6.5562   -0.7047    0.1355    0.1051   -0.1329    0.0002
H         4.1560   -5.1380    0.1360   -0.1241   -0.0234   -0.0001
H         6.6624   -5.0353    0.1378    0.1526    0.1042    0.0001
H        -5.2094   -0.0664    0.1257    0.1051   -0.1329    0.0002
H        -2.8092    4.3669    0.1248   -0.1241   -0.0234   -0.0001
H        -5.3156    4.2642    0.1229    0.1526    0.1042    0.0001
H        -6.4939    2.0893    0.1234    0.0181    0.2230   -0.0001
H         0.3542   -6.2683    0.1345   -0.0249    0.0392   -0.0001
H        -4.0791   -3.8681    0.1290    0.0426    0.1169   -0.0001
H        -3.9763   -6.3745    0.1309    0.0678   -0.0788    0.0001
H        -1.8014   -7.5529    0.1337    0.0589    0.0047    0.0001
H         0.9926    5.4972    0.1268   -0.0249    0.0392   -0.0001
H         5.4259    3.0971    0.1328    0.0426    0.1169   -0.0000
H         5.3231    5.6035    0.1309    0.0678   -0.0788    0.0001
H         3.1482    6.7818    0.1279    0.0588    0.0047    0.0001
H         7.8407   -2.8603    0.1376    0.0181    0.2230   -0.0001
    57
stable frequency at   1085.316 1/cm IR int. is 6.101 a.m.u.; force const. is 4.234 mDyne/Ang.
Fe        0.6734   -0.3855    0.1306    0.0000    0.0000   -0.0000
N         3.9138    0.5779    0.1328   -0.0074    0.0249   -0.0000
N         1.6368   -3.6259    0.1334    0.0249    0.0074    0.0000
N        -0.2395   -2.0709    0.1309   -0.0792    0.0425   -0.0001
N        -1.0120    0.5273    0.1286    0.0425    0.0792   -0.0000
N         1.5863    1.2998    0.1304    0.0792   -0.0425    0.0001
N         2.3588   -1.2984    0.1326   -0.0425   -0.0792    0.0000
N        -0.2900    2.8548    0.1277   -0.0249   -0.0074   -0.0000
N        -2.5670   -1.3489    0.1285    0.0074   -0.0249    0.0000
C        -2.6308    2.2050    0.1263    0.0175   -0.0077    0.0000
C        -1.2119    1.9066    0.1276    0.0160   -0.0555    0.0000
C         1.0001    2.5643    0.1290   -0.0170    0.0552   -0.0001
C         2.0252    3.5895    0.1292    0.0098    0.0158   -0.0000
C        -3.3016    0.9663    0.1265   -0.0158    0.0098   -0.0000
C        -2.2764   -0.0588    0.1280   -0.0552   -0.0170   -0.0000
C        -0.6092   -5.7583    0.1333   -0.0159    0.0004   -0.0000
C        -3.1252   -4.3959    0.1301   -0.0095    0.0139   -0.0000
C        -1.8137   -6.4621    0.1328    0.0138    0.0126    0.0000
C        -4.6993    0.8970    0.1255    0.0004    0.0159   -0.0000
C        -3.3370    3.4131    0.1250    0.0139    0.0095    0.0000
C        -5.4031    2.1016    0.1242    0.0126   -0.0138    0.0000
C        -3.0557   -5.7893    0.1313   -0.0048   -0.0184    0.0000
C        -1.6188   -2.2708    0.1299    0.0555    0.0160    0.0000
C        -1.9171   -3.6897    0.1307    0.0077    0.0175   -0.0000
C         3.2639    2.9186    0.1308   -0.0077   -0.0175    0.0000
C         2.9656    1.4998    0.1315   -0.0555   -0.0160   -0.0000
C        -4.7303    3.3435    0.1239   -0.0184    0.0048   -0.0000
C         3.6232   -0.7123    0.1333    0.0552    0.0170    0.0000
C         4.6484   -1.7374    0.1346    0.0158   -0.0098    0.0000
C         2.5587   -2.6777    0.1336   -0.0160    0.0555   -0.0000
C         3.9776   -2.9761    0.1348   -0.0175    0.0077   -0.0000
C        -0.6784   -4.3606    0.1322   -0.0098   -0.0158    0.0000
C         0.3466   -3.3353    0.1323    0.0170   -0.0552    0.0001
C         1.9559    4.9872    0.1281    0.0159   -0.0004    0.0000
C         4.4720    3.6248    0.1315    0.0095   -0.0139    0.0000
C         3.1605    5.6910    0.1287   -0.0138   -0.0126   -0.0000
C         4.4025    5.0182    0.1304    0.0048    0.0184   -0.0000
C         6.0461   -1.6681    0.1356   -0.0004   -0.0159    0.0000
C         4.6838   -4.1842    0.1359   -0.0139   -0.0095   -0.0000
C         6.7499   -2.8727    0.1368   -0.0126    0.0138   -0.0000
C         6.0771   -4.1146    0.1369    0.0184   -0.0048    0.0000
H         6.5562   -0.7047    0.1355    0.0279   -0.0330    0.0000
H         4.1560   -5.1380    0.1360   -0.0408    0.0031   -0.0000
H         6.6624   -5.0353    0.1378    0.0875    0.0381   -0.0000
H        -5.2094   -0.0664    0.1257   -0.0279    0.0330   -0.0001
H        -2.8092    4.3669    0.1248    0.0408   -0.0031    0.0000
H        -5.3156    4.2642    0.1229   -0.0874   -0.0381    0.0000
H        -6.4939    2.0893    0.1234    0.0144   -0.1037    0.0001
H         0.3542   -6.2683    0.1345   -0.0330   -0.0279   -0.0000
H        -4.0791   -3.8681    0.1290    0.0031    0.0408   -0.0000
H        -3.9763   -6.3745    0.1309    0.0381   -0.0875    0.0001
H        -1.8014   -7.5529    0.1337    0.1037    0.0144    0.0001
H         0.9926    5.4972    0.1268    0.0330    0.0279    0.0000
H         5.4259    3.0971    0.1328   -0.0031   -0.0408    0.0000
H         5.3231    5.6035    0.1309   -0.0381    0.0875   -0.0001
H         3.1482    6.7818    0.1279   -0.1037   -0.0144   -0.0001
H         7.8407   -2.8603    0.1376   -0.0144    0.1037   -0.0001
    57
stable frequency at   1090.276 1/cm IR int. is 2.006 a.m.u.; force const. is 1.405 mDyne/Ang.
Fe        0.6734   -0.3855    0.1306   -0.0000    0.0000    0.0000
N         3.9138    0.5779    0.1328   -0.0078    0.0264   -0.0000
N         1.6368   -3.6259    0.1334    0.0264    0.0078    0.0000
N        -0.2395   -2.0709    0.1309   -0.0263    0.0153   -0.0000
N        -1.0120    0.5273    0.1286    0.0154    0.0263   -0.0000
N         1.5863    1.2998    0.1304    0.0263   -0.0153    0.0000
N         2.3588   -1.2984    0.1326   -0.0154   -0.0263    0.0000
N        -0.2900    2.8548    0.1277   -0.0264   -0.0078   -0.0000
N        -2.5670   -1.3489    0.1285    0.0078   -0.0264    0.0000
C        -2.6308    2.2050    0.1263    0.0278    0.0198    0.0000
C        -1.2119    1.9066    0.1276   -0.0101   -0.0130   -0.0000
C         1.0001    2.5643    0.1290   -0.0153    0.0055   -0.0000
C         2.0252    3.5895    0.1292    0.0357   -0.0006    0.0000
C        -3.3016    0.9663    0.1265    0.0006    0.0356   -0.0000
C        -2.2764   -0.0588    0.1280   -0.0055   -0.0153    0.0000
C        -0.6092   -5.7583    0.1333    0.0478   -0.0125    0.0000
C        -3.1252   -4.3959    0.1301    0.0380   -0.0355    0.0001
C        -1.8137   -6.4621    0.1328   -0.0222    0.0144   -0.0000
C        -4.6993    0.8970    0.1255   -0.0125   -0.0478    0.0000
C        -3.3370    3.4131    0.1250   -0.0354   -0.0379   -0.0000
C        -5.4031    2.1016    0.1242    0.0144    0.0221   -0.0000
C        -3.0557   -5.7893    0.1313   -0.0198    0.0110   -0.0000
C        -1.6188   -2.2708    0.1299    0.0130   -0.0101    0.0000
C        -1.9171   -3.6897    0.1307   -0.0198    0.0278   -0.0000
C         3.2639    2.9186    0.1308    0.0198   -0.0278    0.0000
C         2.9656    1.4998    0.1315   -0.0130    0.0101   -0.0000
C        -4.7303    3.3435    0.1239    0.0110    0.0198    0.0000
C         3.6232   -0.7123    0.1333    0.0055    0.0153   -0.0000
C         4.6484   -1.7374    0.1346   -0.0006   -0.0356    0.0000
C         2.5587   -2.6777    0.1336    0.0101    0.0130    0.0000
C         3.9776   -2.9761    0.1348   -0.0278   -0.0198   -0.0000
C        -0.6784   -4.3606    0.1322   -0.0357    0.0006   -0.0000
C         0.3466   -3.3353    0.1323    0.0153   -0.0055    0.0000
C         1.9559    4.9872    0.1281   -0.0478    0.0125   -0.0000
C         4.4720    3.6248    0.1315   -0.0380    0.0355   -0.0001
C         3.1605    5.6910    0.1287    0.0222   -0.0144    0.0000
C         4.4025    5.0182    0.1304    0.0198   -0.0110    0.0000
C         6.0461   -1.6681    0.1356    0.0125    0.0478   -0.0000
C         4.6838   -4.1842    0.1359    0.0354    0.0379    0.0000
C         6.7499   -2.8727    0.1368   -0.0144   -0.0221    0.0000
C         6.0771   -4.1146    0.1369   -0.0110   -0.0198   -0.0000
H         6.5562   -0.7047    0.1355   -0.1169    0.1198   -0.0002
H         4.1560   -5.1380    0.1360    0.1630   -0.0286    0.0001
H         6.6624   -5.0353    0.1378   -0.1321   -0.0952   -0.0000
H        -5.2094   -0.0664    0.1257    0.1169   -0.1198    0.0002
H        -2.8092    4.3669    0.1248   -0.1630    0.0286   -0.0001
H        -5.3156    4.2642    0.1229    0.1321    0.0952    0.0000
H        -6.4939    2.0893    0.1234    0.0117    0.1774   -0.0001
H         0.3542   -6.2683    0.1345    0.1199    0.1170    0.0001
H        -4.0791   -3.8681    0.1290   -0.0286   -0.1631    0.0001
H        -3.9763   -6.3745    0.1309   -0.0953    0.1322   -0.0002
H        -1.8014   -7.5529    0.1337   -0.1775    0.0117   -0.0002
H         0.9926    5.4972    0.1268   -0.1199   -0.1170   -0.0001
H         5.4259    3.0971    0.1328    0.0286    0.1631   -0.0001
H         5.3231    5.6035    0.1309    0.0953   -0.1322    0.0002
H         3.1482    6.7818    0.1279    0.1775   -0.0117    0.0002
H         7.8407   -2.8603    0.1376   -0.0117   -0.1774    0.0001
    57
stable frequency at   1092.075 1/cm IR int. is 1.792 a.m.u.; force const. is 1.259 mDyne/Ang.
Fe        0.6734   -0.3855    0.1306   -0.0000   -0.0000    0.0000
N         3.9138    0.5779    0.1328   -0.0019   -0.0007   -0.0000
N         1.6368   -3.6259    0.1334    0.0007   -0.0019    0.0000
N        -0.2395   -2.0709    0.1309    0.0328   -0.0173    0.0000
N        -1.0120    0.5273    0.1286    0.0173    0.0327   -0.0000
N         1.5863    1.2998    0.1304   -0.0328    0.0173   -0.0000
N         2.3588   -1.2984    0.1326   -0.0173   -0.0327    0.0000
N        -0.2900    2.8548    0.1277   -0.0007    0.0019   -0.0000
N        -2.5670   -1.3489    0.1285    0.0019    0.0007    0.0000
C        -2.6308    2.2050    0.1263   -0.0033   -0.0175    0.0000
C        -1.2119    1.9066    0.1276    0.0220   -0.0248    0.0000
C         1.0001    2.5643    0.1290   -0.0054   -0.0327    0.0000
C         2.0252    3.5895    0.1292    0.0135   -0.0123    0.0000
C        -3.3016    0.9663    0.1265   -0.0123   -0.0135   -0.0000
C        -2.2764   -0.0588    0.1280   -0.0327    0.0054   -0.0000
C        -0.6092   -5.7583    0.1333    0.0445   -0.0049    0.0000
C        -3.1252   -4.3959    0.1301    0.0297   -0.0359    0.0001
C        -1.8137   -6.4621    0.1328   -0.0263   -0.0021   -0.0000
C        -4.6993    0.8970    0.1255    0.0049    0.0445   -0.0000
C        -3.3370    3.4131    0.1250    0.0359    0.0297    0.0000
C        -5.4031    2.1016    0.1242    0.0021   -0.0263    0.0000
C        -3.0557   -5.7893    0.1313   -0.0089    0.0229   -0.0000
C        -1.6188   -2.2708    0.1299   -0.0248   -0.0220   -0.0000
C        -1.9171   -3.6897    0.1307   -0.0175    0.0033   -0.0000
C         3.2639    2.9186    0.1308    0.0175   -0.0033    0.0000
C         2.9656    1.4998    0.1315    0.0248    0.0220    0.0000
C        -4.7303    3.3435    0.1239   -0.0229   -0.0090   -0.0000
C         3.6232   -0.7123    0.1333    0.0327   -0.0054    0.0000
C         4.6484   -1.7374    0.1346    0.0123    0.0135    0.0000
C         2.5587   -2.6777    0.1336   -0.0220    0.0248   -0.0000
C         3.9776   -2.9761    0.1348    0.0033    0.0175   -0.0000
C        -0.6784   -4.3606    0.1322   -0.0135    0.0123   -0.0000
C         0.3466   -3.3353    0.1323    0.0054    0.0327   -0.0000
C         1.9559    4.9872    0.1281   -0.0445    0.0049   -0.0000
C         4.4720    3.6248    0.1315   -0.0297    0.0359   -0.0001
C         3.1605    5.6910    0.1287    0.0263    0.0021    0.0000
C         4.4025    5.0182    0.1304    0.0089   -0.0229    0.0000
C         6.0461   -1.6681    0.1356   -0.0049   -0.0445    0.0000
C         4.6838   -4.1842    0.1359   -0.0359   -0.0297   -0.0000
C         6.7499   -2.8727    0.1368   -0.0021    0.0263   -0.0000
C         6.0771   -4.1146    0.1369    0.0229    0.0090    0.0000
H         6.5562   -0.7047    0.1355    0.1142   -0.1117    0.0002
H         4.1560   -5.1380    0.1360   -0.1534    0.0309   -0.0001
H         6.6624   -5.0353    0.1378    0.1651    0.0976    0.0001
H        -5.2094   -0.0664    0.1257   -0.1142    0.1117   -0.0002
H        -2.8092    4.3669    0.1248    0.1534   -0.0309    0.0001
H        -5.3156    4.2642    0.1229   -0.1651   -0.0976   -0.0001
H        -6.4939    2.0893    0.1234    0.0054   -0.2075    0.0001
H         0.3542   -6.2683    0.1345    0.1117    0.1142    0.0000
H        -4.0791   -3.8681    0.1290   -0.0309   -0.1533    0.0001
H        -3.9763   -6.3745    0.1309   -0.0976    0.1650   -0.0002
H        -1.8014   -7.5529    0.1337   -0.2074   -0.0054   -0.0002
H         0.9926    5.4972    0.1268   -0.1117   -0.1141   -0.0001
H         5.4259    3.0971    0.1328    0.0309    0.1533   -0.0001
H         5.3231    5.6035    0.1309    0.0976   -0.1650    0.0002
H         3.1482    6.7818    0.1279    0.2074    0.0054    0.0002
H         7.8407   -2.8603    0.1376   -0.0054    0.2075   -0.0001
    57
stable frequency at   1112.840 1/cm IR int. is 1.729 a.m.u.; force const. is 1.262 mDyne/Ang.
Fe        0.6734   -0.3855    0.1306   -0.0013   -0.0003   -0.0000
N         3.9138    0.5779    0.1328   -0.0016   -0.0011   -0.0000
N         1.6368   -3.6259    0.1334    0.0085    0.0030    0.0000
N        -0.2395   -2.0709    0.1309   -0.0030    0.0378   -0.0000
N        -1.0120    0.5273    0.1286    0.0265   -0.0333    0.0000
N         1.5863    1.2998    0.1304   -0.0030    0.0378   -0.0000
N         2.3588   -1.2984    0.1326    0.0265   -0.0333    0.0000
N        -0.2900    2.8548    0.1277    0.0085    0.0030    0.0000
N        -2.5670   -1.3489    0.1285   -0.0016   -0.0011   -0.0000
C        -2.6308    2.2050    0.1263   -0.0495   -0.0063   -0.0000
C        -1.2119    1.9066    0.1276    0.0084    0.0269   -0.0000
C         1.0001    2.5643    0.1290    0.0251   -0.0184    0.0000
C         2.0252    3.5895    0.1292   -0.0363   -0.0166   -0.0000
C        -3.3016    0.9663    0.1265   -0.0278    0.0427   -0.0000
C        -2.2764   -0.0588    0.1280   -0.0034    0.0128   -0.0000
C        -0.6092   -5.7583    0.1333    0.0085    0.0131   -0.0000
C        -3.1252   -4.3959    0.1301    0.0163   -0.0238    0.0000
C        -1.8137   -6.4621    0.1328   -0.0247    0.0109   -0.0000
C        -4.6993    0.8970    0.1255    0.0040    0.0288   -0.0000
C        -3.3370    3.4131    0.1250    0.0121   -0.0072    0.0000
C        -5.4031    2.1016    0.1242    0.0182   -0.0010    0.0000
C        -3.0557   -5.7893    0.1313    0.0128    0.0121    0.0000
C        -1.6188   -2.2708    0.1299    0.0105   -0.0136    0.0000
C        -1.9171   -3.6897    0.1307   -0.0007   -0.0432    0.0000
C         3.2639    2.9186    0.1308   -0.0007   -0.0432    0.0000
C         2.9656    1.4998    0.1315    0.0105   -0.0136    0.0000
C        -4.7303    3.3435    0.1239   -0.0128   -0.0242    0.0000
C         3.6232   -0.7123    0.1333   -0.0034    0.0128   -0.0000
C         4.6484   -1.7374    0.1346   -0.0278    0.0427   -0.0000
C         2.5587   -2.6777    0.1336    0.0084    0.0269   -0.0000
C         3.9776   -2.9761    0.1348   -0.0495   -0.0063   -0.0000
C        -0.6784   -4.3606    0.1322   -0.0363   -0.0166   -0.0000
C         0.3466   -3.3353    0.1323    0.0251   -0.0185    0.0000
C         1.9559    4.9872    0.1281    0.0085    0.0131   -0.0000
C         4.4720    3.6248    0.1315    0.0163   -0.0238    0.0000
C         3.1605    5.6910    0.1287   -0.0247    0.0109   -0.0000
C         4.4025    5.0182    0.1304    0.0128    0.0121    0.0000
C         6.0461   -1.6681    0.1356    0.0040    0.0289   -0.0000
C         4.6838   -4.1842    0.1359    0.0121   -0.0072    0.0000
C         6.7499   -2.8727    0.1368    0.0182   -0.0010    0.0000
C         6.0771   -4.1146    0.1369   -0.0128   -0.0242    0.0000
H         6.5562   -0.7047    0.1355    0.0586    0.0034    0.0000
H         4.1560   -5.1380    0.1360    0.2488   -0.1372    0.0003
H         6.6624   -5.0353    0.1378   -0.1920   -0.1398   -0.0001
H        -5.2094   -0.0664    0.1257    0.0586    0.0034    0.0000
H        -2.8092    4.3669    0.1248    0.2488   -0.1372    0.0003
H        -5.3156    4.2642    0.1229   -0.1920   -0.1398   -0.0001
H        -6.4939    2.0893    0.1234    0.0202    0.0364    0.0000
H         0.3542   -6.2683    0.1345    0.1287    0.2380   -0.0001
H        -4.0791   -3.8681    0.1290    0.0287   -0.0075    0.0000
H        -3.9763   -6.3745    0.1309    0.0217    0.0024    0.0000
H        -1.8014   -7.5529    0.1337   -0.2321    0.0097   -0.0002
H         0.9926    5.4972    0.1268    0.1287    0.2380   -0.0000
H         5.4259    3.0971    0.1328    0.0287   -0.0075    0.0000
H         5.3231    5.6035    0.1309    0.0217    0.0024    0.0000
H         3.1482    6.7818    0.1279   -0.2321    0.0097   -0.0002
H         7.8407   -2.8603    0.1376    0.0202    0.0364    0.0000
    57
stable frequency at   1112.842 1/cm IR int. is 1.729 a.m.u.; force const. is 1.262 mDyne/Ang.
Fe        0.6734   -0.3855    0.1306    0.0003   -0.0013    0.0000
N         3.9138    0.5779    0.1328   -0.0030    0.0085   -0.0000
N         1.6368   -3.6259    0.1334    0.0011   -0.0016    0.0000
N        -0.2395   -2.0709    0.1309    0.0333    0.0265    0.0000
N        -1.0120    0.5273    0.1286   -0.0378   -0.0030   -0.0000
N         1.5863    1.2998    0.1304    0.0333    0.0265    0.0000
N         2.3588   -1.2984    0.1326   -0.0378   -0.0030   -0.0000
N        -0.2900    2.8548    0.1277    0.0011   -0.0016    0.0000
N        -2.5670   -1.3489    0.1285   -0.0030    0.0085   -0.0000
C        -2.6308    2.2050    0.1263    0.0432   -0.0007    0.0000
C        -1.2119    1.9066    0.1276    0.0136    0.0105    0.0000
C         1.0001    2.5643    0.1290   -0.0128   -0.0034   -0.0000
C         2.0252    3.5895    0.1292   -0.0427   -0.0278   -0.0000
C        -3.3016    0.9663    0.1265    0.0166   -0.0363    0.0000
C        -2.2764   -0.0588    0.1280    0.0184    0.0251   -0.0000
C        -0.6092   -5.7583    0.1333   -0.0289    0.0040   -0.0000
C        -3.1252   -4.3959    0.1301    0.0072    0.0121   -0.0000
C        -1.8137   -6.4621    0.1328    0.0010    0.0182   -0.0000
C        -4.6993    0.8970    0.1255   -0.0131    0.0085   -0.0000
C        -3.3370    3.4131    0.1250    0.0238    0.0163    0.0000
C        -5.4031    2.1016    0.1242   -0.0109   -0.0247    0.0000
C        -3.0557   -5.7893    0.1313    0.0242   -0.0128    0.0000
C        -1.6188   -2.2708    0.1299   -0.0269    0.0084   -0.0000
C        -1.9171   -3.6897    0.1307    0.0063   -0.0495    0.0000
C         3.2639    2.9186    0.1308    0.0063   -0.0495    0.0000
C         2.9656    1.4998    0.1315   -0.0269    0.0084   -0.0000
C        -4.7303    3.3435    0.1239   -0.0121    0.0128   -0.0000
C         3.6232   -0.7123    0.1333    0.0184    0.0251    0.0000
C         4.6484   -1.7374    0.1346    0.0166   -0.0363    0.0000
C         2.5587   -2.6777    0.1336    0.0136    0.0105    0.0000
C         3.9776   -2.9761    0.1348    0.0432   -0.0007    0.0000
C        -0.6784   -4.3606    0.1322   -0.0427   -0.0278   -0.0000
C         0.3466   -3.3353    0.1323   -0.0128   -0.0034   -0.0000
C         1.9559    4.9872    0.1281   -0.0289    0.0040   -0.0000
C         4.4720    3.6248    0.1315    0.0072    0.0121   -0.0000
C         3.1605    5.6910    0.1287    0.0010    0.0182   -0.0000
C         4.4025    5.0182    0.1304    0.0242   -0.0128    0.0000
C         6.0461   -1.6681    0.1356   -0.0131    0.0085   -0.0000
C         4.6838   -4.1842    0.1359    0.0238    0.0163    0.0000
C         6.7499   -2.8727    0.1368   -0.0109   -0.0247    0.0000
C         6.0771   -4.1146    0.1369   -0.0121    0.0128   -0.0000
H         6.5562   -0.7047    0.1355   -0.2380    0.1287   -0.0002
H         4.1560   -5.1380    0.1360    0.0075    0.0287   -0.0000
H         6.6624   -5.0353    0.1378   -0.0024    0.0217    0.0000
H        -5.2094   -0.0664    0.1257   -0.2380    0.1287   -0.0003
H        -2.8092    4.3669    0.1248    0.0075    0.0287   -0.0000
H        -5.3156    4.2642    0.1229   -0.0024    0.0217    0.0000
H        -6.4939    2.0893    0.1234   -0.0097   -0.2321    0.0001
H         0.3542   -6.2683    0.1345   -0.0034    0.0586   -0.0001
H        -4.0791   -3.8681    0.1290    0.1372    0.2488   -0.0001
H        -3.9763   -6.3745    0.1309    0.1398   -0.1920    0.0003
H        -1.8014   -7.5529    0.1337   -0.0364    0.0202   -0.0001
H         0.9926    5.4972    0.1268   -0.0034    0.0586   -0.0001
H         5.4259    3.0971    0.1328    0.1372    0.2488   -0.0000
H         5.3231    5.6035    0.1309    0.1398   -0.1920    0.0003
H         3.1482    6.7818    0.1279   -0.0364    0.0202   -0.0001
H         7.8407   -2.8603    0.1376   -0.0097   -0.2321    0.0001
    57
stable frequency at   1118.798 1/cm IR int. is 2.208 a.m.u.; force const. is 1.628 mDyne/Ang.
Fe        0.6734   -0.3855    0.1306    0.0000   -0.0000    0.0000
N         3.9138    0.5779    0.1328   -0.0047   -0.0014   -0.0000
N         1.6368   -3.6259    0.1334   -0.0014    0.0047   -0.0000
N        -0.2395   -2.0709    0.1309   -0.0257   -0.0482    0.0000
N        -1.0120    0.5273    0.1286   -0.0482    0.0258   -0.0001
N         1.5863    1.2998    0.1304    0.0257    0.0482   -0.0000
N         2.3588   -1.2984    0.1326    0.0482   -0.0258    0.0001
N        -0.2900    2.8548    0.1277    0.0014   -0.0047    0.0000
N        -2.5670   -1.3489    0.1285    0.0047    0.0014    0.0000
C        -2.6308    2.2050    0.1263    0.0576    0.0065    0.0000
C        -1.2119    1.9066    0.1276    0.0176    0.0017    0.0000
C         1.0001    2.5643    0.1290   -0.0157   -0.0090   -0.0000
C         2.0252    3.5895    0.1292   -0.0515   -0.0256   -0.0000
C        -3.3016    0.9663    0.1265    0.0257   -0.0515    0.0001
C        -2.2764   -0.0588    0.1280    0.0090   -0.0157    0.0000
C        -0.6092   -5.7583    0.1333    0.0183   -0.0076    0.0000
C        -3.1252   -4.3959    0.1301   -0.0145    0.0096   -0.0000
C        -1.8137   -6.4621    0.1328    0.0062   -0.0185    0.0000
C        -4.6993    0.8970    0.1255   -0.0076   -0.0183    0.0000
C        -3.3370    3.4131    0.1250    0.0096    0.0145   -0.0000
C        -5.4031    2.1016    0.1242   -0.0185   -0.0062   -0.0000
C        -3.0557   -5.7893    0.1313   -0.0199   -0.0036   -0.0000
C        -1.6188   -2.2708    0.1299   -0.0017    0.0176   -0.0000
C        -1.9171   -3.6897    0.1307   -0.0065    0.0576   -0.0000
C         3.2639    2.9186    0.1308    0.0065   -0.0576    0.0000
C         2.9656    1.4998    0.1315    0.0017   -0.0176    0.0000
C        -4.7303    3.3435    0.1239   -0.0035    0.0199   -0.0000
C         3.6232   -0.7123    0.1333   -0.0090    0.0157   -0.0000
C         4.6484   -1.7374    0.1346   -0.0257    0.0515   -0.0000
C         2.5587   -2.6777    0.1336   -0.0176   -0.0017   -0.0000
C         3.9776   -2.9761    0.1348   -0.0576   -0.0065   -0.0000
C        -0.6784   -4.3606    0.1322    0.0515    0.0256    0.0000
C         0.3466   -3.3353    0.1323    0.0157    0.0090    0.0000
C         1.9559    4.9872    0.1281   -0.0183    0.0076   -0.0000
C         4.4720    3.6248    0.1315    0.0145   -0.0096    0.0000
C         3.1605    5.6910    0.1287   -0.0062    0.0185   -0.0000
C         4.4025    5.0182    0.1304    0.0199    0.0036    0.0000
C         6.0461   -1.6681    0.1356    0.0076    0.0183   -0.0000
C         4.6838   -4.1842    0.1359   -0.0096   -0.0145   -0.0000
C         6.7499   -2.8727    0.1368    0.0185    0.0062    0.0000
C         6.0771   -4.1146    0.1369    0.0035   -0.0199    0.0000
H         6.5562   -0.7047    0.1355    0.1630   -0.0619    0.0002
H         4.1560   -5.1380    0.1360    0.1550   -0.1071    0.0002
H         6.6624   -5.0353    0.1378   -0.1045   -0.0912   -0.0001
H        -5.2094   -0.0664    0.1257   -0.1631    0.0620   -0.0002
H        -2.8092    4.3669    0.1248   -0.1550    0.1071   -0.0002
H        -5.3156    4.2642    0.1229    0.1045    0.0912    0.0001
H        -6.4939    2.0893    0.1234   -0.0195   -0.1263    0.0000
H         0.3542   -6.2683    0.1345   -0.0619   -0.1630    0.0001
H        -4.0791   -3.8681    0.1290   -0.1071   -0.1549    0.0000
H        -3.9763   -6.3745    0.1309   -0.0912    0.1044   -0.0001
H        -1.8014   -7.5529    0.1337    0.1262   -0.0195    0.0001
H         0.9926    5.4972    0.1268    0.0619    0.1629   -0.0001
H         5.4259    3.0971    0.1328    0.1071    0.1550    0.0000
H         5.3231    5.6035    0.1309    0.0912   -0.1045    0.0002
H         3.1482    6.7818    0.1279   -0.1262    0.0195   -0.0001
H         7.8407   -2.8603    0.1376    0.0195    0.1262   -0.0000
    57
stable frequency at   1121.515 1/cm IR int. is 1.523 a.m.u.; force const. is 1.129 mDyne/Ang.
Fe        0.6734   -0.3855    0.1306    0.0000   -0.0000    0.0000
N         3.9138    0.5779    0.1328    0.0044   -0.0144    0.0000
N         1.6368   -3.6259    0.1334    0.0144    0.0044    0.0000
N        -0.2395   -2.0709    0.1309    0.0162    0.0306   -0.0000
N        -1.0120    0.5273    0.1286   -0.0305    0.0162   -0.0000
N         1.5863    1.2998    0.1304   -0.0162   -0.0306    0.0000
N         2.3588   -1.2984    0.1326    0.0305   -0.0162    0.0000
N        -0.2900    2.8548    0.1277   -0.0144   -0.0044   -0.0000
N        -2.5670   -1.3489    0.1285   -0.0044    0.0144   -0.0000
C        -2.6308    2.2050    0.1263    0.0435    0.0015    0.0000
C        -1.2119    1.9066    0.1276   -0.0068   -0.0183    0.0000
C         1.0001    2.5643    0.1290   -0.0157    0.0125   -0.0000
C         2.0252    3.5895    0.1292    0.0371    0.0224    0.0000
C        -3.3016    0.9663    0.1265    0.0224   -0.0371    0.0000
C        -2.2764   -0.0588    0.1280    0.0125    0.0157    0.0000
C        -0.6092   -5.7583    0.1333   -0.0094    0.0088   -0.0000
C        -3.1252   -4.3959    0.1301    0.0109   -0.0015    0.0000
C        -1.8137   -6.4621    0.1328   -0.0187    0.0146   -0.0000
C        -4.6993    0.8970    0.1255   -0.0088   -0.0094   -0.0000
C        -3.3370    3.4131    0.1250    0.0015    0.0109   -0.0000
C        -5.4031    2.1016    0.1242   -0.0146   -0.0187    0.0000
C        -3.0557   -5.7893    0.1313    0.0228   -0.0087    0.0000
C        -1.6188   -2.2708    0.1299   -0.0183    0.0068   -0.0000
C        -1.9171   -3.6897    0.1307    0.0015   -0.0435    0.0000
C         3.2639    2.9186    0.1308   -0.0015    0.0435   -0.0000
C         2.9656    1.4998    0.1315    0.0183   -0.0068    0.0000
C        -4.7303    3.3435    0.1239    0.0087    0.0228   -0.0000
C         3.6232   -0.7123    0.1333   -0.0125   -0.0157   -0.0000
C         4.6484   -1.7374    0.1346   -0.0224    0.0371   -0.0000
C         2.5587   -2.6777    0.1336    0.0068    0.0183   -0.0000
C         3.9776   -2.9761    0.1348   -0.0435   -0.0015   -0.0000
C        -0.6784   -4.3606    0.1322   -0.0371   -0.0224   -0.0000
C         0.3466   -3.3353    0.1323    0.0157   -0.0125    0.0000
C         1.9559    4.9872    0.1281    0.0094   -0.0088    0.0000
C         4.4720    3.6248    0.1315   -0.0109    0.0015   -0.0000
C         3.1605    5.6910    0.1287    0.0187   -0.0146    0.0000
C         4.4025    5.0182    0.1304   -0.0228    0.0087   -0.0000
C         6.0461   -1.6681    0.1356    0.0088    0.0094    0.0000
C         4.6838   -4.1842    0.1359   -0.0015   -0.0109    0.0000
C         6.7499   -2.8727    0.1368    0.0146    0.0187   -0.0000
C         6.0771   -4.1146    0.1369   -0.0087   -0.0228    0.0000
H         6.5562   -0.7047    0.1355    0.1712   -0.0760    0.0002
H         4.1560   -5.1380    0.1360    0.1683   -0.1051    0.0002
H         6.6624   -5.0353    0.1378   -0.1668   -0.1254   -0.0001
H        -5.2094   -0.0664    0.1257   -0.1712    0.0760   -0.0002
H        -2.8092    4.3669    0.1248   -0.1683    0.1051   -0.0002
H        -5.3156    4.2642    0.1229    0.1668    0.1254    0.0001
H        -6.4939    2.0893    0.1234   -0.0144   -0.1962    0.0001
H         0.3542   -6.2683    0.1345    0.0760    0.1713   -0.0001
H        -4.0791   -3.8681    0.1290    0.1051    0.1683   -0.0000
H        -3.9763   -6.3745    0.1309    0.1254   -0.1668    0.0002
H        -1.8014   -7.5529    0.1337   -0.1963    0.0144   -0.0002
H         0.9926    5.4972    0.1268   -0.0760   -0.1713    0.0001
H         5.4259    3.0971    0.1328   -0.1051   -0.1683    0.0000
H         5.3231    5.6035    0.1309   -0.1254    0.1668   -0.0002
H         3.1482    6.7818    0.1279    0.1963   -0.0144    0.0002
H         7.8407   -2.8603    0.1376    0.0144    0.1962   -0.0001
    57
stable frequency at   1151.639 1/cm IR int. is 1.373 a.m.u.; force const. is 1.073 mDyne/Ang.
Fe        0.6734   -0.3855    0.1306    0.0002   -0.0002    0.0000
N         3.9138    0.5779    0.1328    0.0039   -0.0014    0.0000
N         1.6368   -3.6259    0.1334    0.0044   -0.0013    0.0000
N        -0.2395   -2.0709    0.1309    0.0189   -0.0108    0.0000
N        -1.0120    0.5273    0.1286   -0.0321    0.0185   -0.0000
N         1.5863    1.2998    0.1304    0.0189   -0.0108    0.0000
N         2.3588   -1.2984    0.1326   -0.0321    0.0185   -0.0000
N        -0.2900    2.8548    0.1277    0.0044   -0.0013    0.0000
N        -2.5670   -1.3489    0.1285    0.0039   -0.0014    0.0000
C        -2.6308    2.2050    0.1263    0.0282   -0.0045    0.0000
C        -1.2119    1.9066    0.1276    0.0174   -0.0148    0.0000
C         1.0001    2.5643    0.1290   -0.0152    0.0228   -0.0000
C         2.0252    3.5895    0.1292   -0.0241   -0.0022   -0.0000
C        -3.3016    0.9663    0.1265    0.0194   -0.0252    0.0000
C        -2.2764   -0.0588    0.1280    0.0182   -0.0073    0.0000
C        -0.6092   -5.7583    0.1333   -0.0025   -0.0189    0.0000
C        -3.1252   -4.3959    0.1301    0.0138    0.0128    0.0000
C        -1.8137   -6.4621    0.1328    0.0109    0.0093    0.0000
C        -4.6993    0.8970    0.1255    0.0049   -0.0118    0.0000
C        -3.3370    3.4131    0.1250    0.0121    0.0056    0.0000
C        -5.4031    2.1016    0.1242   -0.0077    0.0377   -0.0000
C        -3.0557   -5.7893    0.1313   -0.0009   -0.0161    0.0000
C        -1.6188   -2.2708    0.1299   -0.0270    0.0013   -0.0000
C        -1.9171   -3.6897    0.1307   -0.0116    0.0218   -0.0000
C         3.2639    2.9186    0.1308   -0.0116    0.0218   -0.0000
C         2.9656    1.4998    0.1315   -0.0270    0.0013   -0.0000
C        -4.7303    3.3435    0.1239   -0.0351   -0.0143   -0.0000
C         3.6232   -0.7123    0.1333    0.0182   -0.0073    0.0000
C         4.6484   -1.7374    0.1346    0.0194   -0.0252    0.0000
C         2.5587   -2.6777    0.1336    0.0174   -0.0148    0.0000
C         3.9776   -2.9761    0.1348    0.0282   -0.0045    0.0000
C        -0.6784   -4.3606    0.1322   -0.0241   -0.0022   -0.0000
C         0.3466   -3.3353    0.1323   -0.0152    0.0228   -0.0000
C         1.9559    4.9872    0.1281   -0.0025   -0.0189    0.0000
C         4.4720    3.6248    0.1315    0.0138    0.0128    0.0000
C         3.1605    5.6910    0.1287    0.0109    0.0093    0.0000
C         4.4025    5.0182    0.1304   -0.0009   -0.0161    0.0000
C         6.0461   -1.6681    0.1356    0.0049   -0.0118    0.0000
C         4.6838   -4.1842    0.1359    0.0121    0.0056    0.0000
C         6.7499   -2.8727    0.1368   -0.0077    0.0377   -0.0000
C         6.0771   -4.1146    0.1369   -0.0351   -0.0143   -0.0000
H         6.5562   -0.7047    0.1355    0.1128   -0.0723    0.0001
H         4.1560   -5.1380    0.1360    0.1154   -0.0481    0.0001
H         6.6624   -5.0353    0.1378   -0.3060   -0.1856   -0.0001
H        -5.2094   -0.0664    0.1257    0.1128   -0.0722    0.0001
H        -2.8092    4.3669    0.1248    0.1154   -0.0481    0.0001
H        -5.3156    4.2642    0.1229   -0.3060   -0.1856   -0.0001
H        -6.4939    2.0893    0.1234   -0.0122    0.3584   -0.0002
H         0.3542   -6.2683    0.1345   -0.0637   -0.1313    0.0001
H        -4.0791   -3.8681    0.1290    0.0803    0.1363   -0.0000
H        -3.9763   -6.3745    0.1309    0.0452   -0.0887    0.0001
H        -1.8014   -7.5529    0.1337    0.0768    0.0102    0.0001
H         0.9926    5.4972    0.1268   -0.0637   -0.1313    0.0000
H         5.4259    3.0971    0.1328    0.0803    0.1363   -0.0000
H         5.3231    5.6035    0.1309    0.0452   -0.0887    0.0001
H         3.1482    6.7818    0.1279    0.0768    0.0102    0.0001
H         7.8407   -2.8603    0.1376   -0.0122    0.3584   -0.0002
    57
stable frequency at   1151.641 1/cm IR int. is 1.373 a.m.u.; force const. is 1.073 mDyne/Ang.
Fe        0.6734   -0.3855    0.1306   -0.0002   -0.0002    0.0000
N         3.9138    0.5779    0.1328   -0.0013   -0.0044    0.0000
N         1.6368   -3.6259    0.1334   -0.0014   -0.0039    0.0000
N        -0.2395   -2.0709    0.1309    0.0185    0.0321   -0.0000
N        -1.0120    0.5273    0.1286   -0.0108   -0.0189    0.0000
N         1.5863    1.2998    0.1304    0.0185    0.0321   -0.0000
N         2.3588   -1.2984    0.1326   -0.0108   -0.0189    0.0000
N        -0.2900    2.8548    0.1277   -0.0014   -0.0039    0.0000
N        -2.5670   -1.3489    0.1285   -0.0013   -0.0044    0.0000
C        -2.6308    2.2050    0.1263    0.0218    0.0116    0.0000
C        -1.2119    1.9066    0.1276    0.0013    0.0270   -0.0000
C         1.0001    2.5643    0.1290   -0.0073   -0.0182    0.0000
C         2.0252    3.5895    0.1292   -0.0252   -0.0194   -0.0000
C        -3.3016    0.9663    0.1265   -0.0022    0.0241   -0.0000
C        -2.2764   -0.0588    0.1280    0.0228    0.0152    0.0000
C        -0.6092   -5.7583    0.1333   -0.0118   -0.0049   -0.0000
C        -3.1252   -4.3959    0.1301    0.0056   -0.0121    0.0000
C        -1.8137   -6.4621    0.1328    0.0377    0.0077    0.0000
C        -4.6993    0.8970    0.1255   -0.0189    0.0025   -0.0000
C        -3.3370    3.4131    0.1250    0.0128   -0.0138    0.0000
C        -5.4031    2.1016    0.1242    0.0093   -0.0109    0.0000
C        -3.0557   -5.7893    0.1313   -0.0143    0.0351   -0.0000
C        -1.6188   -2.2708    0.1299   -0.0148   -0.0174   -0.0000
C        -1.9171   -3.6897    0.1307   -0.0045   -0.0282    0.0000
C         3.2639    2.9186    0.1308   -0.0045   -0.0282    0.0000
C         2.9656    1.4998    0.1315   -0.0148   -0.0174   -0.0000
C        -4.7303    3.3435    0.1239   -0.0161    0.0009   -0.0000
C         3.6232   -0.7123    0.1333    0.0228    0.0152    0.0000
C         4.6484   -1.7374    0.1346   -0.0022    0.0241   -0.0000
C         2.5587   -2.6777    0.1336    0.0013    0.0270   -0.0000
C         3.9776   -2.9761    0.1348    0.0218    0.0116    0.0000
C        -0.6784   -4.3606    0.1322   -0.0252   -0.0194   -0.0000
C         0.3466   -3.3353    0.1323   -0.0073   -0.0182    0.0000
C         1.9559    4.9872    0.1281   -0.0118   -0.0049   -0.0000
C         4.4720    3.6248    0.1315    0.0056   -0.0121    0.0000
C         3.1605    5.6910    0.1287    0.0377    0.0077    0.0000
C         4.4025    5.0182    0.1304   -0.0143    0.0350   -0.0000
C         6.0461   -1.6681    0.1356   -0.0189    0.0025   -0.0000
C         4.6838   -4.1842    0.1359    0.0128   -0.0138    0.0000
C         6.7499   -2.8727    0.1368    0.0093   -0.0109    0.0000
C         6.0771   -4.1146    0.1369   -0.0161    0.0009   -0.0000
H         6.5562   -0.7047    0.1355   -0.1313    0.0637   -0.0001
H         4.1560   -5.1380    0.1360    0.1363   -0.0803    0.0001
H         6.6624   -5.0353    0.1378   -0.0887   -0.0452   -0.0000
H        -5.2094   -0.0664    0.1257   -0.1313    0.0637   -0.0001
H        -2.8092    4.3669    0.1248    0.1363   -0.0803    0.0002
H        -5.3156    4.2642    0.1229   -0.0888   -0.0452   -0.0000
H        -6.4939    2.0893    0.1234    0.0102   -0.0768    0.0001
H         0.3542   -6.2683    0.1345   -0.0722   -0.1128    0.0000
H        -4.0791   -3.8681    0.1290   -0.0481   -0.1154    0.0000
H        -3.9763   -6.3745    0.1309   -0.1856    0.3060   -0.0004
H        -1.8014   -7.5529    0.1337    0.3584    0.0122    0.0003
H         0.9926    5.4972    0.1268   -0.0723   -0.1128    0.0000
H         5.4259    3.0971    0.1328   -0.0481   -0.1154    0.0000
H         5.3231    5.6035    0.1309   -0.1856    0.3060   -0.0004
H         3.1482    6.7818    0.1279    0.3584    0.0122    0.0003
H         7.8407   -2.8603    0.1376    0.0102   -0.0768    0.0001
    57
stable frequency at   1155.822 1/cm IR int. is 1.539 a.m.u.; force const. is 1.212 mDyne/Ang.
Fe        0.6734   -0.3855    0.1306    0.0000    0.0000   -0.0000
N         3.9138    0.5779    0.1328   -0.0004   -0.0007   -0.0000
N         1.6368   -3.6259    0.1334   -0.0007    0.0004   -0.0000
N        -0.2395   -2.0709    0.1309   -0.0187   -0.0334    0.0000
N        -1.0120    0.5273    0.1286   -0.0334    0.0187   -0.0000
N         1.5863    1.2998    0.1304    0.0187    0.0334   -0.0000
N         2.3588   -1.2984    0.1326    0.0334   -0.0187    0.0000
N        -0.2900    2.8548    0.1277    0.0007   -0.0004    0.0000
N        -2.5670   -1.3489    0.1285    0.0004    0.0007    0.0000
C        -2.6308    2.2050    0.1263    0.0369   -0.0018    0.0000
C        -1.2119    1.9066    0.1276    0.0200   -0.0026    0.0000
C         1.0001    2.5643    0.1290   -0.0151   -0.0111   -0.0000
C         2.0252    3.5895    0.1292   -0.0320   -0.0217   -0.0000
C        -3.3016    0.9663    0.1265    0.0217   -0.0320    0.0000
C        -2.2764   -0.0588    0.1280    0.0111   -0.0151    0.0000
C        -0.6092   -5.7583    0.1333    0.0144    0.0032    0.0000
C        -3.1252   -4.3959    0.1301   -0.0071    0.0139   -0.0000
C        -1.8137   -6.4621    0.1328   -0.0299   -0.0105   -0.0000
C        -4.6993    0.8970    0.1255    0.0032   -0.0144    0.0000
C        -3.3370    3.4131    0.1250    0.0139    0.0071    0.0000
C        -5.4031    2.1016    0.1242   -0.0105    0.0299   -0.0000
C        -3.0557   -5.7893    0.1313    0.0077   -0.0312    0.0000
C        -1.6188   -2.2708    0.1299    0.0026    0.0200   -0.0000
C        -1.9171   -3.6897    0.1307    0.0018    0.0369   -0.0000
C         3.2639    2.9186    0.1308   -0.0018   -0.0369    0.0000
C         2.9656    1.4998    0.1315   -0.0026   -0.0200    0.0000
C        -4.7303    3.3435    0.1239   -0.0312   -0.0077   -0.0000
C         3.6232   -0.7123    0.1333   -0.0111    0.0151   -0.0000
C         4.6484   -1.7374    0.1346   -0.0217    0.0320   -0.0000
C         2.5587   -2.6777    0.1336   -0.0200    0.0026   -0.0000
C         3.9776   -2.9761    0.1348   -0.0369    0.0018   -0.0000
C        -0.6784   -4.3606    0.1322    0.0320    0.0217    0.0000
C         0.3466   -3.3353    0.1323    0.0151    0.0111    0.0000
C         1.9559    4.9872    0.1281   -0.0144   -0.0032   -0.0000
C         4.4720    3.6248    0.1315    0.0071   -0.0139    0.0000
C         3.1605    5.6910    0.1287    0.0299    0.0105    0.0000
C         4.4025    5.0182    0.1304   -0.0077    0.0312   -0.0000
C         6.0461   -1.6681    0.1356   -0.0032    0.0144   -0.0000
C         4.6838   -4.1842    0.1359   -0.0139   -0.0071   -0.0000
C         6.7499   -2.8727    0.1368    0.0105   -0.0299    0.0000
C         6.0771   -4.1146    0.1369    0.0312    0.0077    0.0000
H         6.5562   -0.7047    0.1355   -0.0524    0.0435   -0.0001
H         4.1560   -5.1380    0.1360   -0.0666    0.0187   -0.0001
H         6.6624   -5.0353    0.1378    0.2349    0.1358    0.0001
H        -5.2094   -0.0664    0.1257    0.0524   -0.0435    0.0001
H        -2.8092    4.3669    0.1248    0.0666   -0.0187    0.0001
H        -5.3156    4.2642    0.1229   -0.2349   -0.1358   -0.0001
H        -6.4939    2.0893    0.1234   -0.0144    0.2676   -0.0002
H         0.3542   -6.2683    0.1345    0.0435    0.0524   -0.0000
H        -4.0791   -3.8681    0.1290    0.0187    0.0666   -0.0000
H        -3.9763   -6.3745    0.1309    0.1358   -0.2349    0.0003
H        -1.8014   -7.5529    0.1337   -0.2675   -0.0144   -0.0002
H         0.9926    5.4972    0.1268   -0.0435   -0.0524   -0.0000
H         5.4259    3.0971    0.1328   -0.0187   -0.0666    0.0000
H         5.3231    5.6035    0.1309   -0.1358    0.2349   -0.0003
H         3.1482    6.7818    0.1279    0.2675    0.0144    0.0002
H         7.8407   -2.8603    0.1376    0.0144   -0.2675    0.0001
    57
stable frequency at   1161.589 1/cm IR int. is 2.542 a.m.u.; force const. is 2.021 mDyne/Ang.
Fe        0.6734   -0.3855    0.1306    0.0000    0.0000    0.0000
N         3.9138    0.5779    0.1328    0.0043   -0.0155    0.0000
N         1.6368   -3.6259    0.1334    0.0155    0.0043    0.0000
N        -0.2395   -2.0709    0.1309    0.0317    0.0560   -0.0000
N        -1.0120    0.5273    0.1286   -0.0559    0.0317   -0.0001
N         1.5863    1.2998    0.1304   -0.0317   -0.0560    0.0000
N         2.3588   -1.2984    0.1326    0.0559   -0.0317    0.0001
N        -0.2900    2.8548    0.1277   -0.0155   -0.0043   -0.0000
N        -2.5670   -1.3489    0.1285   -0.0043    0.0155   -0.0000
C        -2.6308    2.2050    0.1263    0.0392   -0.0049    0.0000
C        -1.2119    1.9066    0.1276    0.0150   -0.0390    0.0000
C         1.0001    2.5643    0.1290   -0.0088    0.0381   -0.0000
C         2.0252    3.5895    0.1292    0.0319    0.0250    0.0000
C        -3.3016    0.9663    0.1265    0.0250   -0.0319    0.0000
C        -2.2764   -0.0588    0.1280    0.0381    0.0088    0.0000
C        -0.6092   -5.7583    0.1333   -0.0157   -0.0015   -0.0000
C        -3.1252   -4.3959    0.1301    0.0087   -0.0139    0.0000
C        -1.8137   -6.4621    0.1328    0.0249    0.0121    0.0000
C        -4.6993    0.8970    0.1255    0.0015   -0.0157    0.0000
C        -3.3370    3.4131    0.1250    0.0139    0.0087    0.0000
C        -5.4031    2.1016    0.1242   -0.0121    0.0249   -0.0000
C        -3.0557   -5.7893    0.1313   -0.0032    0.0275   -0.0000
C        -1.6188   -2.2708    0.1299   -0.0390   -0.0150   -0.0000
C        -1.9171   -3.6897    0.1307   -0.0049   -0.0392    0.0000
C         3.2639    2.9186    0.1308    0.0049    0.0392   -0.0000
C         2.9656    1.4998    0.1315    0.0390    0.0150    0.0000
C        -4.7303    3.3435    0.1239   -0.0275   -0.0032   -0.0000
C         3.6232   -0.7123    0.1333   -0.0381   -0.0088   -0.0000
C         4.6484   -1.7374    0.1346   -0.0250    0.0319   -0.0000
C         2.5587   -2.6777    0.1336   -0.0150    0.0390   -0.0000
C         3.9776   -2.9761    0.1348   -0.0392    0.0049   -0.0000
C        -0.6784   -4.3606    0.1322   -0.0319   -0.0250   -0.0000
C         0.3466   -3.3353    0.1323    0.0088   -0.0381    0.0000
C         1.9559    4.9872    0.1281    0.0157    0.0015    0.0000
C         4.4720    3.6248    0.1315   -0.0087    0.0139   -0.0000
C         3.1605    5.6910    0.1287   -0.0249   -0.0121   -0.0000
C         4.4025    5.0182    0.1304    0.0032   -0.0275    0.0000
C         6.0461   -1.6681    0.1356   -0.0015    0.0157   -0.0000
C         4.6838   -4.1842    0.1359   -0.0139   -0.0087   -0.0000
C         6.7499   -2.8727    0.1368    0.0121   -0.0249    0.0000
C         6.0771   -4.1146    0.1369    0.0275    0.0032    0.0000
H         6.5562   -0.7047    0.1355   -0.0030    0.0195   -0.0000
H         4.1560   -5.1380    0.1360   -0.0139   -0.0117   -0.0000
H         6.6624   -5.0353    0.1378    0.1811    0.0990    0.0001
H        -5.2094   -0.0664    0.1257    0.0030   -0.0195    0.0000
H        -2.8092    4.3669    0.1248    0.0139    0.0117    0.0000
H        -5.3156    4.2642    0.1229   -0.1811   -0.0990   -0.0001
H        -6.4939    2.0893    0.1234   -0.0157    0.2044   -0.0001
H         0.3542   -6.2683    0.1345   -0.0195   -0.0030   -0.0000
H        -4.0791   -3.8681    0.1290    0.0117   -0.0140    0.0000
H        -3.9763   -6.3745    0.1309   -0.0990    0.1812   -0.0002
H        -1.8014   -7.5529    0.1337    0.2045    0.0157    0.0002
H         0.9926    5.4972    0.1268    0.0195    0.0030    0.0000
H         5.4259    3.0971    0.1328   -0.0117    0.0140   -0.0000
H         5.3231    5.6035    0.1309    0.0991   -0.1812    0.0002
H         3.1482    6.7818    0.1279   -0.2045   -0.0157   -0.0002
H         7.8407   -2.8603    0.1376    0.0157   -0.2044    0.0001
    57
stable frequency at   1183.901 1/cm IR int. is 2.229 a.m.u.; force const. is 1.841 mDyne/Ang.
Fe        0.6734   -0.3855    0.1306    0.0000   -0.0000    0.0000
N         3.9138    0.5779    0.1328   -0.0142   -0.0039   -0.0000
N         1.6368   -3.6259    0.1334    0.0039   -0.0142    0.0000
N        -0.2395   -2.0709    0.1309    0.0373   -0.0219    0.0000
N        -1.0120    0.5273    0.1286    0.0219    0.0373   -0.0000
N         1.5863    1.2998    0.1304   -0.0373    0.0219   -0.0000
N         2.3588   -1.2984    0.1326   -0.0219   -0.0373    0.0000
N        -0.2900    2.8548    0.1277   -0.0039    0.0142   -0.0000
N        -2.5670   -1.3489    0.1285    0.0142    0.0039    0.0000
C        -2.6308    2.2050    0.1263   -0.0272   -0.0327   -0.0000
C        -1.2119    1.9066    0.1276    0.0199   -0.0421    0.0000
C         1.0001    2.5643    0.1290    0.0068   -0.0483    0.0000
C         2.0252    3.5895    0.1292    0.0388   -0.0133    0.0000
C        -3.3016    0.9663    0.1265   -0.0133   -0.0388    0.0000
C        -2.2764   -0.0588    0.1280   -0.0483   -0.0068   -0.0000
C        -0.6092   -5.7583    0.1333    0.0118   -0.0264    0.0000
C        -3.1252   -4.3959    0.1301    0.0273    0.0051    0.0000
C        -1.8137   -6.4621    0.1328    0.0106    0.0069    0.0000
C        -4.6993    0.8970    0.1255    0.0264    0.0118    0.0000
C        -3.3370    3.4131    0.1250   -0.0051    0.0273   -0.0000
C        -5.4031    2.1016    0.1242   -0.0069    0.0106   -0.0000
C        -3.0557   -5.7893    0.1313   -0.0002   -0.0133    0.0000
C        -1.6188   -2.2708    0.1299   -0.0421   -0.0199   -0.0000
C        -1.9171   -3.6897    0.1307   -0.0327    0.0272   -0.0000
C         3.2639    2.9186    0.1308    0.0327   -0.0272    0.0000
C         2.9656    1.4998    0.1315    0.0421    0.0199    0.0000
C        -4.7303    3.3435    0.1239    0.0133   -0.0003    0.0000
C         3.6232   -0.7123    0.1333    0.0483    0.0068    0.0000
C         4.6484   -1.7374    0.1346    0.0133    0.0388   -0.0000
C         2.5587   -2.6777    0.1336   -0.0198    0.0421   -0.0000
C         3.9776   -2.9761    0.1348    0.0272    0.0327    0.0000
C        -0.6784   -4.3606    0.1322   -0.0388    0.0133   -0.0000
C         0.3466   -3.3353    0.1323   -0.0068    0.0483   -0.0000
C         1.9559    4.9872    0.1281   -0.0118    0.0264   -0.0000
C         4.4720    3.6248    0.1315   -0.0273   -0.0051   -0.0000
C         3.1605    5.6910    0.1287   -0.0106   -0.0069   -0.0000
C         4.4025    5.0182    0.1304    0.0003    0.0133   -0.0000
C         6.0461   -1.6681    0.1356   -0.0264   -0.0118   -0.0000
C         4.6838   -4.1842    0.1359    0.0051   -0.0273    0.0000
C         6.7499   -2.8727    0.1368    0.0069   -0.0106    0.0000
C         6.0771   -4.1146    0.1369   -0.0133    0.0002   -0.0000
H         6.5562   -0.7047    0.1355   -0.2032    0.0827   -0.0002
H         4.1560   -5.1380    0.1360    0.1794   -0.1227    0.0002
H         6.6624   -5.0353    0.1378   -0.0461   -0.0211   -0.0000
H        -5.2094   -0.0664    0.1257    0.2033   -0.0827    0.0002
H        -2.8092    4.3669    0.1248   -0.1794    0.1228   -0.0002
H        -5.3156    4.2642    0.1229    0.0461    0.0211    0.0000
H        -6.4939    2.0893    0.1234   -0.0068    0.0456   -0.0000
H         0.3542   -6.2683    0.1345   -0.0827   -0.2032    0.0001
H        -4.0791   -3.8681    0.1290    0.1228    0.1794   -0.0000
H        -3.9763   -6.3745    0.1309    0.0211   -0.0460    0.0001
H        -1.8014   -7.5529    0.1337    0.0456    0.0068    0.0000
H         0.9926    5.4972    0.1268    0.0827    0.2033   -0.0001
H         5.4259    3.0971    0.1328   -0.1228   -0.1794    0.0000
H         5.3231    5.6035    0.1309   -0.0211    0.0461   -0.0001
H         3.1482    6.7818    0.1279   -0.0455   -0.0068   -0.0000
H         7.8407   -2.8603    0.1376    0.0068   -0.0455    0.0000
    57
stable frequency at   1186.001 1/cm IR int. is 2.650 a.m.u.; force const. is 2.196 mDyne/Ang.
Fe        0.6734   -0.3855    0.1306   -0.0009    0.0013   -0.0000
N         3.9138    0.5779    0.1328    0.0183   -0.0359    0.0000
N         1.6368   -3.6259    0.1334    0.0186   -0.0185    0.0000
N        -0.2395   -2.0709    0.1309   -0.0063   -0.0257    0.0000
N        -1.0120    0.5273    0.1286    0.0403   -0.0254    0.0000
N         1.5863    1.2998    0.1304   -0.0063   -0.0257    0.0000
N         2.3588   -1.2984    0.1326    0.0403   -0.0254    0.0000
N        -0.2900    2.8548    0.1277    0.0186   -0.0185    0.0000
N        -2.5670   -1.3489    0.1285    0.0183   -0.0359    0.0000
C        -2.6308    2.2050    0.1263   -0.0194    0.0239   -0.0000
C        -1.2119    1.9066    0.1276   -0.0215    0.0371   -0.0000
C         1.0001    2.5643    0.1290    0.0022    0.0474   -0.0000
C         2.0252    3.5895    0.1292   -0.0369    0.0239   -0.0001
C        -3.3016    0.9663    0.1265   -0.0193    0.0585   -0.0001
C        -2.2764   -0.0588    0.1280   -0.0086   -0.0082   -0.0000
C        -0.6092   -5.7583    0.1333    0.0233   -0.0307    0.0000
C        -3.1252   -4.3959    0.1301    0.0295    0.0132    0.0000
C        -1.8137   -6.4621    0.1328    0.0044    0.0058    0.0000
C        -4.6993    0.8970    0.1255   -0.0178    0.0091   -0.0000
C        -3.3370    3.4131    0.1250   -0.0121   -0.0246    0.0000
C        -5.4031    2.1016    0.1242    0.0200   -0.0212    0.0000
C        -3.0557   -5.7893    0.1313   -0.0059   -0.0284    0.0000
C        -1.6188   -2.2708    0.1299   -0.0123   -0.0168    0.0000
C        -1.9171   -3.6897    0.1307   -0.0365    0.0608   -0.0001
C         3.2639    2.9186    0.1308   -0.0365    0.0608   -0.0001
C         2.9656    1.4998    0.1315   -0.0123   -0.0168    0.0000
C        -4.7303    3.3435    0.1239    0.0111   -0.0012    0.0000
C         3.6232   -0.7123    0.1333   -0.0085   -0.0082   -0.0000
C         4.6484   -1.7374    0.1346   -0.0193    0.0585   -0.0000
C         2.5587   -2.6777    0.1336   -0.0215    0.0371   -0.0000
C         3.9776   -2.9761    0.1348   -0.0194    0.0239   -0.0000
C        -0.6784   -4.3606    0.1322   -0.0369    0.0239   -0.0000
C         0.3466   -3.3353    0.1323    0.0022    0.0474   -0.0000
C         1.9559    4.9872    0.1281    0.0233   -0.0307    0.0000
C         4.4720    3.6248    0.1315    0.0295    0.0132    0.0000
C         3.1605    5.6910    0.1287    0.0044    0.0058    0.0000
C         4.4025    5.0182    0.1304   -0.0059   -0.0284    0.0000
C         6.0461   -1.6681    0.1356   -0.0178    0.0091   -0.0000
C         4.6838   -4.1842    0.1359   -0.0121   -0.0247    0.0000
C         6.7499   -2.8727    0.1368    0.0200   -0.0212    0.0000
C         6.0771   -4.1146    0.1369    0.0111   -0.0012    0.0000
H         6.5562   -0.7047    0.1355   -0.0522    0.0301   -0.0001
H         4.1560   -5.1380    0.1360    0.1265   -0.1031    0.0001
H         6.6624   -5.0353    0.1378    0.0676    0.0323    0.0000
H        -5.2094   -0.0664    0.1257   -0.0521    0.0300   -0.0001
H        -2.8092    4.3669    0.1248    0.1264   -0.1030    0.0002
H        -5.3156    4.2642    0.1229    0.0677    0.0323    0.0000
H        -6.4939    2.0893    0.1234    0.0229   -0.1264    0.0001
H         0.3542   -6.2683    0.1345   -0.0821   -0.2305    0.0001
H        -4.0791   -3.8681    0.1290    0.1078    0.1586   -0.0000
H        -3.9763   -6.3745    0.1309    0.0412   -0.1036    0.0001
H        -1.8014   -7.5529    0.1337   -0.0030    0.0044   -0.0000
H         0.9926    5.4972    0.1268   -0.0821   -0.2305    0.0001
H         5.4259    3.0971    0.1328    0.1078    0.1585   -0.0000
H         5.3231    5.6035    0.1309    0.0412   -0.1036    0.0001
H         3.1482    6.7818    0.1279   -0.0030    0.0044   -0.0000
H         7.8407   -2.8603    0.1376    0.0229   -0.1264    0.0001
    57
stable frequency at   1186.002 1/cm IR int. is 2.650 a.m.u.; force const. is 2.196 mDyne/Ang.
Fe        0.6734   -0.3855    0.1306   -0.0013   -0.0009   -0.0000
N         3.9138    0.5779    0.1328    0.0185    0.0186    0.0000
N         1.6368   -3.6259    0.1334    0.0359    0.0183    0.0000
N        -0.2395   -2.0709    0.1309    0.0254    0.0403   -0.0000
N        -1.0120    0.5273    0.1286    0.0257   -0.0063    0.0000
N         1.5863    1.2998    0.1304    0.0254    0.0403   -0.0000
N         2.3588   -1.2984    0.1326    0.0257   -0.0063    0.0000
N        -0.2900    2.8548    0.1277    0.0359    0.0183    0.0000
N        -2.5670   -1.3489    0.1285    0.0185    0.0186    0.0000
C        -2.6308    2.2050    0.1263   -0.0608   -0.0365   -0.0000
C        -1.2119    1.9066    0.1276    0.0168   -0.0123    0.0000
C         1.0001    2.5643    0.1290    0.0082   -0.0085    0.0000
C         2.0252    3.5895    0.1292   -0.0585   -0.0193   -0.0000
C        -3.3016    0.9663    0.1265   -0.0239   -0.0369    0.0000
C        -2.2764   -0.0588    0.1280   -0.0474    0.0022   -0.0000
C        -0.6092   -5.7583    0.1333   -0.0091   -0.0178    0.0000
C        -3.1252   -4.3959    0.1301    0.0246   -0.0121    0.0000
C        -1.8137   -6.4621    0.1328    0.0212    0.0200    0.0000
C        -4.6993    0.8970    0.1255    0.0307    0.0233    0.0000
C        -3.3370    3.4131    0.1250   -0.0132    0.0295   -0.0000
C        -5.4031    2.1016    0.1242   -0.0058    0.0044   -0.0000
C        -3.0557   -5.7893    0.1313    0.0012    0.0111   -0.0000
C        -1.6188   -2.2708    0.1299   -0.0371   -0.0215   -0.0000
C        -1.9171   -3.6897    0.1307   -0.0239   -0.0194   -0.0000
C         3.2639    2.9186    0.1308   -0.0239   -0.0194   -0.0000
C         2.9656    1.4998    0.1315   -0.0371   -0.0215   -0.0000
C        -4.7303    3.3435    0.1239    0.0284   -0.0059    0.0000
C         3.6232   -0.7123    0.1333   -0.0474    0.0022   -0.0000
C         4.6484   -1.7374    0.1346   -0.0239   -0.0369    0.0000
C         2.5587   -2.6777    0.1336    0.0168   -0.0123    0.0000
C         3.9776   -2.9761    0.1348   -0.0608   -0.0365   -0.0000
C        -0.6784   -4.3606    0.1322   -0.0585   -0.0193   -0.0000
C         0.3466   -3.3353    0.1323    0.0082   -0.0086    0.0000
C         1.9559    4.9872    0.1281   -0.0091   -0.0178    0.0000
C         4.4720    3.6248    0.1315    0.0247   -0.0121    0.0000
C         3.1605    5.6910    0.1287    0.0212    0.0200    0.0000
C         4.4025    5.0182    0.1304    0.0012    0.0111   -0.0000
C         6.0461   -1.6681    0.1356    0.0307    0.0233    0.0000
C         4.6838   -4.1842    0.1359   -0.0132    0.0295   -0.0000
C         6.7499   -2.8727    0.1368   -0.0058    0.0044   -0.0000
C         6.0771   -4.1146    0.1369    0.0284   -0.0059    0.0000
H         6.5562   -0.7047    0.1355    0.2305   -0.0821    0.0002
H         4.1560   -5.1380    0.1360   -0.1585    0.1078   -0.0002
H         6.6624   -5.0353    0.1378    0.1036    0.0412    0.0000
H        -5.2094   -0.0664    0.1257    0.2305   -0.0821    0.0002
H        -2.8092    4.3669    0.1248   -0.1586    0.1078   -0.0002
H        -5.3156    4.2642    0.1229    0.1036    0.0412    0.0000
H        -6.4939    2.0893    0.1234   -0.0044   -0.0030   -0.0000
H         0.3542   -6.2683    0.1345   -0.0300   -0.0521    0.0000
H        -4.0791   -3.8681    0.1290    0.1030    0.1264   -0.0000
H        -3.9763   -6.3745    0.1309   -0.0323    0.0677   -0.0001
H        -1.8014   -7.5529    0.1337    0.1264    0.0229    0.0001
H         0.9926    5.4972    0.1268   -0.0301   -0.0522    0.0000
H         5.4259    3.0971    0.1328    0.1031    0.1265    0.0000
H         5.3231    5.6035    0.1309   -0.0323    0.0677   -0.0001
H         3.1482    6.7818    0.1279    0.1264    0.0229    0.0001
H         7.8407   -2.8603    0.1376   -0.0044   -0.0030   -0.0000
    57
stable frequency at   1187.689 1/cm IR int. is 2.374 a.m.u.; force const. is 1.973 mDyne/Ang.
Fe        0.6734   -0.3855    0.1306    0.0000    0.0000   -0.0000
N         3.9138    0.5779    0.1328    0.0090   -0.0303    0.0000
N         1.6368   -3.6259    0.1334   -0.0304   -0.0090   -0.0000
N        -0.2395   -2.0709    0.1309   -0.0078    0.0052   -0.0000
N        -1.0120    0.5273    0.1286    0.0052    0.0078   -0.0000
N         1.5863    1.2998    0.1304    0.0077   -0.0052    0.0000
N         2.3588   -1.2984    0.1326   -0.0052   -0.0077    0.0000
N        -0.2900    2.8548    0.1277    0.0303    0.0090    0.0000
N        -2.5670   -1.3489    0.1285   -0.0090    0.0303   -0.0000
C        -2.6308    2.2050    0.1263   -0.0430   -0.0398   -0.0000
C        -1.2119    1.9066    0.1276    0.0218   -0.0217    0.0000
C         1.0001    2.5643    0.1290    0.0072    0.0309   -0.0000
C         2.0252    3.5895    0.1292   -0.0557    0.0104   -0.0001
C        -3.3016    0.9663    0.1265   -0.0104   -0.0557    0.0000
C        -2.2764   -0.0588    0.1280   -0.0308    0.0072   -0.0000
C        -0.6092   -5.7583    0.1333   -0.0154    0.0322   -0.0000
C        -3.1252   -4.3959    0.1301   -0.0342   -0.0051   -0.0000
C        -1.8137   -6.4621    0.1328   -0.0121   -0.0141   -0.0000
C        -4.6993    0.8970    0.1255    0.0322    0.0154    0.0000
C        -3.3370    3.4131    0.1250   -0.0051    0.0342   -0.0000
C        -5.4031    2.1016    0.1242   -0.0141    0.0121   -0.0000
C        -3.0557   -5.7893    0.1313    0.0053    0.0184   -0.0000
C        -1.6188   -2.2708    0.1299    0.0217    0.0218    0.0000
C        -1.9171   -3.6897    0.1307    0.0398   -0.0431    0.0001
C         3.2639    2.9186    0.1308   -0.0398    0.0431   -0.0001
C         2.9656    1.4998    0.1315   -0.0217   -0.0218   -0.0000
C        -4.7303    3.3435    0.1239    0.0184   -0.0053    0.0000
C         3.6232   -0.7123    0.1333    0.0309   -0.0072    0.0000
C         4.6484   -1.7374    0.1346    0.0104    0.0557   -0.0000
C         2.5587   -2.6777    0.1336   -0.0218    0.0217   -0.0000
C         3.9776   -2.9761    0.1348    0.0431    0.0398    0.0000
C        -0.6784   -4.3606    0.1322    0.0558   -0.0104    0.0001
C         0.3466   -3.3353    0.1323   -0.0072   -0.0309    0.0000
C         1.9559    4.9872    0.1281    0.0154   -0.0322    0.0000
C         4.4720    3.6248    0.1315    0.0342    0.0051    0.0000
C         3.1605    5.6910    0.1287    0.0121    0.0141    0.0000
C         4.4025    5.0182    0.1304   -0.0053   -0.0184    0.0000
C         6.0461   -1.6681    0.1356   -0.0322   -0.0154   -0.0000
C         4.6838   -4.1842    0.1359    0.0051   -0.0342    0.0000
C         6.7499   -2.8727    0.1368    0.0141   -0.0121    0.0000
C         6.0771   -4.1146    0.1369   -0.0184    0.0053   -0.0000
H         6.5562   -0.7047    0.1355   -0.1967    0.0724   -0.0002
H         4.1560   -5.1380    0.1360    0.1673   -0.1232    0.0002
H         6.6624   -5.0353    0.1378   -0.0511   -0.0160   -0.0000
H        -5.2094   -0.0664    0.1257    0.1967   -0.0724    0.0002
H        -2.8092    4.3669    0.1248   -0.1673    0.1231   -0.0002
H        -5.3156    4.2642    0.1229    0.0510    0.0160    0.0000
H        -6.4939    2.0893    0.1234   -0.0141    0.0479   -0.0000
H         0.3542   -6.2683    0.1345    0.0724    0.1968   -0.0001
H        -4.0791   -3.8681    0.1290   -0.1232   -0.1673    0.0000
H        -3.9763   -6.3745    0.1309   -0.0160    0.0511   -0.0001
H        -1.8014   -7.5529    0.1337   -0.0479   -0.0141   -0.0000
H         0.9926    5.4972    0.1268   -0.0724   -0.1967    0.0001
H         5.4259    3.0971    0.1328    0.1231    0.1673    0.0000
H         5.3231    5.6035    0.1309    0.0160   -0.0511    0.0001
H         3.1482    6.7818    0.1279    0.0478    0.0141    0.0000
H         7.8407   -2.8603    0.1376    0.0141   -0.0478    0.0000
    57
stable frequency at   1271.389 1/cm IR int. is 6.285 a.m.u.; force const. is 5.985 mDyne/Ang.
Fe        0.6734   -0.3855    0.1306   -0.0000    0.0000   -0.0000
N         3.9138    0.5779    0.1328   -0.0044    0.0155   -0.0000
N         1.6368   -3.6259    0.1334   -0.0155   -0.0044   -0.0000
N        -0.2395   -2.0709    0.1309    0.0234    0.0434   -0.0000
N        -1.0120    0.5273    0.1286   -0.0434    0.0234   -0.0000
N         1.5863    1.2998    0.1304   -0.0234   -0.0434    0.0000
N         2.3588   -1.2984    0.1326    0.0434   -0.0234    0.0000
N        -0.2900    2.8548    0.1277    0.0155    0.0044    0.0000
N        -2.5670   -1.3489    0.1285    0.0044   -0.0155    0.0000
C        -2.6308    2.2050    0.1263   -0.0530   -0.0009   -0.0000
C        -1.2119    1.9066    0.1276    0.0502   -0.0462    0.0001
C         1.0001    2.5643    0.1290    0.0170    0.0672   -0.0000
C         2.0252    3.5895    0.1292   -0.0450   -0.0296   -0.0000
C        -3.3016    0.9663    0.1265   -0.0296    0.0450   -0.0000
C        -2.2764   -0.0588    0.1280    0.0672   -0.0170    0.0001
C        -0.6092   -5.7583    0.1333    0.0092    0.0077    0.0000
C        -3.1252   -4.3959    0.1301    0.0012    0.0109   -0.0000
C        -1.8137   -6.4621    0.1328   -0.0020   -0.0153    0.0000
C        -4.6993    0.8970    0.1255   -0.0077    0.0092   -0.0000
C        -3.3370    3.4131    0.1250   -0.0109    0.0012   -0.0000
C        -5.4031    2.1016    0.1242    0.0153   -0.0020    0.0000
C        -3.0557   -5.7893    0.1313   -0.0112   -0.0104   -0.0000
C        -1.6188   -2.2708    0.1299   -0.0462   -0.0502   -0.0000
C        -1.9171   -3.6897    0.1307   -0.0009    0.0530   -0.0000
C         3.2639    2.9186    0.1308    0.0009   -0.0530    0.0000
C         2.9656    1.4998    0.1315    0.0462    0.0502    0.0000
C        -4.7303    3.3435    0.1239    0.0104   -0.0112    0.0000
C         3.6232   -0.7123    0.1333   -0.0672    0.0170   -0.0001
C         4.6484   -1.7374    0.1346    0.0296   -0.0450    0.0000
C         2.5587   -2.6777    0.1336   -0.0502    0.0462   -0.0001
C         3.9776   -2.9761    0.1348    0.0530    0.0009    0.0000
C        -0.6784   -4.3606    0.1322    0.0450    0.0296    0.0000
C         0.3466   -3.3353    0.1323   -0.0170   -0.0672    0.0000
C         1.9559    4.9872    0.1281   -0.0092   -0.0077   -0.0000
C         4.4720    3.6248    0.1315   -0.0012   -0.0109    0.0000
C         3.1605    5.6910    0.1287    0.0020    0.0153   -0.0000
C         4.4025    5.0182    0.1304    0.0112    0.0104    0.0000
C         6.0461   -1.6681    0.1356    0.0077   -0.0092    0.0000
C         4.6838   -4.1842    0.1359    0.0109   -0.0012    0.0000
C         6.7499   -2.8727    0.1368   -0.0153    0.0020   -0.0000
C         6.0771   -4.1146    0.1369   -0.0104    0.0112   -0.0000
H         6.5562   -0.7047    0.1355   -0.0328    0.0109   -0.0000
H         4.1560   -5.1380    0.1360   -0.0210    0.0177   -0.0000
H         6.6624   -5.0353    0.1378   -0.0883   -0.0363   -0.0000
H        -5.2094   -0.0664    0.1257    0.0328   -0.0109    0.0000
H        -2.8092    4.3669    0.1248    0.0210   -0.0177    0.0000
H        -5.3156    4.2642    0.1229    0.0883    0.0363    0.0000
H        -6.4939    2.0893    0.1234    0.0181   -0.0990    0.0001
H         0.3542   -6.2683    0.1345   -0.0109   -0.0328    0.0000
H        -4.0791   -3.8681    0.1290   -0.0177   -0.0210   -0.0000
H        -3.9763   -6.3745    0.1309    0.0363   -0.0883    0.0001
H        -1.8014   -7.5529    0.1337   -0.0990   -0.0181   -0.0001
H         0.9926    5.4972    0.1268    0.0109    0.0328   -0.0000
H         5.4259    3.0971    0.1328    0.0177    0.0210    0.0000
H         5.3231    5.6035    0.1309   -0.0363    0.0883   -0.0001
H         3.1482    6.7818    0.1279    0.0990    0.0181    0.0001
H         7.8407   -2.8603    0.1376   -0.0181    0.0990   -0.0001
    57
stable frequency at   1280.155 1/cm IR int. is 1.781 a.m.u.; force const. is 1.719 mDyne/Ang.
Fe        0.6734   -0.3855    0.1306    0.0004   -0.0001    0.0000
N         3.9138    0.5779    0.1328   -0.0071    0.0086   -0.0000
N         1.6368   -3.6259    0.1334   -0.0143   -0.0002   -0.0000
N        -0.2395   -2.0709    0.1309   -0.0041    0.0056   -0.0000
N        -1.0120    0.5273    0.1286    0.0103   -0.0066    0.0000
N         1.5863    1.2998    0.1304   -0.0041    0.0056   -0.0000
N         2.3588   -1.2984    0.1326    0.0103   -0.0066    0.0000
N        -0.2900    2.8548    0.1277   -0.0143   -0.0002   -0.0000
N        -2.5670   -1.3489    0.1285   -0.0071    0.0086   -0.0000
C        -2.6308    2.2050    0.1263    0.0277   -0.0063    0.0000
C        -1.2119    1.9066    0.1276   -0.0181    0.0202   -0.0000
C         1.0001    2.5643    0.1290    0.0002   -0.0432    0.0000
C         2.0252    3.5895    0.1292    0.0188    0.0639   -0.0000
C        -3.3016    0.9663    0.1265    0.0023   -0.0146    0.0000
C        -2.2764   -0.0588    0.1280   -0.0156    0.0037   -0.0000
C        -0.6092   -5.7583    0.1333    0.0264    0.0366   -0.0000
C        -3.1252   -4.3959    0.1301   -0.0164   -0.0386    0.0000
C        -1.8137   -6.4621    0.1328    0.0145   -0.0250    0.0000
C        -4.6993    0.8970    0.1255    0.0006   -0.0042    0.0000
C        -3.3370    3.4131    0.1250    0.0154   -0.0034    0.0000
C        -5.4031    2.1016    0.1242   -0.0040    0.0059   -0.0000
C        -3.0557   -5.7893    0.1313    0.0271   -0.0001    0.0000
C        -1.6188   -2.2708    0.1299    0.0295    0.0172    0.0000
C        -1.9171   -3.6897    0.1307   -0.0442   -0.0430   -0.0000
C         3.2639    2.9186    0.1308   -0.0442   -0.0430   -0.0000
C         2.9656    1.4998    0.1315    0.0295    0.0172    0.0000
C        -4.7303    3.3435    0.1239   -0.0076    0.0084   -0.0000
C         3.6232   -0.7123    0.1333   -0.0156    0.0037   -0.0000
C         4.6484   -1.7374    0.1346    0.0022   -0.0146    0.0000
C         2.5587   -2.6777    0.1336   -0.0181    0.0202   -0.0000
C         3.9776   -2.9761    0.1348    0.0277   -0.0063    0.0000
C        -0.6784   -4.3606    0.1322    0.0188    0.0639   -0.0000
C         0.3466   -3.3353    0.1323    0.0002   -0.0432    0.0000
C         1.9559    4.9872    0.1281    0.0264    0.0366   -0.0000
C         4.4720    3.6248    0.1315   -0.0164   -0.0386    0.0000
C         3.1605    5.6910    0.1287    0.0145   -0.0250    0.0000
C         4.4025    5.0182    0.1304    0.0271   -0.0001    0.0000
C         6.0461   -1.6681    0.1356    0.0006   -0.0042    0.0000
C         4.6838   -4.1842    0.1359    0.0154   -0.0034    0.0000
C         6.7499   -2.8727    0.1368   -0.0040    0.0059   -0.0000
C         6.0771   -4.1146    0.1369   -0.0076    0.0084   -0.0000
H         6.5562   -0.7047    0.1355    0.0044   -0.0070    0.0000
H         4.1560   -5.1380    0.1360   -0.0546    0.0359   -0.0001
H         6.6624   -5.0353    0.1378   -0.0657   -0.0271   -0.0000
H        -5.2094   -0.0664    0.1257    0.0044   -0.0070    0.0000
H        -2.8092    4.3669    0.1248   -0.0546    0.0359   -0.0001
H        -5.3156    4.2642    0.1229   -0.0656   -0.0271   -0.0000
H        -6.4939    2.0893    0.1234   -0.0048   -0.0020    0.0000
H         0.3542   -6.2683    0.1345   -0.1159   -0.2321    0.0001
H        -4.0791   -3.8681    0.1290    0.1230    0.2148   -0.0001
H        -3.9763   -6.3745    0.1309   -0.1097    0.2166   -0.0003
H        -1.8014   -7.5529    0.1337   -0.2519   -0.0291   -0.0002
H         0.9926    5.4972    0.1268   -0.1158   -0.2321    0.0001
H         5.4259    3.0971    0.1328    0.1230    0.2148   -0.0000
H         5.3231    5.6035    0.1309   -0.1096    0.2166   -0.0003
H         3.1482    6.7818    0.1279   -0.2518   -0.0291   -0.0002
H         7.8407   -2.8603    0.1376   -0.0048   -0.0020    0.0000
    57
stable frequency at   1280.156 1/cm IR int. is 1.781 a.m.u.; force const. is 1.719 mDyne/Ang.
Fe        0.6734   -0.3855    0.1306    0.0001    0.0004   -0.0000
N         3.9138    0.5779    0.1328    0.0002   -0.0143    0.0000
N         1.6368   -3.6259    0.1334   -0.0086   -0.0071   -0.0000
N        -0.2395   -2.0709    0.1309    0.0066    0.0103   -0.0000
N        -1.0120    0.5273    0.1286   -0.0056   -0.0041   -0.0000
N         1.5863    1.2998    0.1304    0.0066    0.0103   -0.0000
N         2.3588   -1.2984    0.1326   -0.0056   -0.0041   -0.0000
N        -0.2900    2.8548    0.1277   -0.0086   -0.0071   -0.0000
N        -2.5670   -1.3489    0.1285    0.0002   -0.0143    0.0000
C        -2.6308    2.2050    0.1263    0.0430   -0.0442    0.0001
C        -1.2119    1.9066    0.1276   -0.0172    0.0295   -0.0000
C         1.0001    2.5643    0.1290   -0.0037   -0.0156    0.0000
C         2.0252    3.5895    0.1292    0.0146    0.0023    0.0000
C        -3.3016    0.9663    0.1265   -0.0639    0.0188   -0.0001
C        -2.2764   -0.0588    0.1280    0.0432    0.0002    0.0000
C        -0.6092   -5.7583    0.1333    0.0042    0.0006    0.0000
C        -3.1252   -4.3959    0.1301    0.0034    0.0154   -0.0000
C        -1.8137   -6.4621    0.1328   -0.0059   -0.0040   -0.0000
C        -4.6993    0.8970    0.1255   -0.0366    0.0264   -0.0000
C        -3.3370    3.4131    0.1250    0.0386   -0.0164    0.0000
C        -5.4031    2.1016    0.1242    0.0250    0.0145    0.0000
C        -3.0557   -5.7893    0.1313   -0.0084   -0.0076   -0.0000
C        -1.6188   -2.2708    0.1299   -0.0202   -0.0181   -0.0000
C        -1.9171   -3.6897    0.1307    0.0063    0.0277   -0.0000
C         3.2639    2.9186    0.1308    0.0063    0.0277   -0.0000
C         2.9656    1.4998    0.1315   -0.0202   -0.0181   -0.0000
C        -4.7303    3.3435    0.1239    0.0001    0.0271   -0.0000
C         3.6232   -0.7123    0.1333    0.0432    0.0002    0.0000
C         4.6484   -1.7374    0.1346   -0.0639    0.0188   -0.0001
C         2.5587   -2.6777    0.1336   -0.0172    0.0295   -0.0000
C         3.9776   -2.9761    0.1348    0.0430   -0.0442    0.0001
C        -0.6784   -4.3606    0.1322    0.0146    0.0022    0.0000
C         0.3466   -3.3353    0.1323   -0.0037   -0.0156    0.0000
C         1.9559    4.9872    0.1281    0.0042    0.0006    0.0000
C         4.4720    3.6248    0.1315    0.0034    0.0154   -0.0000
C         3.1605    5.6910    0.1287   -0.0059   -0.0040   -0.0000
C         4.4025    5.0182    0.1304   -0.0084   -0.0076   -0.0000
C         6.0461   -1.6681    0.1356   -0.0366    0.0264   -0.0000
C         4.6838   -4.1842    0.1359    0.0386   -0.0164    0.0000
C         6.7499   -2.8727    0.1368    0.0250    0.0145    0.0000
C         6.0771   -4.1146    0.1369    0.0001    0.0271   -0.0000
H         6.5562   -0.7047    0.1355    0.2321   -0.1158    0.0002
H         4.1560   -5.1380    0.1360   -0.2148    0.1230   -0.0002
H         6.6624   -5.0353    0.1378   -0.2166   -0.1096   -0.0001
H        -5.2094   -0.0664    0.1257    0.2321   -0.1158    0.0003
H        -2.8092    4.3669    0.1248   -0.2148    0.1230   -0.0002
H        -5.3156    4.2642    0.1229   -0.2166   -0.1096   -0.0000
H        -6.4939    2.0893    0.1234    0.0291   -0.2519    0.0002
H         0.3542   -6.2683    0.1345    0.0070    0.0044    0.0000
H        -4.0791   -3.8681    0.1290   -0.0359   -0.0546    0.0000
H        -3.9763   -6.3745    0.1309    0.0271   -0.0657    0.0001
H        -1.8014   -7.5529    0.1337    0.0020   -0.0048    0.0000
H         0.9926    5.4972    0.1268    0.0070    0.0044    0.0000
H         5.4259    3.0971    0.1328   -0.0359   -0.0546    0.0000
H         5.3231    5.6035    0.1309    0.0271   -0.0656    0.0001
H         3.1482    6.7818    0.1279    0.0020   -0.0048    0.0000
H         7.8407   -2.8603    0.1376    0.0291   -0.2518    0.0002
    57
stable frequency at   1284.023 1/cm IR int. is 1.753 a.m.u.; force const. is 1.703 mDyne/Ang.
Fe        0.6734   -0.3855    0.1306   -0.0000    0.0000   -0.0000
N         3.9138    0.5779    0.1328    0.0026   -0.0088    0.0000
N         1.6368   -3.6259    0.1334   -0.0088   -0.0026   -0.0000
N        -0.2395   -2.0709    0.1309   -0.0091    0.0050   -0.0000
N        -1.0120    0.5273    0.1286    0.0050    0.0091   -0.0000
N         1.5863    1.2998    0.1304    0.0091   -0.0050    0.0000
N         2.3588   -1.2984    0.1326   -0.0050   -0.0091    0.0000
N        -0.2900    2.8548    0.1277    0.0088    0.0026    0.0000
N        -2.5670   -1.3489    0.1285   -0.0026    0.0088   -0.0000
C        -2.6308    2.2050    0.1263   -0.0355    0.0292   -0.0000
C        -1.2119    1.9066    0.1276    0.0184   -0.0264    0.0000
C         1.0001    2.5643    0.1290    0.0009    0.0324   -0.0000
C         2.0252    3.5895    0.1292   -0.0145   -0.0437    0.0000
C        -3.3016    0.9663    0.1265    0.0436   -0.0145    0.0000
C        -2.2764   -0.0588    0.1280   -0.0323    0.0009   -0.0000
C        -0.6092   -5.7583    0.1333    0.0175    0.0282   -0.0000
C        -3.1252   -4.3959    0.1301   -0.0147   -0.0303    0.0000
C        -1.8137   -6.4621    0.1328    0.0111   -0.0179    0.0000
C        -4.6993    0.8970    0.1255    0.0282   -0.0175    0.0000
C        -3.3370    3.4131    0.1250   -0.0303    0.0147   -0.0000
C        -5.4031    2.1016    0.1242   -0.0179   -0.0111   -0.0000
C        -3.0557   -5.7893    0.1313    0.0210    0.0014    0.0000
C        -1.6188   -2.2708    0.1299    0.0264    0.0184    0.0000
C        -1.9171   -3.6897    0.1307   -0.0292   -0.0355    0.0000
C         3.2639    2.9186    0.1308    0.0292    0.0355    0.0000
C         2.9656    1.4998    0.1315   -0.0264   -0.0184   -0.0000
C        -4.7303    3.3435    0.1239    0.0014   -0.0210    0.0000
C         3.6232   -0.7123    0.1333    0.0323   -0.0009    0.0000
C         4.6484   -1.7374    0.1346   -0.0436    0.0145   -0.0000
C         2.5587   -2.6777    0.1336   -0.0184    0.0263   -0.0000
C         3.9776   -2.9761    0.1348    0.0355   -0.0292    0.0000
C        -0.6784   -4.3606    0.1322    0.0145    0.0436   -0.0000
C         0.3466   -3.3353    0.1323   -0.0009   -0.0323    0.0000
C         1.9559    4.9872    0.1281   -0.0175   -0.0282    0.0000
C         4.4720    3.6248    0.1315    0.0147    0.0303   -0.0000
C         3.1605    5.6910    0.1287   -0.0111    0.0179   -0.0000
C         4.4025    5.0182    0.1304   -0.0210   -0.0014   -0.0000
C         6.0461   -1.6681    0.1356   -0.0282    0.0175   -0.0000
C         4.6838   -4.1842    0.1359    0.0303   -0.0147    0.0000
C         6.7499   -2.8727    0.1368    0.0179    0.0111    0.0000
C         6.0771   -4.1146    0.1369   -0.0014    0.0210   -0.0000
H         6.5562   -0.7047    0.1355    0.1617   -0.0832    0.0002
H         4.1560   -5.1380    0.1360   -0.1563    0.0879   -0.0002
H         6.6624   -5.0353    0.1378   -0.1659   -0.0825   -0.0000
H        -5.2094   -0.0664    0.1257   -0.1617    0.0832   -0.0002
H        -2.8092    4.3669    0.1248    0.1563   -0.0879    0.0002
H        -5.3156    4.2642    0.1229    0.1659    0.0825    0.0000
H        -6.4939    2.0893    0.1234   -0.0208    0.1815   -0.0001
H         0.3542   -6.2683    0.1345   -0.0832   -0.1617    0.0001
H        -4.0791   -3.8681    0.1290    0.0879    0.1563   -0.0000
H        -3.9763   -6.3745    0.1309   -0.0825    0.1659   -0.0002
H        -1.8014   -7.5529    0.1337   -0.1815   -0.0208   -0.0001
H         0.9926    5.4972    0.1268    0.0832    0.1617   -0.0001
H         5.4259    3.0971    0.1328   -0.0880   -0.1564    0.0000
H         5.3231    5.6035    0.1309    0.0826   -0.1659    0.0002
H         3.1482    6.7818    0.1279    0.1815    0.0208    0.0002
H         7.8407   -2.8603    0.1376    0.0208   -0.1815    0.0001
    57
stable frequency at   1288.034 1/cm IR int. is 1.784 a.m.u.; force const. is 1.744 mDyne/Ang.
Fe        0.6734   -0.3855    0.1306   -0.0000    0.0000    0.0000
N         3.9138    0.5779    0.1328    0.0162    0.0045    0.0000
N         1.6368   -3.6259    0.1334   -0.0045    0.0162   -0.0000
N        -0.2395   -2.0709    0.1309   -0.0139    0.0068   -0.0000
N        -1.0120    0.5273    0.1286   -0.0068   -0.0139    0.0000
N         1.5863    1.2998    0.1304    0.0139   -0.0068    0.0000
N         2.3588   -1.2984    0.1326    0.0068    0.0139   -0.0000
N        -0.2900    2.8548    0.1277    0.0045   -0.0162    0.0000
N        -2.5670   -1.3489    0.1285   -0.0162   -0.0045   -0.0000
C        -2.6308    2.2050    0.1263    0.0300   -0.0312    0.0000
C        -1.2119    1.9066    0.1276   -0.0152    0.0360   -0.0000
C         1.0001    2.5643    0.1290   -0.0075    0.0363   -0.0000
C         2.0252    3.5895    0.1292   -0.0066   -0.0411    0.0000
C        -3.3016    0.9663    0.1265   -0.0411    0.0066   -0.0000
C        -2.2764   -0.0588    0.1280    0.0364    0.0075    0.0000
C        -0.6092   -5.7583    0.1333    0.0172    0.0263   -0.0000
C        -3.1252   -4.3959    0.1301   -0.0129   -0.0285    0.0000
C        -1.8137   -6.4621    0.1328    0.0129   -0.0150    0.0000
C        -4.6993    0.8970    0.1255   -0.0263    0.0172   -0.0000
C        -3.3370    3.4131    0.1250    0.0285   -0.0129    0.0000
C        -5.4031    2.1016    0.1242    0.0150    0.0129    0.0000
C        -3.0557   -5.7893    0.1313    0.0198   -0.0019    0.0000
C        -1.6188   -2.2708    0.1299    0.0360    0.0152    0.0000
C        -1.9171   -3.6897    0.1307   -0.0312   -0.0300   -0.0000
C         3.2639    2.9186    0.1308    0.0312    0.0300    0.0000
C         2.9656    1.4998    0.1315   -0.0360   -0.0152   -0.0000
C        -4.7303    3.3435    0.1239    0.0019    0.0198   -0.0000
C         3.6232   -0.7123    0.1333   -0.0363   -0.0075   -0.0000
C         4.6484   -1.7374    0.1346    0.0411   -0.0066    0.0000
C         2.5587   -2.6777    0.1336    0.0152   -0.0360    0.0000
C         3.9776   -2.9761    0.1348   -0.0300    0.0312   -0.0000
C        -0.6784   -4.3606    0.1322    0.0066    0.0411   -0.0000
C         0.3466   -3.3353    0.1323    0.0075   -0.0363    0.0000
C         1.9559    4.9872    0.1281   -0.0172   -0.0263    0.0000
C         4.4720    3.6248    0.1315    0.0129    0.0285   -0.0000
C         3.1605    5.6910    0.1287   -0.0129    0.0150   -0.0000
C         4.4025    5.0182    0.1304   -0.0198    0.0019   -0.0000
C         6.0461   -1.6681    0.1356    0.0263   -0.0172    0.0000
C         4.6838   -4.1842    0.1359   -0.0285    0.0129   -0.0000
C         6.7499   -2.8727    0.1368   -0.0150   -0.0129   -0.0000
C         6.0771   -4.1146    0.1369   -0.0019   -0.0198    0.0000
H         6.5562   -0.7047    0.1355   -0.1610    0.0823   -0.0002
H         4.1560   -5.1380    0.1360    0.1568   -0.0890    0.0002
H         6.6624   -5.0353    0.1378    0.1619    0.0835    0.0001
H        -5.2094   -0.0664    0.1257    0.1610   -0.0823    0.0002
H        -2.8092    4.3669    0.1248   -0.1568    0.0890   -0.0002
H        -5.3156    4.2642    0.1229   -0.1618   -0.0835   -0.0000
H        -6.4939    2.0893    0.1234    0.0177   -0.1780    0.0001
H         0.3542   -6.2683    0.1345   -0.0823   -0.1610    0.0000
H        -4.0791   -3.8681    0.1290    0.0890    0.1568   -0.0000
H        -3.9763   -6.3745    0.1309   -0.0835    0.1618   -0.0002
H        -1.8014   -7.5529    0.1337   -0.1780   -0.0177   -0.0001
H         0.9926    5.4972    0.1268    0.0823    0.1610   -0.0000
H         5.4259    3.0971    0.1328   -0.0890   -0.1568    0.0000
H         5.3231    5.6035    0.1309    0.0835   -0.1618    0.0002
H         3.1482    6.7818    0.1279    0.1780    0.0177    0.0002
H         7.8407   -2.8603    0.1376   -0.0177    0.1780   -0.0001
    57
stable frequency at   1291.477 1/cm IR int. is 7.457 a.m.u.; force const. is 7.328 mDyne/Ang.
Fe        0.6734   -0.3855    0.1306    0.0001   -0.0001    0.0000
N         3.9138    0.5779    0.1328    0.0225    0.0039    0.0000
N         1.6368   -3.6259    0.1334    0.0129   -0.0393    0.0000
N        -0.2395   -2.0709    0.1309   -0.0063   -0.0203    0.0000
N        -1.0120    0.5273    0.1286    0.0635   -0.0360    0.0001
N         1.5863    1.2998    0.1304   -0.0063   -0.0203    0.0000
N         2.3588   -1.2984    0.1326    0.0635   -0.0360    0.0001
N        -0.2900    2.8548    0.1277    0.0129   -0.0393    0.0000
N        -2.5670   -1.3489    0.1285    0.0225    0.0039    0.0000
C        -2.6308    2.2050    0.1263    0.0500    0.0073    0.0000
C        -1.2119    1.9066    0.1276   -0.0518    0.0850   -0.0001
C         1.0001    2.5643    0.1290   -0.0275    0.0376   -0.0000
C         2.0252    3.5895    0.1292    0.0014   -0.0153    0.0000
C        -3.3016    0.9663    0.1265    0.0134   -0.0544    0.0000
C        -2.2764   -0.0588    0.1280   -0.0925    0.0140   -0.0001
C        -0.6092   -5.7583    0.1333   -0.0102   -0.0048   -0.0000
C        -3.1252   -4.3959    0.1301   -0.0044    0.0046   -0.0000
C        -1.8137   -6.4621    0.1328   -0.0049    0.0040   -0.0000
C        -4.6993    0.8970    0.1255    0.0099   -0.0044    0.0000
C        -3.3370    3.4131    0.1250    0.0147   -0.0047    0.0000
C        -5.4031    2.1016    0.1242   -0.0111    0.0061   -0.0000
C        -3.0557   -5.7893    0.1313   -0.0019    0.0072   -0.0000
C        -1.6188   -2.2708    0.1299   -0.0023    0.0346   -0.0000
C        -1.9171   -3.6897    0.1307    0.0213   -0.0217    0.0000
C         3.2639    2.9186    0.1308    0.0213   -0.0217    0.0000
C         2.9656    1.4998    0.1315   -0.0023    0.0346   -0.0000
C        -4.7303    3.3435    0.1239   -0.0086    0.0092   -0.0000
C         3.6232   -0.7123    0.1333   -0.0925    0.0140   -0.0001
C         4.6484   -1.7374    0.1346    0.0134   -0.0543    0.0000
C         2.5587   -2.6777    0.1336   -0.0518    0.0850   -0.0001
C         3.9776   -2.9761    0.1348    0.0500    0.0073    0.0000
C        -0.6784   -4.3606    0.1322    0.0014   -0.0153    0.0000
C         0.3466   -3.3353    0.1323   -0.0275    0.0376   -0.0000
C         1.9559    4.9872    0.1281   -0.0102   -0.0048   -0.0000
C         4.4720    3.6248    0.1315   -0.0044    0.0046   -0.0000
C         3.1605    5.6910    0.1287   -0.0049    0.0040   -0.0000
C         4.4025    5.0182    0.1304   -0.0019    0.0072   -0.0000
C         6.0461   -1.6681    0.1356    0.0099   -0.0044    0.0000
C         4.6838   -4.1842    0.1359    0.0147   -0.0047    0.0000
C         6.7499   -2.8727    0.1368   -0.0111    0.0061   -0.0000
C         6.0771   -4.1146    0.1369   -0.0086    0.0092   -0.0000
H         6.5562   -0.7047    0.1355    0.0112   -0.0063    0.0000
H         4.1560   -5.1380    0.1360   -0.0331    0.0228   -0.0000
H         6.6624   -5.0353    0.1378   -0.0779   -0.0332   -0.0000
H        -5.2094   -0.0664    0.1257    0.0112   -0.0063    0.0000
H        -2.8092    4.3669    0.1248   -0.0331    0.0228   -0.0000
H        -5.3156    4.2642    0.1229   -0.0779   -0.0332   -0.0000
H        -6.4939    2.0893    0.1234   -0.0128    0.0501   -0.0000
H         0.3542   -6.2683    0.1345    0.0326    0.0770   -0.0000
H        -4.0791   -3.8681    0.1290   -0.0419   -0.0639    0.0000
H        -3.9763   -6.3745    0.1309    0.0160   -0.0209    0.0000
H        -1.8014   -7.5529    0.1337    0.0635    0.0055    0.0001
H         0.9926    5.4972    0.1268    0.0326    0.0770   -0.0000
H         5.4259    3.0971    0.1328   -0.0419   -0.0639    0.0000
H         5.3231    5.6035    0.1309    0.0160   -0.0209    0.0000
H         3.1482    6.7818    0.1279    0.0635    0.0055    0.0001
H         7.8407   -2.8603    0.1376   -0.0128    0.0501   -0.0000
    57
stable frequency at   1291.477 1/cm IR int. is 7.456 a.m.u.; force const. is 7.327 mDyne/Ang.
Fe        0.6734   -0.3855    0.1306    0.0001    0.0001    0.0000
N         3.9138    0.5779    0.1328    0.0393    0.0129    0.0000
N         1.6368   -3.6259    0.1334   -0.0039    0.0225   -0.0000
N        -0.2395   -2.0709    0.1309    0.0360    0.0635   -0.0000
N        -1.0120    0.5273    0.1286    0.0203   -0.0063    0.0000
N         1.5863    1.2998    0.1304    0.0360    0.0635   -0.0000
N         2.3588   -1.2984    0.1326    0.0202   -0.0063    0.0000
N        -0.2900    2.8548    0.1277   -0.0039    0.0225   -0.0000
N        -2.5670   -1.3489    0.1285    0.0393    0.0129    0.0000
C        -2.6308    2.2050    0.1263    0.0217    0.0213    0.0000
C        -1.2119    1.9066    0.1276   -0.0346   -0.0023   -0.0000
C         1.0001    2.5643    0.1290   -0.0140   -0.0925    0.0001
C         2.0252    3.5895    0.1292    0.0543    0.0134    0.0000
C        -3.3016    0.9663    0.1265    0.0153    0.0014    0.0000
C        -2.2764   -0.0588    0.1280   -0.0376   -0.0275   -0.0000
C        -0.6092   -5.7583    0.1333    0.0044    0.0099   -0.0000
C        -3.1252   -4.3959    0.1301    0.0047    0.0147   -0.0000
C        -1.8137   -6.4621    0.1328   -0.0061   -0.0111    0.0000
C        -4.6993    0.8970    0.1255    0.0048   -0.0102    0.0000
C        -3.3370    3.4131    0.1250   -0.0046   -0.0044   -0.0000
C        -5.4031    2.1016    0.1242   -0.0040   -0.0049   -0.0000
C        -3.0557   -5.7893    0.1313   -0.0092   -0.0086   -0.0000
C        -1.6188   -2.2708    0.1299   -0.0850   -0.0518   -0.0000
C        -1.9171   -3.6897    0.1307   -0.0073    0.0500   -0.0000
C         3.2639    2.9186    0.1308   -0.0073    0.0500   -0.0000
C         2.9656    1.4998    0.1315   -0.0850   -0.0518   -0.0000
C        -4.7303    3.3435    0.1239   -0.0072   -0.0019   -0.0000
C         3.6232   -0.7123    0.1333   -0.0376   -0.0275   -0.0000
C         4.6484   -1.7374    0.1346    0.0153    0.0014    0.0000
C         2.5587   -2.6777    0.1336   -0.0346   -0.0024   -0.0000
C         3.9776   -2.9761    0.1348    0.0217    0.0213    0.0000
C        -0.6784   -4.3606    0.1322    0.0543    0.0134    0.0000
C         0.3466   -3.3353    0.1323   -0.0140   -0.0925    0.0001
C         1.9559    4.9872    0.1281    0.0044    0.0099   -0.0000
C         4.4720    3.6248    0.1315    0.0047    0.0147   -0.0000
C         3.1605    5.6910    0.1287   -0.0061   -0.0111    0.0000
C         4.4025    5.0182    0.1304   -0.0092   -0.0086   -0.0000
C         6.0461   -1.6681    0.1356    0.0048   -0.0102    0.0000
C         4.6838   -4.1842    0.1359   -0.0046   -0.0044   -0.0000
C         6.7499   -2.8727    0.1368   -0.0040   -0.0049   -0.0000
C         6.0771   -4.1146    0.1369   -0.0072   -0.0019   -0.0000
H         6.5562   -0.7047    0.1355   -0.0770    0.0326   -0.0001
H         4.1560   -5.1380    0.1360    0.0639   -0.0420    0.0001
H         6.6624   -5.0353    0.1378    0.0209    0.0160    0.0000
H        -5.2094   -0.0664    0.1257   -0.0770    0.0326   -0.0001
H        -2.8092    4.3669    0.1248    0.0639   -0.0419    0.0001
H        -5.3156    4.2642    0.1229    0.0209    0.0160    0.0000
H        -6.4939    2.0893    0.1234   -0.0055    0.0635   -0.0000
H         0.3542   -6.2683    0.1345    0.0063    0.0112   -0.0000
H        -4.0791   -3.8681    0.1290   -0.0228   -0.0331    0.0000
H        -3.9763   -6.3745    0.1309    0.0332   -0.0779    0.0001
H        -1.8014   -7.5529    0.1337   -0.0501   -0.0128   -0.0000
H         0.9926    5.4972    0.1268    0.0063    0.0112   -0.0000
H         5.4259    3.0971    0.1328   -0.0228   -0.0331   -0.0000
H         5.3231    5.6035    0.1309    0.0332   -0.0779    0.0001
H         3.1482    6.7818    0.1279   -0.0501   -0.0128   -0.0000
H         7.8407   -2.8603    0.1376   -0.0055    0.0635   -0.0000
    57
stable frequency at   1322.357 1/cm IR int. is 12.010 a.m.u.; force const. is 12.373 mDyne/Ang.
Fe        0.6734   -0.3855    0.1306   -0.0000    0.0000   -0.0000
N         3.9138    0.5779    0.1328    0.0375    0.0111    0.0000
N         1.6368   -3.6259    0.1334    0.0111   -0.0375    0.0000
N        -0.2395   -2.0709    0.1309   -0.0262   -0.0484    0.0000
N        -1.0120    0.5273    0.1286   -0.0484    0.0262   -0.0001
N         1.5863    1.2998    0.1304    0.0262    0.0484   -0.0000
N         2.3588   -1.2984    0.1326    0.0484   -0.0262    0.0001
N        -0.2900    2.8548    0.1277   -0.0111    0.0375   -0.0000
N        -2.5670   -1.3489    0.1285   -0.0375   -0.0111   -0.0000
C        -2.6308    2.2050    0.1263   -0.0290   -0.0250   -0.0000
C        -1.2119    1.9066    0.1276    0.0311   -0.0667    0.0001
C         1.0001    2.5643    0.1290    0.0103   -0.0727    0.0001
C         2.0252    3.5895    0.1292    0.0378   -0.0053    0.0000
C        -3.3016    0.9663    0.1265    0.0053    0.0378   -0.0000
C        -2.2764   -0.0588    0.1280    0.0727    0.0103    0.0001
C        -0.6092   -5.7583    0.1333   -0.0124   -0.0186    0.0000
C        -3.1252   -4.3959    0.1301   -0.0089   -0.0207    0.0000
C        -1.8137   -6.4621    0.1328    0.0177    0.0058    0.0000
C        -4.6993    0.8970    0.1255   -0.0186    0.0124   -0.0000
C        -3.3370    3.4131    0.1250   -0.0207    0.0089   -0.0000
C        -5.4031    2.1016    0.1242    0.0058   -0.0177    0.0000
C        -3.0557   -5.7893    0.1313   -0.0047    0.0182   -0.0000
C        -1.6188   -2.2708    0.1299    0.0667    0.0311    0.0000
C        -1.9171   -3.6897    0.1307    0.0250   -0.0290    0.0000
C         3.2639    2.9186    0.1308   -0.0250    0.0290   -0.0000
C         2.9656    1.4998    0.1315   -0.0667   -0.0311   -0.0000
C        -4.7303    3.3435    0.1239    0.0182    0.0047    0.0000
C         3.6232   -0.7123    0.1333   -0.0727   -0.0103   -0.0001
C         4.6484   -1.7374    0.1346   -0.0053   -0.0378    0.0000
C         2.5587   -2.6777    0.1336   -0.0311    0.0667   -0.0001
C         3.9776   -2.9761    0.1348    0.0290    0.0250    0.0000
C        -0.6784   -4.3606    0.1322   -0.0378    0.0053   -0.0000
C         0.3466   -3.3353    0.1323   -0.0103    0.0727   -0.0001
C         1.9559    4.9872    0.1281    0.0124    0.0186   -0.0000
C         4.4720    3.6248    0.1315    0.0089    0.0207   -0.0000
C         3.1605    5.6910    0.1287   -0.0177   -0.0058   -0.0000
C         4.4025    5.0182    0.1304    0.0047   -0.0182    0.0000
C         6.0461   -1.6681    0.1356    0.0186   -0.0124    0.0000
C         4.6838   -4.1842    0.1359    0.0207   -0.0089    0.0000
C         6.7499   -2.8727    0.1368   -0.0058    0.0177   -0.0000
C         6.0771   -4.1146    0.1369   -0.0182   -0.0047   -0.0000
H         6.5562   -0.7047    0.1355   -0.0172    0.0057   -0.0000
H         4.1560   -5.1380    0.1360   -0.0146    0.0113   -0.0000
H         6.6624   -5.0353    0.1378   -0.0088    0.0020   -0.0000
H        -5.2094   -0.0664    0.1257    0.0172   -0.0057    0.0000
H        -2.8092    4.3669    0.1248    0.0146   -0.0113    0.0000
H        -5.3156    4.2642    0.1229    0.0088   -0.0020    0.0000
H        -6.4939    2.0893    0.1234    0.0064   -0.0062    0.0000
H         0.3542   -6.2683    0.1345    0.0057    0.0172   -0.0000
H        -4.0791   -3.8681    0.1290    0.0113    0.0146    0.0000
H        -3.9763   -6.3745    0.1309    0.0020    0.0088   -0.0000
H        -1.8014   -7.5529    0.1337    0.0062    0.0064   -0.0000
H         0.9926    5.4972    0.1268   -0.0057   -0.0172    0.0000
H         5.4259    3.0971    0.1328   -0.0113   -0.0146   -0.0000
H         5.3231    5.6035    0.1309   -0.0020   -0.0088    0.0000
H         3.1482    6.7818    0.1279   -0.0062   -0.0064    0.0000
H         7.8407   -2.8603    0.1376   -0.0064    0.0062   -0.0000
    57
stable frequency at   1361.073 1/cm IR int. is 7.302 a.m.u.; force const. is 7.970 mDyne/Ang.
Fe        0.6734   -0.3855    0.1306    0.0000   -0.0000    0.0000
N         3.9138    0.5779    0.1328   -0.0021    0.0066   -0.0000
N         1.6368   -3.6259    0.1334   -0.0066   -0.0021   -0.0000
N        -0.2395   -2.0709    0.1309    0.0045    0.0082   -0.0000
N        -1.0120    0.5273    0.1286   -0.0082    0.0045   -0.0000
N         1.5863    1.2998    0.1304   -0.0045   -0.0082    0.0000
N         2.3588   -1.2984    0.1326    0.0082   -0.0045    0.0000
N        -0.2900    2.8548    0.1277    0.0066    0.0021    0.0000
N        -2.5670   -1.3489    0.1285    0.0021   -0.0066    0.0000
C        -2.6308    2.2050    0.1263    0.0105   -0.0447    0.0000
C        -1.2119    1.9066    0.1276   -0.0064   -0.0046   -0.0000
C         1.0001    2.5643    0.1290   -0.0079   -0.0001   -0.0000
C         2.0252    3.5895    0.1292   -0.0155    0.0440   -0.0000
C        -3.3016    0.9663    0.1265    0.0440    0.0155    0.0000
C        -2.2764   -0.0588    0.1280   -0.0001    0.0079   -0.0000
C        -0.6092   -5.7583    0.1333    0.0359    0.0455   -0.0000
C        -3.1252   -4.3959    0.1301    0.0183    0.0554   -0.0000
C        -1.8137   -6.4621    0.1328   -0.0638   -0.0004   -0.0001
C        -4.6993    0.8970    0.1255   -0.0455    0.0359   -0.0001
C        -3.3370    3.4131    0.1250   -0.0554    0.0183   -0.0001
C        -5.4031    2.1016    0.1242    0.0004   -0.0638    0.0000
C        -3.0557   -5.7893    0.1313    0.0348   -0.0545    0.0001
C        -1.6188   -2.2708    0.1299   -0.0046    0.0064   -0.0000
C        -1.9171   -3.6897    0.1307   -0.0447   -0.0105   -0.0000
C         3.2639    2.9186    0.1308    0.0447    0.0105    0.0000
C         2.9656    1.4998    0.1315    0.0046   -0.0064    0.0000
C        -4.7303    3.3435    0.1239    0.0545    0.0348    0.0000
C         3.6232   -0.7123    0.1333    0.0001   -0.0079    0.0000
C         4.6484   -1.7374    0.1346   -0.0440   -0.0155   -0.0000
C         2.5587   -2.6777    0.1336    0.0064    0.0046    0.0000
C         3.9776   -2.9761    0.1348   -0.0105    0.0447   -0.0000
C        -0.6784   -4.3606    0.1322    0.0155   -0.0440    0.0000
C         0.3466   -3.3353    0.1323    0.0079    0.0001    0.0000
C         1.9559    4.9872    0.1281   -0.0359   -0.0455    0.0000
C         4.4720    3.6248    0.1315   -0.0183   -0.0554    0.0000
C         3.1605    5.6910    0.1287    0.0638    0.0004    0.0001
C         4.4025    5.0182    0.1304   -0.0348    0.0545   -0.0001
C         6.0461   -1.6681    0.1356    0.0455   -0.0359    0.0001
C         4.6838   -4.1842    0.1359    0.0554   -0.0182    0.0001
C         6.7499   -2.8727    0.1368   -0.0004    0.0638   -0.0000
C         6.0771   -4.1146    0.1369   -0.0545   -0.0348   -0.0000
H         6.5562   -0.7047    0.1355   -0.0459    0.0116   -0.0000
H         4.1560   -5.1380    0.1360   -0.0351    0.0323   -0.0000
H         6.6624   -5.0353    0.1378    0.0611    0.0388    0.0000
H        -5.2094   -0.0664    0.1257    0.0460   -0.0116    0.0000
H        -2.8092    4.3669    0.1248    0.0351   -0.0323    0.0000
H        -5.3156    4.2642    0.1229   -0.0611   -0.0389   -0.0000
H        -6.4939    2.0893    0.1234   -0.0008    0.0701   -0.0000
H         0.3542   -6.2683    0.1345   -0.0116   -0.0460    0.0000
H        -4.0791   -3.8681    0.1290   -0.0323   -0.0351   -0.0000
H        -3.9763   -6.3745    0.1309   -0.0389    0.0611   -0.0001
H        -1.8014   -7.5529    0.1337    0.0701    0.0008    0.0001
H         0.9926    5.4972    0.1268    0.0116    0.0460   -0.0000
H         5.4259    3.0971    0.1328    0.0323    0.0351    0.0000
H         5.3231    5.6035    0.1309    0.0389   -0.0611    0.0001
H         3.1482    6.7818    0.1279   -0.0701   -0.0008   -0.0001
H         7.8407   -2.8603    0.1376    0.0008   -0.0701    0.0000
    57
stable frequency at   1366.722 1/cm IR int. is 7.468 a.m.u.; force const. is 8.219 mDyne/Ang.
Fe        0.6734   -0.3855    0.1306   -0.0007    0.0004   -0.0000
N         3.9138    0.5779    0.1328   -0.0080    0.0141   -0.0000
N         1.6368   -3.6259    0.1334   -0.0146    0.0001   -0.0000
N        -0.2395   -2.0709    0.1309   -0.0010   -0.0003   -0.0000
N        -1.0120    0.5273    0.1286    0.0094   -0.0050    0.0000
N         1.5863    1.2998    0.1304   -0.0010   -0.0003   -0.0000
N         2.3588   -1.2984    0.1326    0.0094   -0.0050    0.0000
N        -0.2900    2.8548    0.1277   -0.0146    0.0001   -0.0000
N        -2.5670   -1.3489    0.1285   -0.0080    0.0141   -0.0000
C        -2.6308    2.2050    0.1263   -0.0152    0.0624   -0.0001
C        -1.2119    1.9066    0.1276    0.0058   -0.0011    0.0000
C         1.0001    2.5643    0.1290    0.0215    0.0050    0.0000
C         2.0252    3.5895    0.1292   -0.0107    0.0020   -0.0000
C        -3.3016    0.9663    0.1265   -0.0617   -0.0201   -0.0000
C        -2.2764   -0.0588    0.1280    0.0051   -0.0071    0.0000
C        -0.6092   -5.7583    0.1333   -0.0013   -0.0080    0.0000
C        -3.1252   -4.3959    0.1301    0.0028   -0.0042    0.0000
C        -1.8137   -6.4621    0.1328    0.0049    0.0005    0.0000
C        -4.6993    0.8970    0.1255    0.0618   -0.0486    0.0001
C        -3.3370    3.4131    0.1250    0.0751   -0.0254    0.0001
C        -5.4031    2.1016    0.1242    0.0006    0.0899   -0.0001
C        -3.0557   -5.7893    0.1313   -0.0047    0.0058   -0.0000
C        -1.6188   -2.2708    0.1299    0.0073   -0.0215    0.0000
C        -1.9171   -3.6897    0.1307    0.0011    0.0098   -0.0000
C         3.2639    2.9186    0.1308    0.0011    0.0098   -0.0000
C         2.9656    1.4998    0.1315    0.0073   -0.0215    0.0000
C        -4.7303    3.3435    0.1239   -0.0758   -0.0499   -0.0000
C         3.6232   -0.7123    0.1333    0.0051   -0.0071    0.0000
C         4.6484   -1.7374    0.1346   -0.0617   -0.0201   -0.0000
C         2.5587   -2.6777    0.1336    0.0058   -0.0011    0.0000
C         3.9776   -2.9761    0.1348   -0.0152    0.0624   -0.0000
C        -0.6784   -4.3606    0.1322   -0.0107    0.0020   -0.0000
C         0.3466   -3.3353    0.1323    0.0215    0.0050    0.0000
C         1.9559    4.9872    0.1281   -0.0013   -0.0081    0.0000
C         4.4720    3.6248    0.1315    0.0028   -0.0042    0.0000
C         3.1605    5.6910    0.1287    0.0049    0.0005    0.0000
C         4.4025    5.0182    0.1304   -0.0047    0.0058   -0.0000
C         6.0461   -1.6681    0.1356    0.0618   -0.0486    0.0001
C         4.6838   -4.1842    0.1359    0.0751   -0.0254    0.0001
C         6.7499   -2.8727    0.1368    0.0006    0.0899   -0.0000
C         6.0771   -4.1146    0.1369   -0.0758   -0.0499   -0.0000
H         6.5562   -0.7047    0.1355   -0.0581    0.0138   -0.0001
H         4.1560   -5.1380    0.1360   -0.0428    0.0402   -0.0001
H         6.6624   -5.0353    0.1378    0.0859    0.0527    0.0000
H        -5.2094   -0.0664    0.1257   -0.0581    0.0138   -0.0001
H        -2.8092    4.3669    0.1248   -0.0428    0.0402   -0.0001
H        -5.3156    4.2642    0.1229    0.0859    0.0527    0.0000
H        -6.4939    2.0893    0.1234    0.0025   -0.0989    0.0001
H         0.3542   -6.2683    0.1345    0.0010   -0.0042    0.0000
H        -4.0791   -3.8681    0.1290    0.0091    0.0064    0.0000
H        -3.9763   -6.3745    0.1309    0.0122   -0.0202    0.0000
H        -1.8014   -7.5529    0.1337    0.0099    0.0002    0.0000
H         0.9926    5.4972    0.1268    0.0010   -0.0042    0.0000
H         5.4259    3.0971    0.1328    0.0091    0.0065    0.0000
H         5.3231    5.6035    0.1309    0.0122   -0.0203    0.0000
H         3.1482    6.7818    0.1279    0.0098    0.0002    0.0000
H         7.8407   -2.8603    0.1376    0.0025   -0.0989    0.0000
    57
stable frequency at   1366.723 1/cm IR int. is 7.468 a.m.u.; force const. is 8.219 mDyne/Ang.
Fe        0.6734   -0.3855    0.1306   -0.0004   -0.0007    0.0000
N         3.9138    0.5779    0.1328   -0.0001   -0.0146    0.0000
N         1.6368   -3.6259    0.1334   -0.0141   -0.0080   -0.0000
N        -0.2395   -2.0709    0.1309    0.0050    0.0094   -0.0000
N        -1.0120    0.5273    0.1286    0.0003   -0.0010    0.0000
N         1.5863    1.2998    0.1304    0.0050    0.0094   -0.0000
N         2.3588   -1.2984    0.1326    0.0003   -0.0010    0.0000
N        -0.2900    2.8548    0.1277   -0.0141   -0.0080   -0.0000
N        -2.5670   -1.3489    0.1285   -0.0001   -0.0146    0.0000
C        -2.6308    2.2050    0.1263   -0.0098    0.0011   -0.0000
C        -1.2119    1.9066    0.1276    0.0215    0.0073    0.0000
C         1.0001    2.5643    0.1290    0.0071    0.0051    0.0000
C         2.0252    3.5895    0.1292    0.0201   -0.0617    0.0001
C        -3.3016    0.9663    0.1265   -0.0020   -0.0107    0.0000
C        -2.2764   -0.0588    0.1280   -0.0050    0.0215   -0.0000
C        -0.6092   -5.7583    0.1333    0.0486    0.0618   -0.0000
C        -3.1252   -4.3959    0.1301    0.0254    0.0751   -0.0000
C        -1.8137   -6.4621    0.1328   -0.0899    0.0006   -0.0001
C        -4.6993    0.8970    0.1255    0.0081   -0.0013    0.0000
C        -3.3370    3.4131    0.1250    0.0042    0.0028    0.0000
C        -5.4031    2.1016    0.1242   -0.0005    0.0049   -0.0000
C        -3.0557   -5.7893    0.1313    0.0499   -0.0758    0.0001
C        -1.6188   -2.2708    0.1299    0.0011    0.0058   -0.0000
C        -1.9171   -3.6897    0.1307   -0.0624   -0.0152   -0.0000
C         3.2639    2.9186    0.1308   -0.0624   -0.0152   -0.0000
C         2.9656    1.4998    0.1315    0.0011    0.0058   -0.0000
C        -4.7303    3.3435    0.1239   -0.0058   -0.0047   -0.0000
C         3.6232   -0.7123    0.1333   -0.0050    0.0215   -0.0000
C         4.6484   -1.7374    0.1346   -0.0020   -0.0107    0.0000
C         2.5587   -2.6777    0.1336    0.0215    0.0073    0.0000
C         3.9776   -2.9761    0.1348   -0.0098    0.0011   -0.0000
C        -0.6784   -4.3606    0.1322    0.0201   -0.0617    0.0001
C         0.3466   -3.3353    0.1323    0.0071    0.0051    0.0000
C         1.9559    4.9872    0.1281    0.0486    0.0618   -0.0000
C         4.4720    3.6248    0.1315    0.0254    0.0751   -0.0000
C         3.1605    5.6910    0.1287   -0.0899    0.0006   -0.0001
C         4.4025    5.0182    0.1304    0.0499   -0.0758    0.0001
C         6.0461   -1.6681    0.1356    0.0081   -0.0013    0.0000
C         4.6838   -4.1842    0.1359    0.0042    0.0028    0.0000
C         6.7499   -2.8727    0.1368   -0.0005    0.0049   -0.0000
C         6.0771   -4.1146    0.1369   -0.0058   -0.0047   -0.0000
H         6.5562   -0.7047    0.1355    0.0042    0.0010    0.0000
H         4.1560   -5.1380    0.1360   -0.0065    0.0091   -0.0000
H         6.6624   -5.0353    0.1378    0.0203    0.0122    0.0000
H        -5.2094   -0.0664    0.1257    0.0042    0.0010    0.0000
H        -2.8092    4.3669    0.1248   -0.0065    0.0091   -0.0000
H        -5.3156    4.2642    0.1229    0.0203    0.0122    0.0000
H        -6.4939    2.0893    0.1234   -0.0002    0.0099   -0.0000
H         0.3542   -6.2683    0.1345   -0.0138   -0.0581    0.0000
H        -4.0791   -3.8681    0.1290   -0.0402   -0.0428   -0.0000
H        -3.9763   -6.3745    0.1309   -0.0527    0.0859   -0.0001
H        -1.8014   -7.5529    0.1337    0.0989    0.0025    0.0001
H         0.9926    5.4972    0.1268   -0.0138   -0.0581    0.0000
H         5.4259    3.0971    0.1328   -0.0402   -0.0428   -0.0000
H         5.3231    5.6035    0.1309   -0.0527    0.0859   -0.0001
H         3.1482    6.7818    0.1279    0.0989    0.0025    0.0001
H         7.8407   -2.8603    0.1376   -0.0002    0.0099   -0.0000
    57
stable frequency at   1388.297 1/cm IR int. is 6.924 a.m.u.; force const. is 7.862 mDyne/Ang.
Fe        0.6734   -0.3855    0.1306   -0.0000    0.0000    0.0000
N         3.9138    0.5779    0.1328   -0.0157   -0.0046   -0.0000
N         1.6368   -3.6259    0.1334   -0.0046    0.0157   -0.0000
N        -0.2395   -2.0709    0.1309    0.0020    0.0038   -0.0000
N        -1.0120    0.5273    0.1286    0.0038   -0.0020    0.0000
N         1.5863    1.2998    0.1304   -0.0020   -0.0038   -0.0000
N         2.3588   -1.2984    0.1326   -0.0038    0.0020   -0.0000
N        -0.2900    2.8548    0.1277    0.0046   -0.0157    0.0000
N        -2.5670   -1.3489    0.1285    0.0157    0.0046    0.0000
C        -2.6308    2.2050    0.1263    0.0178   -0.0461    0.0000
C        -1.2119    1.9066    0.1276   -0.0108    0.0271   -0.0000
C         1.0001    2.5643    0.1290   -0.0057    0.0288   -0.0000
C         2.0252    3.5895    0.1292    0.0104   -0.0487    0.0000
C        -3.3016    0.9663    0.1265    0.0487    0.0104    0.0000
C        -2.2764   -0.0588    0.1280   -0.0288   -0.0057   -0.0000
C        -0.6092   -5.7583    0.1333   -0.0263   -0.0335    0.0000
C        -3.1252   -4.3959    0.1301   -0.0133   -0.0407    0.0000
C        -1.8137   -6.4621    0.1328    0.0655   -0.0079    0.0001
C        -4.6993    0.8970    0.1255   -0.0335    0.0263   -0.0000
C        -3.3370    3.4131    0.1250   -0.0407    0.0133   -0.0000
C        -5.4031    2.1016    0.1242   -0.0079   -0.0655    0.0000
C        -3.0557   -5.7893    0.1313   -0.0428    0.0511   -0.0001
C        -1.6188   -2.2708    0.1299   -0.0271   -0.0108   -0.0000
C        -1.9171   -3.6897    0.1307    0.0461    0.0178    0.0000
C         3.2639    2.9186    0.1308   -0.0461   -0.0178   -0.0000
C         2.9656    1.4998    0.1315    0.0271    0.0108    0.0000
C        -4.7303    3.3435    0.1239    0.0511    0.0428    0.0000
C         3.6232   -0.7123    0.1333    0.0288    0.0057    0.0000
C         4.6484   -1.7374    0.1346   -0.0487   -0.0104   -0.0000
C         2.5587   -2.6777    0.1336    0.0108   -0.0271    0.0000
C         3.9776   -2.9761    0.1348   -0.0178    0.0461   -0.0000
C        -0.6784   -4.3606    0.1322   -0.0104    0.0487   -0.0000
C         0.3466   -3.3353    0.1323    0.0057   -0.0288    0.0000
C         1.9559    4.9872    0.1281    0.0263    0.0335   -0.0000
C         4.4720    3.6248    0.1315    0.0133    0.0407   -0.0000
C         3.1605    5.6910    0.1287   -0.0655    0.0079   -0.0001
C         4.4025    5.0182    0.1304    0.0428   -0.0511    0.0001
C         6.0461   -1.6681    0.1356    0.0335   -0.0263    0.0000
C         4.6838   -4.1842    0.1359    0.0407   -0.0133    0.0000
C         6.7499   -2.8727    0.1368    0.0079    0.0655   -0.0000
C         6.0771   -4.1146    0.1369   -0.0511   -0.0428   -0.0000
H         6.5562   -0.7047    0.1355    0.0031   -0.0109    0.0000
H         4.1560   -5.1380    0.1360    0.0113    0.0034    0.0000
H         6.6624   -5.0353    0.1378    0.0828    0.0407    0.0000
H        -5.2094   -0.0664    0.1257   -0.0031    0.0109   -0.0000
H        -2.8092    4.3669    0.1248   -0.0113   -0.0034   -0.0000
H        -5.3156    4.2642    0.1229   -0.0828   -0.0407   -0.0000
H        -6.4939    2.0893    0.1234   -0.0108    0.0886   -0.0001
H         0.3542   -6.2683    0.1345   -0.0109   -0.0031   -0.0000
H        -4.0791   -3.8681    0.1290    0.0034   -0.0113    0.0000
H        -3.9763   -6.3745    0.1309    0.0407   -0.0828    0.0001
H        -1.8014   -7.5529    0.1337   -0.0886   -0.0108   -0.0001
H         0.9926    5.4972    0.1268    0.0109    0.0031    0.0000
H         5.4259    3.0971    0.1328   -0.0034    0.0113   -0.0000
H         5.3231    5.6035    0.1309   -0.0407    0.0828   -0.0001
H         3.1482    6.7818    0.1279    0.0886    0.0108    0.0001
H         7.8407   -2.8603    0.1376    0.0108   -0.0886    0.0000
    57
stable frequency at   1416.840 1/cm IR int. is 2.497 a.m.u.; force const. is 2.953 mDyne/Ang.
Fe        0.6734   -0.3855    0.1306    0.0006    0.0009   -0.0000
N         3.9138    0.5779    0.1328   -0.0039   -0.0150    0.0000
N         1.6368   -3.6259    0.1334   -0.0116   -0.0107   -0.0000
N        -0.2395   -2.0709    0.1309    0.0019    0.0051   -0.0000
N        -1.0120    0.5273    0.1286   -0.0040   -0.0081    0.0000
N         1.5863    1.2998    0.1304    0.0019    0.0051   -0.0000
N         2.3588   -1.2984    0.1326   -0.0040   -0.0081    0.0000
N        -0.2900    2.8548    0.1277   -0.0116   -0.0107   -0.0000
N        -2.5670   -1.3489    0.1285   -0.0039   -0.0150    0.0000
C        -2.6308    2.2050    0.1263   -0.0130   -0.0193    0.0000
C        -1.2119    1.9066    0.1276    0.0431    0.0232    0.0000
C         1.0001    2.5643    0.1290   -0.0109   -0.0166    0.0000
C         2.0252    3.5895    0.1292   -0.0576    0.0296   -0.0001
C        -3.3016    0.9663    0.1265   -0.0049   -0.0132    0.0000
C        -2.2764   -0.0588    0.1280   -0.0061    0.0514   -0.0000
C        -0.6092   -5.7583    0.1333    0.0311    0.0454   -0.0000
C        -3.1252   -4.3959    0.1301    0.0233    0.0504   -0.0000
C        -1.8137   -6.4621    0.1328    0.0315   -0.0361    0.0001
C        -4.6993    0.8970    0.1255    0.0166    0.0046    0.0000
C        -3.3370    3.4131    0.1250    0.0014    0.0134   -0.0000
C        -5.4031    2.1016    0.1242   -0.0024   -0.0124    0.0000
C        -3.0557   -5.7893    0.1313   -0.0485    0.0074   -0.0000
C        -1.6188   -2.2708    0.1299   -0.0053   -0.0240    0.0000
C        -1.9171   -3.6897    0.1307    0.0547   -0.0297    0.0001
C         3.2639    2.9186    0.1308    0.0547   -0.0297    0.0001
C         2.9656    1.4998    0.1315   -0.0053   -0.0240    0.0000
C        -4.7303    3.3435    0.1239   -0.0078   -0.0020   -0.0000
C         3.6232   -0.7123    0.1333   -0.0061    0.0514   -0.0000
C         4.6484   -1.7374    0.1346   -0.0049   -0.0132    0.0000
C         2.5587   -2.6777    0.1336    0.0431    0.0232    0.0000
C         3.9776   -2.9761    0.1348   -0.0130   -0.0193    0.0000
C        -0.6784   -4.3606    0.1322   -0.0576    0.0296   -0.0001
C         0.3466   -3.3353    0.1323   -0.0109   -0.0166    0.0000
C         1.9559    4.9872    0.1281    0.0311    0.0454   -0.0000
C         4.4720    3.6248    0.1315    0.0233    0.0504   -0.0000
C         3.1605    5.6910    0.1287    0.0315   -0.0361    0.0001
C         4.4025    5.0182    0.1304   -0.0485    0.0074   -0.0001
C         6.0461   -1.6681    0.1356    0.0166    0.0046    0.0000
C         4.6838   -4.1842    0.1359    0.0014    0.0134   -0.0000
C         6.7499   -2.8727    0.1368   -0.0024   -0.0124    0.0000
C         6.0771   -4.1146    0.1369   -0.0078   -0.0020   -0.0000
H         6.5562   -0.7047    0.1355   -0.0147    0.0234   -0.0000
H         4.1560   -5.1380    0.1360   -0.0012    0.0170   -0.0000
H         6.6624   -5.0353    0.1378    0.0374    0.0282    0.0000
H        -5.2094   -0.0664    0.1257   -0.0147    0.0234   -0.0000
H        -2.8092    4.3669    0.1248   -0.0012    0.0170   -0.0000
H        -5.3156    4.2642    0.1229    0.0374    0.0282    0.0000
H        -6.4939    2.0893    0.1234   -0.0029    0.0679   -0.0000
H         0.3542   -6.2683    0.1345   -0.1107   -0.2187    0.0001
H        -4.0791   -3.8681    0.1290   -0.1199   -0.2146    0.0001
H        -3.9763   -6.3745    0.1309    0.0415   -0.1466    0.0002
H        -1.8014   -7.5529    0.1337   -0.1400   -0.0448   -0.0001
H         0.9926    5.4972    0.1268   -0.1107   -0.2188    0.0001
H         5.4259    3.0971    0.1328   -0.1199   -0.2146    0.0000
H         5.3231    5.6035    0.1309    0.0415   -0.1466    0.0002
H         3.1482    6.7818    0.1279   -0.1400   -0.0448   -0.0001
H         7.8407   -2.8603    0.1376   -0.0029    0.0679   -0.0000
    57
stable frequency at   1416.841 1/cm IR int. is 2.497 a.m.u.; force const. is 2.953 mDyne/Ang.
Fe        0.6734   -0.3855    0.1306    0.0009   -0.0006    0.0000
N         3.9138    0.5779    0.1328   -0.0107    0.0116   -0.0000
N         1.6368   -3.6259    0.1334   -0.0150    0.0039   -0.0000
N        -0.2395   -2.0709    0.1309   -0.0081    0.0040   -0.0000
N        -1.0120    0.5273    0.1286    0.0051   -0.0019    0.0000
N         1.5863    1.2998    0.1304   -0.0081    0.0040   -0.0000
N         2.3588   -1.2984    0.1326    0.0051   -0.0019    0.0000
N        -0.2900    2.8548    0.1277   -0.0150    0.0039   -0.0000
N        -2.5670   -1.3489    0.1285   -0.0107    0.0116   -0.0000
C        -2.6308    2.2050    0.1263   -0.0297   -0.0547    0.0000
C        -1.2119    1.9066    0.1276   -0.0240    0.0053   -0.0000
C         1.0001    2.5643    0.1290    0.0514    0.0061    0.0000
C         2.0252    3.5895    0.1292   -0.0132    0.0049   -0.0000
C        -3.3016    0.9663    0.1265    0.0296    0.0576   -0.0000
C        -2.2764   -0.0588    0.1280   -0.0166    0.0109   -0.0000
C        -0.6092   -5.7583    0.1333    0.0046   -0.0166    0.0000
C        -3.1252   -4.3959    0.1301    0.0134   -0.0014    0.0000
C        -1.8137   -6.4621    0.1328   -0.0124    0.0024   -0.0000
C        -4.6993    0.8970    0.1255    0.0454   -0.0311    0.0001
C        -3.3370    3.4131    0.1250    0.0504   -0.0233    0.0001
C        -5.4031    2.1016    0.1242   -0.0361   -0.0315   -0.0000
C        -3.0557   -5.7893    0.1313   -0.0020    0.0078   -0.0000
C        -1.6188   -2.2708    0.1299    0.0232   -0.0431    0.0000
C        -1.9171   -3.6897    0.1307   -0.0193    0.0130   -0.0000
C         3.2639    2.9186    0.1308   -0.0193    0.0130   -0.0000
C         2.9656    1.4998    0.1315    0.0232   -0.0431    0.0000
C        -4.7303    3.3435    0.1239    0.0074    0.0485   -0.0000
C         3.6232   -0.7123    0.1333   -0.0166    0.0109   -0.0000
C         4.6484   -1.7374    0.1346    0.0296    0.0576   -0.0000
C         2.5587   -2.6777    0.1336   -0.0240    0.0053   -0.0000
C         3.9776   -2.9761    0.1348   -0.0297   -0.0547    0.0000
C        -0.6784   -4.3606    0.1322   -0.0132    0.0049   -0.0000
C         0.3466   -3.3353    0.1323    0.0514    0.0061    0.0000
C         1.9559    4.9872    0.1281    0.0046   -0.0166    0.0000
C         4.4720    3.6248    0.1315    0.0134   -0.0014    0.0000
C         3.1605    5.6910    0.1287   -0.0124    0.0024   -0.0000
C         4.4025    5.0182    0.1304   -0.0020    0.0078   -0.0000
C         6.0461   -1.6681    0.1356    0.0454   -0.0311    0.0001
C         4.6838   -4.1842    0.1359    0.0504   -0.0233    0.0001
C         6.7499   -2.8727    0.1368   -0.0361   -0.0315   -0.0000
C         6.0771   -4.1146    0.1369    0.0074    0.0485   -0.0000
H         6.5562   -0.7047    0.1355   -0.2188    0.1107   -0.0002
H         4.1560   -5.1380    0.1360   -0.2146    0.1199   -0.0002
H         6.6624   -5.0353    0.1378   -0.1466   -0.0415   -0.0001
H        -5.2094   -0.0664    0.1257   -0.2187    0.1107   -0.0002
H        -2.8092    4.3669    0.1248   -0.2146    0.1199   -0.0002
H        -5.3156    4.2642    0.1229   -0.1466   -0.0415   -0.0001
H        -6.4939    2.0893    0.1234   -0.0448    0.1400   -0.0001
H         0.3542   -6.2683    0.1345    0.0234    0.0147    0.0000
H        -4.0791   -3.8681    0.1290    0.0170    0.0012    0.0000
H        -3.9763   -6.3745    0.1309    0.0282   -0.0374    0.0001
H        -1.8014   -7.5529    0.1337    0.0679    0.0029    0.0001
H         0.9926    5.4972    0.1268    0.0234    0.0147    0.0000
H         5.4259    3.0971    0.1328    0.0170    0.0012    0.0000
H         5.3231    5.6035    0.1309    0.0282   -0.0374    0.0001
H         3.1482    6.7818    0.1279    0.0679    0.0029    0.0001
H         7.8407   -2.8603    0.1376   -0.0448    0.1400   -0.0001
    57
stable frequency at   1421.497 1/cm IR int. is 2.412 a.m.u.; force const. is 2.871 mDyne/Ang.
Fe        0.6734   -0.3855    0.1306   -0.0000    0.0000    0.0000
N         3.9138    0.5779    0.1328   -0.0096   -0.0032   -0.0000
N         1.6368   -3.6259    0.1334   -0.0032    0.0096   -0.0000
N        -0.2395   -2.0709    0.1309   -0.0035   -0.0065    0.0000
N        -1.0120    0.5273    0.1286   -0.0065    0.0035   -0.0000
N         1.5863    1.2998    0.1304    0.0035    0.0065   -0.0000
N         2.3588   -1.2984    0.1326    0.0065   -0.0035    0.0000
N        -0.2900    2.8548    0.1277    0.0032   -0.0096    0.0000
N        -2.5670   -1.3489    0.1285    0.0096    0.0032    0.0000
C        -2.6308    2.2050    0.1263    0.0279    0.0303    0.0000
C        -1.2119    1.9066    0.1276    0.0280    0.0137    0.0000
C         1.0001    2.5643    0.1290   -0.0314   -0.0037   -0.0000
C         2.0252    3.5895    0.1292   -0.0402    0.0100   -0.0000
C        -3.3016    0.9663    0.1265   -0.0100   -0.0402    0.0000
C        -2.2764   -0.0588    0.1280    0.0037   -0.0314    0.0000
C        -0.6092   -5.7583    0.1333   -0.0304   -0.0465    0.0000
C        -3.1252   -4.3959    0.1301   -0.0226   -0.0502    0.0000
C        -1.8137   -6.4621    0.1328   -0.0077    0.0266   -0.0000
C        -4.6993    0.8970    0.1255   -0.0465    0.0304   -0.0001
C        -3.3370    3.4131    0.1250   -0.0502    0.0226   -0.0001
C        -5.4031    2.1016    0.1242    0.0266    0.0077    0.0000
C        -3.0557   -5.7893    0.1313    0.0268    0.0079    0.0000
C        -1.6188   -2.2708    0.1299   -0.0137    0.0280   -0.0000
C        -1.9171   -3.6897    0.1307   -0.0303    0.0279   -0.0000
C         3.2639    2.9186    0.1308    0.0303   -0.0279    0.0000
C         2.9656    1.4998    0.1315    0.0137   -0.0280    0.0000
C        -4.7303    3.3435    0.1239    0.0079   -0.0268    0.0000
C         3.6232   -0.7123    0.1333   -0.0037    0.0314   -0.0000
C         4.6484   -1.7374    0.1346    0.0100    0.0402   -0.0000
C         2.5587   -2.6777    0.1336   -0.0280   -0.0137   -0.0000
C         3.9776   -2.9761    0.1348   -0.0279   -0.0303   -0.0000
C        -0.6784   -4.3606    0.1322    0.0402   -0.0100    0.0000
C         0.3466   -3.3353    0.1323    0.0314    0.0037    0.0000
C         1.9559    4.9872    0.1281    0.0304    0.0465   -0.0000
C         4.4720    3.6248    0.1315    0.0226    0.0502   -0.0000
C         3.1605    5.6910    0.1287    0.0077   -0.0266    0.0000
C         4.4025    5.0182    0.1304   -0.0268   -0.0079   -0.0000
C         6.0461   -1.6681    0.1356    0.0465   -0.0304    0.0001
C         4.6838   -4.1842    0.1359    0.0502   -0.0226    0.0000
C         6.7499   -2.8727    0.1368   -0.0266   -0.0077   -0.0000
C         6.0771   -4.1146    0.1369   -0.0079    0.0268   -0.0000
H         6.5562   -0.7047    0.1355   -0.1685    0.0851   -0.0002
H         4.1560   -5.1380    0.1360   -0.1628    0.0925   -0.0002
H         6.6624   -5.0353    0.1378   -0.0957   -0.0232   -0.0000
H        -5.2094   -0.0664    0.1257    0.1685   -0.0852    0.0002
H        -2.8092    4.3669    0.1248    0.1628   -0.0925    0.0002
H        -5.3156    4.2642    0.1229    0.0957    0.0232    0.0000
H        -6.4939    2.0893    0.1234    0.0328   -0.0947    0.0001
H         0.3542   -6.2683    0.1345    0.0852    0.1686   -0.0001
H        -4.0791   -3.8681    0.1290    0.0925    0.1628   -0.0000
H        -3.9763   -6.3745    0.1309   -0.0232    0.0957   -0.0001
H        -1.8014   -7.5529    0.1337    0.0947    0.0328    0.0001
H         0.9926    5.4972    0.1268   -0.0852   -0.1686    0.0000
H         5.4259    3.0971    0.1328   -0.0925   -0.1628    0.0000
H         5.3231    5.6035    0.1309    0.0232   -0.0957    0.0001
H         3.1482    6.7818    0.1279   -0.0947   -0.0328   -0.0001
H         7.8407   -2.8603    0.1376   -0.0328    0.0946   -0.0001
    57
stable frequency at   1428.884 1/cm IR int. is 2.457 a.m.u.; force const. is 2.956 mDyne/Ang.
Fe        0.6734   -0.3855    0.1306   -0.0000    0.0000    0.0000
N         3.9138    0.5779    0.1328    0.0002   -0.0024    0.0000
N         1.6368   -3.6259    0.1334    0.0024    0.0002    0.0000
N        -0.2395   -2.0709    0.1309    0.0000   -0.0007    0.0000
N        -1.0120    0.5273    0.1286    0.0007    0.0000    0.0000
N         1.5863    1.2998    0.1304   -0.0000    0.0007   -0.0000
N         2.3588   -1.2984    0.1326   -0.0007   -0.0000   -0.0000
N        -0.2900    2.8548    0.1277   -0.0023   -0.0002   -0.0000
N        -2.5670   -1.3489    0.1285   -0.0002    0.0024   -0.0000
C        -2.6308    2.2050    0.1263    0.0393    0.0424    0.0000
C        -1.2119    1.9066    0.1276   -0.0097   -0.0125    0.0000
C         1.0001    2.5643    0.1290   -0.0132    0.0042   -0.0000
C         2.0252    3.5895    0.1292    0.0561   -0.0113    0.0001
C        -3.3016    0.9663    0.1265   -0.0113   -0.0561    0.0000
C        -2.2764   -0.0588    0.1280    0.0042    0.0131   -0.0000
C        -0.6092   -5.7583    0.1333    0.0241    0.0381   -0.0000
C        -3.1252   -4.3959    0.1301    0.0177    0.0411   -0.0000
C        -1.8137   -6.4621    0.1328    0.0233   -0.0250    0.0000
C        -4.6993    0.8970    0.1255   -0.0381    0.0241   -0.0000
C        -3.3370    3.4131    0.1250   -0.0411    0.0177   -0.0000
C        -5.4031    2.1016    0.1242    0.0250    0.0233    0.0000
C        -3.0557   -5.7893    0.1313   -0.0335    0.0036   -0.0000
C        -1.6188   -2.2708    0.1299   -0.0125    0.0097   -0.0000
C        -1.9171   -3.6897    0.1307    0.0424   -0.0393    0.0001
C         3.2639    2.9186    0.1308   -0.0424    0.0393   -0.0001
C         2.9656    1.4998    0.1315    0.0125   -0.0097    0.0000
C        -4.7303    3.3435    0.1239   -0.0036   -0.0335    0.0000
C         3.6232   -0.7123    0.1333   -0.0042   -0.0131    0.0000
C         4.6484   -1.7374    0.1346    0.0113    0.0561   -0.0000
C         2.5587   -2.6777    0.1336    0.0097    0.0125    0.0000
C         3.9776   -2.9761    0.1348   -0.0393   -0.0424   -0.0000
C        -0.6784   -4.3606    0.1322   -0.0561    0.0113   -0.0001
C         0.3466   -3.3353    0.1323    0.0131   -0.0042    0.0000
C         1.9559    4.9872    0.1281   -0.0241   -0.0381    0.0000
C         4.4720    3.6248    0.1315   -0.0177   -0.0411    0.0000
C         3.1605    5.6910    0.1287   -0.0233    0.0250   -0.0000
C         4.4025    5.0182    0.1304    0.0335   -0.0036    0.0000
C         6.0461   -1.6681    0.1356    0.0381   -0.0241    0.0000
C         4.6838   -4.1842    0.1359    0.0411   -0.0177    0.0000
C         6.7499   -2.8727    0.1368   -0.0250   -0.0233   -0.0000
C         6.0771   -4.1146    0.1369    0.0036    0.0335   -0.0000
H         6.5562   -0.7047    0.1355   -0.1642    0.0850   -0.0002
H         4.1560   -5.1380    0.1360   -0.1601    0.0912   -0.0002
H         6.6624   -5.0353    0.1378   -0.0945   -0.0229   -0.0000
H        -5.2094   -0.0664    0.1257    0.1642   -0.0850    0.0002
H        -2.8092    4.3669    0.1248    0.1601   -0.0912    0.0002
H        -5.3156    4.2642    0.1229    0.0945    0.0229    0.0000
H        -6.4939    2.0893    0.1234    0.0313   -0.0989    0.0001
H         0.3542   -6.2683    0.1345   -0.0850   -0.1642    0.0001
H        -4.0791   -3.8681    0.1290   -0.0912   -0.1601    0.0000
H        -3.9763   -6.3745    0.1309    0.0229   -0.0945    0.0001
H        -1.8014   -7.5529    0.1337   -0.0989   -0.0313   -0.0001
H         0.9926    5.4972    0.1268    0.0850    0.1642   -0.0000
H         5.4259    3.0971    0.1328    0.0912    0.1601   -0.0000
H         5.3231    5.6035    0.1309   -0.0229    0.0945   -0.0001
H         3.1482    6.7818    0.1279    0.0989    0.0313    0.0001
H         7.8407   -2.8603    0.1376   -0.0313    0.0989   -0.0001
    57
stable frequency at   1451.113 1/cm IR int. is 4.214 a.m.u.; force const. is 5.228 mDyne/Ang.
Fe        0.6734   -0.3855    0.1306   -0.0000    0.0000   -0.0000
N         3.9138    0.5779    0.1328    0.0256    0.0082    0.0000
N         1.6368   -3.6259    0.1334   -0.0082    0.0256   -0.0000
N        -0.2395   -2.0709    0.1309   -0.0192    0.0103   -0.0000
N        -1.0120    0.5273    0.1286   -0.0103   -0.0192    0.0000
N         1.5863    1.2998    0.1304    0.0192   -0.0103    0.0000
N         2.3588   -1.2984    0.1326    0.0103    0.0192   -0.0000
N        -0.2900    2.8548    0.1277    0.0082   -0.0256    0.0000
N        -2.5670   -1.3489    0.1285   -0.0256   -0.0082   -0.0000
C        -2.6308    2.2050    0.1263    0.0061   -0.0380    0.0000
C        -1.2119    1.9066    0.1276    0.0452    0.0448    0.0000
C         1.0001    2.5643    0.1290   -0.0638    0.0133   -0.0001
C         2.0252    3.5895    0.1292    0.0176   -0.0355    0.0000
C        -3.3016    0.9663    0.1265   -0.0355   -0.0176   -0.0000
C        -2.2764   -0.0588    0.1280    0.0133    0.0638   -0.0000
C        -0.6092   -5.7583    0.1333    0.0216   -0.0201    0.0000
C        -3.1252   -4.3959    0.1301    0.0295   -0.0049    0.0000
C        -1.8137   -6.4621    0.1328   -0.0352   -0.0120   -0.0000
C        -4.6993    0.8970    0.1255    0.0201    0.0216    0.0000
C        -3.3370    3.4131    0.1250    0.0049    0.0295   -0.0000
C        -5.4031    2.1016    0.1242    0.0120   -0.0352    0.0000
C        -3.0557   -5.7893    0.1313   -0.0105    0.0356   -0.0000
C        -1.6188   -2.2708    0.1299    0.0448   -0.0452    0.0001
C        -1.9171   -3.6897    0.1307   -0.0380   -0.0061   -0.0000
C         3.2639    2.9186    0.1308    0.0380    0.0061    0.0000
C         2.9656    1.4998    0.1315   -0.0448    0.0452   -0.0001
C        -4.7303    3.3435    0.1239   -0.0356   -0.0105   -0.0000
C         3.6232   -0.7123    0.1333   -0.0133   -0.0638    0.0000
C         4.6484   -1.7374    0.1346    0.0355    0.0176    0.0000
C         2.5587   -2.6777    0.1336   -0.0452   -0.0448   -0.0000
C         3.9776   -2.9761    0.1348   -0.0061    0.0380   -0.0000
C        -0.6784   -4.3606    0.1322   -0.0176    0.0355   -0.0000
C         0.3466   -3.3353    0.1323    0.0638   -0.0133    0.0001
C         1.9559    4.9872    0.1281   -0.0216    0.0201   -0.0000
C         4.4720    3.6248    0.1315   -0.0295    0.0049   -0.0000
C         3.1605    5.6910    0.1287    0.0352    0.0120    0.0000
C         4.4025    5.0182    0.1304    0.0105   -0.0356    0.0000
C         6.0461   -1.6681    0.1356   -0.0201   -0.0216   -0.0000
C         4.6838   -4.1842    0.1359   -0.0049   -0.0295    0.0000
C         6.7499   -2.8727    0.1368   -0.0120    0.0352   -0.0000
C         6.0771   -4.1146    0.1369    0.0356    0.0105    0.0000
H         6.5562   -0.7047    0.1355   -0.0083   -0.0342    0.0000
H         4.1560   -5.1380    0.1360   -0.0320   -0.0211   -0.0000
H         6.6624   -5.0353    0.1378   -0.1123   -0.0864   -0.0000
H        -5.2094   -0.0664    0.1257    0.0083    0.0342   -0.0000
H        -2.8092    4.3669    0.1248    0.0320    0.0211    0.0000
H        -5.3156    4.2642    0.1229    0.1123    0.0864    0.0000
H        -6.4939    2.0893    0.1234    0.0129    0.1390   -0.0001
H         0.3542   -6.2683    0.1345    0.0341   -0.0083    0.0000
H        -4.0791   -3.8681    0.1290    0.0211   -0.0320    0.0000
H        -3.9763   -6.3745    0.1309    0.0864   -0.1123    0.0002
H        -1.8014   -7.5529    0.1337    0.1389   -0.0129    0.0001
H         0.9926    5.4972    0.1268   -0.0341    0.0083   -0.0000
H         5.4259    3.0971    0.1328   -0.0211    0.0320   -0.0000
H         5.3231    5.6035    0.1309   -0.0864    0.1123   -0.0002
H         3.1482    6.7818    0.1279   -0.1389    0.0129   -0.0001
H         7.8407   -2.8603    0.1376   -0.0129   -0.1389    0.0001
    57
stable frequency at   1461.504 1/cm IR int. is 2.929 a.m.u.; force const. is 3.686 mDyne/Ang.
Fe        0.6734   -0.3855    0.1306   -0.0004   -0.0005    0.0000
N         3.9138    0.5779    0.1328    0.0060    0.0146   -0.0000
N         1.6368   -3.6259    0.1334    0.0141    0.0114    0.0000
N        -0.2395   -2.0709    0.1309    0.0014    0.0015    0.0000
N        -1.0120    0.5273    0.1286    0.0019    0.0025   -0.0000
N         1.5863    1.2998    0.1304    0.0014    0.0015    0.0000
N         2.3588   -1.2984    0.1326    0.0019    0.0025   -0.0000
N        -0.2900    2.8548    0.1277    0.0141    0.0114    0.0000
N        -2.5670   -1.3489    0.1285    0.0060    0.0146   -0.0000
C        -2.6308    2.2050    0.1263   -0.0413    0.0513   -0.0001
C        -1.2119    1.9066    0.1276   -0.0038   -0.0274    0.0000
C         1.0001    2.5643    0.1290    0.0041    0.0053   -0.0000
C         2.0252    3.5895    0.1292   -0.0232   -0.0169   -0.0000
C        -3.3016    0.9663    0.1265    0.0634    0.0015    0.0000
C        -2.2764   -0.0588    0.1280   -0.0207   -0.0209   -0.0000
C        -0.6092   -5.7583    0.1333    0.0015    0.0205   -0.0000
C        -3.1252   -4.3959    0.1301    0.0022    0.0212   -0.0000
C        -1.8137   -6.4621    0.1328    0.0182   -0.0016    0.0000
C        -4.6993    0.8970    0.1255   -0.0151   -0.0422    0.0000
C        -3.3370    3.4131    0.1250   -0.0199   -0.0396    0.0000
C        -5.4031    2.1016    0.1242   -0.0332    0.0707   -0.0001
C        -3.0557   -5.7893    0.1313   -0.0065   -0.0151    0.0000
C        -1.6188   -2.2708    0.1299   -0.0079    0.0067   -0.0000
C        -1.9171   -3.6897    0.1307    0.0188   -0.0135    0.0000
C         3.2639    2.9186    0.1308    0.0188   -0.0135    0.0000
C         2.9656    1.4998    0.1315   -0.0079    0.0067   -0.0000
C        -4.7303    3.3435    0.1239    0.0764    0.0146    0.0000
C         3.6232   -0.7123    0.1333   -0.0207   -0.0209   -0.0000
C         4.6484   -1.7374    0.1346    0.0634    0.0015    0.0000
C         2.5587   -2.6777    0.1336   -0.0038   -0.0274    0.0000
C         3.9776   -2.9761    0.1348   -0.0413    0.0513   -0.0001
C        -0.6784   -4.3606    0.1322   -0.0232   -0.0169   -0.0000
C         0.3466   -3.3353    0.1323    0.0041    0.0053   -0.0000
C         1.9559    4.9872    0.1281    0.0014    0.0205   -0.0000
C         4.4720    3.6248    0.1315    0.0021    0.0212   -0.0000
C         3.1605    5.6910    0.1287    0.0182   -0.0016    0.0000
C         4.4025    5.0182    0.1304   -0.0065   -0.0151    0.0000
C         6.0461   -1.6681    0.1356   -0.0151   -0.0422    0.0000
C         4.6838   -4.1842    0.1359   -0.0199   -0.0396    0.0000
C         6.7499   -2.8727    0.1368   -0.0332    0.0707   -0.0001
C         6.0771   -4.1146    0.1369    0.0764    0.0146    0.0000
H         6.5562   -0.7047    0.1355   -0.0258   -0.0470    0.0000
H         4.1560   -5.1380    0.1360   -0.0465   -0.0359   -0.0000
H         6.6624   -5.0353    0.1378   -0.1914   -0.1609   -0.0001
H        -5.2094   -0.0664    0.1257   -0.0258   -0.0470    0.0000
H        -2.8092    4.3669    0.1248   -0.0465   -0.0359   -0.0000
H        -5.3156    4.2642    0.1229   -0.1914   -0.1609   -0.0000
H        -6.4939    2.0893    0.1234   -0.0352   -0.2403    0.0001
H         0.3542   -6.2683    0.1345   -0.0382   -0.0489    0.0000
H        -4.0791   -3.8681    0.1290   -0.0353   -0.0453    0.0000
H        -3.9763   -6.3745    0.1309   -0.0244    0.0085   -0.0000
H        -1.8014   -7.5529    0.1337   -0.0732   -0.0030   -0.0001
H         0.9926    5.4972    0.1268   -0.0382   -0.0489    0.0000
H         5.4259    3.0971    0.1328   -0.0353   -0.0453   -0.0000
H         5.3231    5.6035    0.1309   -0.0244    0.0085   -0.0000
H         3.1482    6.7818    0.1279   -0.0733   -0.0030   -0.0001
H         7.8407   -2.8603    0.1376   -0.0352   -0.2402    0.0001
    57
stable frequency at   1461.505 1/cm IR int. is 2.929 a.m.u.; force const. is 3.686 mDyne/Ang.
Fe        0.6734   -0.3855    0.1306    0.0005   -0.0004    0.0000
N         3.9138    0.5779    0.1328   -0.0114    0.0141   -0.0000
N         1.6368   -3.6259    0.1334   -0.0146    0.0060   -0.0000
N        -0.2395   -2.0709    0.1309   -0.0025    0.0019   -0.0000
N        -1.0120    0.5273    0.1286   -0.0015    0.0014   -0.0000
N         1.5863    1.2998    0.1304   -0.0025    0.0019   -0.0000
N         2.3588   -1.2984    0.1326   -0.0015    0.0014   -0.0000
N        -0.2900    2.8548    0.1277   -0.0146    0.0060   -0.0000
N        -2.5670   -1.3489    0.1285   -0.0114    0.0141   -0.0000
C        -2.6308    2.2050    0.1263    0.0135    0.0188   -0.0000
C        -1.2119    1.9066    0.1276   -0.0067   -0.0079   -0.0000
C         1.0001    2.5643    0.1290    0.0209   -0.0207    0.0000
C         2.0252    3.5895    0.1292   -0.0015    0.0634   -0.0000
C        -3.3016    0.9663    0.1265    0.0169   -0.0232    0.0000
C        -2.2764   -0.0588    0.1280   -0.0053    0.0041   -0.0000
C        -0.6092   -5.7583    0.1333    0.0422   -0.0151    0.0000
C        -3.1252   -4.3959    0.1301    0.0397   -0.0199    0.0000
C        -1.8137   -6.4621    0.1328   -0.0707   -0.0332   -0.0000
C        -4.6993    0.8970    0.1255   -0.0205    0.0014   -0.0000
C        -3.3370    3.4131    0.1250   -0.0212    0.0021   -0.0000
C        -5.4031    2.1016    0.1242    0.0016    0.0182   -0.0000
C        -3.0557   -5.7893    0.1313   -0.0146    0.0764   -0.0001
C        -1.6188   -2.2708    0.1299    0.0274   -0.0038    0.0000
C        -1.9171   -3.6897    0.1307   -0.0513   -0.0413   -0.0000
C         3.2639    2.9186    0.1308   -0.0513   -0.0413   -0.0000
C         2.9656    1.4998    0.1315    0.0274   -0.0038    0.0000
C        -4.7303    3.3435    0.1239    0.0151   -0.0065    0.0000
C         3.6232   -0.7123    0.1333   -0.0053    0.0041   -0.0000
C         4.6484   -1.7374    0.1346    0.0169   -0.0232    0.0000
C         2.5587   -2.6777    0.1336   -0.0067   -0.0079   -0.0000
C         3.9776   -2.9761    0.1348    0.0135    0.0188    0.0000
C        -0.6784   -4.3606    0.1322   -0.0015    0.0634   -0.0000
C         0.3466   -3.3353    0.1323    0.0209   -0.0207    0.0000
C         1.9559    4.9872    0.1281    0.0422   -0.0151    0.0001
C         4.4720    3.6248    0.1315    0.0396   -0.0199    0.0001
C         3.1605    5.6910    0.1287   -0.0707   -0.0332   -0.0000
C         4.4025    5.0182    0.1304   -0.0146    0.0764   -0.0001
C         6.0461   -1.6681    0.1356   -0.0205    0.0015   -0.0000
C         4.6838   -4.1842    0.1359   -0.0212    0.0022   -0.0000
C         6.7499   -2.8727    0.1368    0.0016    0.0182   -0.0000
C         6.0771   -4.1146    0.1369    0.0151   -0.0065    0.0000
H         6.5562   -0.7047    0.1355    0.0489   -0.0382    0.0001
H         4.1560   -5.1380    0.1360    0.0453   -0.0353    0.0001
H         6.6624   -5.0353    0.1378   -0.0085   -0.0244    0.0000
H        -5.2094   -0.0664    0.1257    0.0489   -0.0382    0.0001
H        -2.8092    4.3669    0.1248    0.0453   -0.0353    0.0001
H        -5.3156    4.2642    0.1229   -0.0085   -0.0244    0.0000
H        -6.4939    2.0893    0.1234    0.0030   -0.0733    0.0000
H         0.3542   -6.2683    0.1345    0.0470   -0.0258    0.0001
H        -4.0791   -3.8681    0.1290    0.0359   -0.0465    0.0001
H        -3.9763   -6.3745    0.1309    0.1609   -0.1914    0.0003
H        -1.8014   -7.5529    0.1337    0.2403   -0.0352    0.0002
H         0.9926    5.4972    0.1268    0.0470   -0.0258    0.0001
H         5.4259    3.0971    0.1328    0.0359   -0.0465    0.0001
H         5.3231    5.6035    0.1309    0.1609   -0.1914    0.0003
H         3.1482    6.7818    0.1279    0.2402   -0.0352    0.0003
H         7.8407   -2.8603    0.1376    0.0030   -0.0733    0.0000
    57
stable frequency at   1464.080 1/cm IR int. is 2.880 a.m.u.; force const. is 3.637 mDyne/Ang.
Fe        0.6734   -0.3855    0.1306   -0.0000    0.0000   -0.0000
N         3.9138    0.5779    0.1328    0.0014   -0.0042    0.0000
N         1.6368   -3.6259    0.1334   -0.0042   -0.0014   -0.0000
N        -0.2395   -2.0709    0.1309   -0.0018    0.0010   -0.0000
N        -1.0120    0.5273    0.1286    0.0010    0.0018   -0.0000
N         1.5863    1.2998    0.1304    0.0018   -0.0010    0.0000
N         2.3588   -1.2984    0.1326   -0.0010   -0.0018    0.0000
N        -0.2900    2.8548    0.1277    0.0042    0.0014    0.0000
N        -2.5670   -1.3489    0.1285   -0.0014    0.0041   -0.0000
C        -2.6308    2.2050    0.1263   -0.0317    0.0374   -0.0000
C        -1.2119    1.9066    0.1276    0.0087   -0.0147    0.0000
C         1.0001    2.5643    0.1290   -0.0002    0.0169   -0.0000
C         2.0252    3.5895    0.1292   -0.0066   -0.0480    0.0000
C        -3.3016    0.9663    0.1265    0.0480   -0.0066    0.0000
C        -2.2764   -0.0588    0.1280   -0.0169   -0.0002   -0.0000
C        -0.6092   -5.7583    0.1333    0.0307   -0.0110    0.0000
C        -3.1252   -4.3959    0.1301    0.0263   -0.0193    0.0000
C        -1.8137   -6.4621    0.1328   -0.0550   -0.0254   -0.0000
C        -4.6993    0.8970    0.1255   -0.0110   -0.0307    0.0000
C        -3.3370    3.4131    0.1250   -0.0193   -0.0263    0.0000
C        -5.4031    2.1016    0.1242   -0.0254    0.0550   -0.0001
C        -3.0557   -5.7893    0.1313   -0.0088    0.0593   -0.0001
C        -1.6188   -2.2708    0.1299    0.0147    0.0087    0.0000
C        -1.9171   -3.6897    0.1307   -0.0374   -0.0317   -0.0000
C         3.2639    2.9186    0.1308    0.0374    0.0317    0.0000
C         2.9656    1.4998    0.1315   -0.0147   -0.0087   -0.0000
C        -4.7303    3.3435    0.1239    0.0593    0.0088    0.0000
C         3.6232   -0.7123    0.1333    0.0169    0.0002    0.0000
C         4.6484   -1.7374    0.1346   -0.0480    0.0066   -0.0000
C         2.5587   -2.6777    0.1336   -0.0087    0.0147   -0.0000
C         3.9776   -2.9761    0.1348    0.0317   -0.0374    0.0000
C        -0.6784   -4.3606    0.1322    0.0066    0.0480   -0.0000
C         0.3466   -3.3353    0.1323    0.0002   -0.0169    0.0000
C         1.9559    4.9872    0.1281   -0.0308    0.0110   -0.0000
C         4.4720    3.6248    0.1315   -0.0263    0.0193   -0.0000
C         3.1605    5.6910    0.1287    0.0551    0.0255    0.0000
C         4.4025    5.0182    0.1304    0.0088   -0.0593    0.0001
C         6.0461   -1.6681    0.1356    0.0110    0.0308   -0.0000
C         4.6838   -4.1842    0.1359    0.0193    0.0263    0.0000
C         6.7499   -2.8727    0.1368    0.0255   -0.0551    0.0000
C         6.0771   -4.1146    0.1369   -0.0593   -0.0088   -0.0000
H         6.5562   -0.7047    0.1355    0.0117    0.0381   -0.0000
H         4.1560   -5.1380    0.1360    0.0251    0.0310    0.0000
H         6.6624   -5.0353    0.1378    0.1390    0.1215    0.0000
H        -5.2094   -0.0664    0.1257   -0.0118   -0.0381    0.0000
H        -2.8092    4.3669    0.1248   -0.0251   -0.0310   -0.0000
H        -5.3156    4.2642    0.1229   -0.1390   -0.1214   -0.0000
H        -6.4939    2.0893    0.1234   -0.0268   -0.1846    0.0001
H         0.3542   -6.2683    0.1345    0.0381   -0.0117    0.0000
H        -4.0791   -3.8681    0.1290    0.0310   -0.0251    0.0000
H        -3.9763   -6.3745    0.1309    0.1214   -0.1390    0.0002
H        -1.8014   -7.5529    0.1337    0.1846   -0.0268    0.0002
H         0.9926    5.4972    0.1268   -0.0381    0.0117   -0.0000
H         5.4259    3.0971    0.1328   -0.0310    0.0251   -0.0000
H         5.3231    5.6035    0.1309   -0.1215    0.1390   -0.0002
H         3.1482    6.7818    0.1279   -0.1846    0.0268   -0.0002
H         7.8407   -2.8603    0.1376    0.0268    0.1847   -0.0001
    57
stable frequency at   1478.450 1/cm IR int. is 5.176 a.m.u.; force const. is 6.666 mDyne/Ang.
Fe        0.6734   -0.3855    0.1306   -0.0000   -0.0000   -0.0000
N         3.9138    0.5779    0.1328    0.0165    0.0057    0.0000
N         1.6368   -3.6259    0.1334   -0.0057    0.0165   -0.0000
N        -0.2395   -2.0709    0.1309   -0.0163    0.0087   -0.0000
N        -1.0120    0.5273    0.1286   -0.0087   -0.0163    0.0000
N         1.5863    1.2998    0.1304    0.0163   -0.0087    0.0000
N         2.3588   -1.2984    0.1326    0.0087    0.0163   -0.0000
N        -0.2900    2.8548    0.1277    0.0057   -0.0165    0.0000
N        -2.5670   -1.3489    0.1285   -0.0165   -0.0057   -0.0000
C        -2.6308    2.2050    0.1263   -0.0372    0.0140   -0.0000
C        -1.2119    1.9066    0.1276    0.0599    0.0233    0.0000
C         1.0001    2.5643    0.1290   -0.0638   -0.0128   -0.0000
C         2.0252    3.5895    0.1292    0.0228    0.0313   -0.0000
C        -3.3016    0.9663    0.1265    0.0313   -0.0228    0.0000
C        -2.2764   -0.0588    0.1280   -0.0128    0.0638   -0.0000
C        -0.6092   -5.7583    0.1333   -0.0241   -0.0076   -0.0000
C        -3.1252   -4.3959    0.1301   -0.0076    0.0231   -0.0000
C        -1.8137   -6.4621    0.1328    0.0427    0.0250    0.0000
C        -4.6993    0.8970    0.1255    0.0076   -0.0241    0.0000
C        -3.3370    3.4131    0.1250   -0.0231   -0.0076   -0.0000
C        -5.4031    2.1016    0.1242   -0.0250    0.0426   -0.0000
C        -3.0557   -5.7893    0.1313    0.0030   -0.0489    0.0000
C        -1.6188   -2.2708    0.1299    0.0233   -0.0599    0.0001
C        -1.9171   -3.6897    0.1307    0.0140    0.0372   -0.0000
C         3.2639    2.9186    0.1308   -0.0140   -0.0372    0.0000
C         2.9656    1.4998    0.1315   -0.0233    0.0599   -0.0001
C        -4.7303    3.3435    0.1239    0.0489    0.0030    0.0000
C         3.6232   -0.7123    0.1333    0.0128   -0.0638    0.0000
C         4.6484   -1.7374    0.1346   -0.0313    0.0228   -0.0000
C         2.5587   -2.6777    0.1336   -0.0599   -0.0233   -0.0000
C         3.9776   -2.9761    0.1348    0.0372   -0.0140    0.0000
C        -0.6784   -4.3606    0.1322   -0.0228   -0.0313    0.0000
C         0.3466   -3.3353    0.1323    0.0638    0.0128    0.0000
C         1.9559    4.9872    0.1281    0.0242    0.0076    0.0000
C         4.4720    3.6248    0.1315    0.0076   -0.0231    0.0000
C         3.1605    5.6910    0.1287   -0.0427   -0.0250   -0.0000
C         4.4025    5.0182    0.1304   -0.0030    0.0489   -0.0000
C         6.0461   -1.6681    0.1356   -0.0076    0.0242   -0.0000
C         4.6838   -4.1842    0.1359    0.0231    0.0076    0.0000
C         6.7499   -2.8727    0.1368    0.0250   -0.0427    0.0000
C         6.0771   -4.1146    0.1369   -0.0489   -0.0030   -0.0000
H         6.5562   -0.7047    0.1355    0.0190    0.0148    0.0000
H         4.1560   -5.1380    0.1360    0.0053    0.0221   -0.0000
H         6.6624   -5.0353    0.1378    0.0848    0.0853    0.0000
H        -5.2094   -0.0664    0.1257   -0.0190   -0.0148   -0.0000
H        -2.8092    4.3669    0.1248   -0.0053   -0.0221    0.0000
H        -5.3156    4.2642    0.1229   -0.0848   -0.0853   -0.0000
H        -6.4939    2.0893    0.1234   -0.0263   -0.1177    0.0000
H         0.3542   -6.2683    0.1345   -0.0148    0.0190   -0.0000
H        -4.0791   -3.8681    0.1290   -0.0221    0.0053   -0.0000
H        -3.9763   -6.3745    0.1309   -0.0853    0.0848   -0.0001
H        -1.8014   -7.5529    0.1337   -0.1177    0.0263   -0.0001
H         0.9926    5.4972    0.1268    0.0148   -0.0190    0.0000
H         5.4259    3.0971    0.1328    0.0221   -0.0053    0.0000
H         5.3231    5.6035    0.1309    0.0853   -0.0848    0.0001
H         3.1482    6.7818    0.1279    0.1177   -0.0263    0.0001
H         7.8407   -2.8603    0.1376    0.0263    0.1177   -0.0000
    57
stable frequency at   1495.025 1/cm IR int. is 8.235 a.m.u.; force const. is 10.844 mDyne/Ang.
Fe        0.6734   -0.3855    0.1306    0.0018   -0.0021    0.0000
N         3.9138    0.5779    0.1328   -0.0272    0.0707   -0.0001
N         1.6368   -3.6259    0.1334   -0.0386    0.0054   -0.0000
N        -0.2395   -2.0709    0.1309   -0.0090    0.0052   -0.0000
N        -1.0120    0.5273    0.1286    0.0006    0.0050   -0.0000
N         1.5863    1.2998    0.1304   -0.0089    0.0052   -0.0000
N         2.3588   -1.2984    0.1326    0.0006    0.0050   -0.0000
N        -0.2900    2.8548    0.1277   -0.0386    0.0054   -0.0000
N        -2.5670   -1.3489    0.1285   -0.0272    0.0707   -0.0001
C        -2.6308    2.2050    0.1263    0.0567    0.0055    0.0000
C        -1.2119    1.9066    0.1276   -0.0500   -0.0048   -0.0000
C         1.0001    2.5643    0.1290    0.0948    0.0194    0.0001
C         2.0252    3.5895    0.1292   -0.0411   -0.0249   -0.0000
C        -3.3016    0.9663    0.1265    0.0125   -0.0312    0.0000
C        -2.2764   -0.0588    0.1280   -0.0137   -0.0252    0.0000
C        -0.6092   -5.7583    0.1333   -0.0058    0.0014   -0.0000
C        -3.1252   -4.3959    0.1301    0.0085    0.0263   -0.0000
C        -1.8137   -6.4621    0.1328    0.0230    0.0118    0.0000
C        -4.6993    0.8970    0.1255   -0.0344    0.0199   -0.0000
C        -3.3370    3.4131    0.1250   -0.0219    0.0163   -0.0000
C        -5.4031    2.1016    0.1242    0.0155   -0.0098    0.0000
C        -3.0557   -5.7893    0.1313   -0.0034   -0.0290    0.0000
C        -1.6188   -2.2708    0.1299    0.0389   -0.0706    0.0001
C        -1.9171   -3.6897    0.1307    0.0047    0.0118   -0.0000
C         3.2639    2.9186    0.1308    0.0047    0.0118   -0.0000
C         2.9656    1.4998    0.1315    0.0389   -0.0706    0.0001
C        -4.7303    3.3435    0.1239   -0.0069   -0.0075    0.0000
C         3.6232   -0.7123    0.1333   -0.0137   -0.0252    0.0000
C         4.6484   -1.7374    0.1346    0.0125   -0.0312    0.0000
C         2.5587   -2.6777    0.1336   -0.0500   -0.0048   -0.0000
C         3.9776   -2.9761    0.1348    0.0567    0.0055    0.0000
C        -0.6784   -4.3606    0.1322   -0.0411   -0.0249   -0.0000
C         0.3466   -3.3353    0.1323    0.0948    0.0194    0.0001
C         1.9559    4.9872    0.1281   -0.0058    0.0014   -0.0000
C         4.4720    3.6248    0.1315    0.0085    0.0263   -0.0000
C         3.1605    5.6910    0.1287    0.0230    0.0118    0.0000
C         4.4025    5.0182    0.1304   -0.0034   -0.0290    0.0000
C         6.0461   -1.6681    0.1356   -0.0344    0.0199   -0.0000
C         4.6838   -4.1842    0.1359   -0.0219    0.0163   -0.0000
C         6.7499   -2.8727    0.1368    0.0155   -0.0098    0.0000
C         6.0771   -4.1146    0.1369   -0.0069   -0.0075   -0.0000
H         6.5562   -0.7047    0.1355    0.0687   -0.0356    0.0001
H         4.1560   -5.1380    0.1360    0.0679   -0.0303    0.0001
H         6.6624   -5.0353    0.1378    0.0433    0.0230    0.0000
H        -5.2094   -0.0664    0.1257    0.0687   -0.0356    0.0001
H        -2.8092    4.3669    0.1248    0.0679   -0.0303    0.0001
H        -5.3156    4.2642    0.1229    0.0433    0.0230    0.0000
H        -6.4939    2.0893    0.1234    0.0180   -0.0046    0.0000
H         0.3542   -6.2683    0.1345   -0.0202   -0.0211   -0.0000
H        -4.0791   -3.8681    0.1290   -0.0210   -0.0257   -0.0000
H        -3.9763   -6.3745    0.1309   -0.0386    0.0225   -0.0000
H        -1.8014   -7.5529    0.1337   -0.0619    0.0117   -0.0001
H         0.9926    5.4972    0.1268   -0.0202   -0.0211   -0.0000
H         5.4259    3.0971    0.1328   -0.0210   -0.0257   -0.0000
H         5.3231    5.6035    0.1309   -0.0386    0.0225   -0.0001
H         3.1482    6.7818    0.1279   -0.0619    0.0117   -0.0001
H         7.8407   -2.8603    0.1376    0.0180   -0.0046    0.0000
    57
stable frequency at   1495.027 1/cm IR int. is 8.235 a.m.u.; force const. is 10.845 mDyne/Ang.
Fe        0.6734   -0.3855    0.1306   -0.0021   -0.0018   -0.0000
N         3.9138    0.5779    0.1328    0.0054    0.0386   -0.0000
N         1.6368   -3.6259    0.1334    0.0707    0.0272    0.0000
N        -0.2395   -2.0709    0.1309    0.0050   -0.0006    0.0000
N        -1.0120    0.5273    0.1286    0.0052    0.0089   -0.0000
N         1.5863    1.2998    0.1304    0.0050   -0.0006    0.0000
N         2.3588   -1.2984    0.1326    0.0052    0.0089   -0.0000
N        -0.2900    2.8548    0.1277    0.0707    0.0272    0.0000
N        -2.5670   -1.3489    0.1285    0.0054    0.0386   -0.0000
C        -2.6308    2.2050    0.1263    0.0118   -0.0047    0.0000
C        -1.2119    1.9066    0.1276   -0.0707   -0.0389   -0.0000
C         1.0001    2.5643    0.1290   -0.0252    0.0137   -0.0000
C         2.0252    3.5895    0.1292   -0.0312   -0.0125   -0.0000
C        -3.3016    0.9663    0.1265   -0.0249    0.0411   -0.0000
C        -2.2764   -0.0588    0.1280    0.0194   -0.0948    0.0001
C        -0.6092   -5.7583    0.1333    0.0199    0.0344   -0.0000
C        -3.1252   -4.3959    0.1301    0.0163    0.0219   -0.0000
C        -1.8137   -6.4621    0.1328   -0.0098   -0.0155    0.0000
C        -4.6993    0.8970    0.1255    0.0014    0.0058   -0.0000
C        -3.3370    3.4131    0.1250    0.0263   -0.0085    0.0000
C        -5.4031    2.1016    0.1242    0.0118   -0.0230    0.0000
C        -3.0557   -5.7893    0.1313   -0.0075    0.0069   -0.0000
C        -1.6188   -2.2708    0.1299   -0.0048    0.0500   -0.0000
C        -1.9171   -3.6897    0.1307    0.0055   -0.0567    0.0000
C         3.2639    2.9186    0.1308    0.0055   -0.0567    0.0000
C         2.9656    1.4998    0.1315   -0.0048    0.0500   -0.0000
C        -4.7303    3.3435    0.1239   -0.0290    0.0034   -0.0000
C         3.6232   -0.7123    0.1333    0.0194   -0.0948    0.0001
C         4.6484   -1.7374    0.1346   -0.0249    0.0411   -0.0000
C         2.5587   -2.6777    0.1336   -0.0706   -0.0389   -0.0000
C         3.9776   -2.9761    0.1348    0.0118   -0.0047    0.0000
C        -0.6784   -4.3606    0.1322   -0.0312   -0.0125   -0.0000
C         0.3466   -3.3353    0.1323   -0.0252    0.0137   -0.0000
C         1.9559    4.9872    0.1281    0.0199    0.0344   -0.0000
C         4.4720    3.6248    0.1315    0.0163    0.0219    0.0000
C         3.1605    5.6910    0.1287   -0.0098   -0.0155    0.0000
C         4.4025    5.0182    0.1304   -0.0075    0.0069   -0.0000
C         6.0461   -1.6681    0.1356    0.0014    0.0058   -0.0000
C         4.6838   -4.1842    0.1359    0.0263   -0.0085    0.0000
C         6.7499   -2.8727    0.1368    0.0118   -0.0230    0.0000
C         6.0771   -4.1146    0.1369   -0.0290    0.0034   -0.0000
H         6.5562   -0.7047    0.1355   -0.0211    0.0202   -0.0000
H         4.1560   -5.1380    0.1360   -0.0257    0.0210   -0.0000
H         6.6624   -5.0353    0.1378    0.0225    0.0386    0.0000
H        -5.2094   -0.0664    0.1257   -0.0211    0.0201   -0.0000
H        -2.8092    4.3669    0.1248   -0.0257    0.0210   -0.0000
H        -5.3156    4.2642    0.1229    0.0225    0.0386    0.0000
H        -6.4939    2.0893    0.1234    0.0117    0.0619   -0.0000
H         0.3542   -6.2683    0.1345   -0.0356   -0.0687    0.0000
H        -4.0791   -3.8681    0.1290   -0.0303   -0.0679    0.0000
H        -3.9763   -6.3745    0.1309    0.0230   -0.0433    0.0001
H        -1.8014   -7.5529    0.1337   -0.0046   -0.0180    0.0000
H         0.9926    5.4972    0.1268   -0.0356   -0.0687    0.0000
H         5.4259    3.0971    0.1328   -0.0303   -0.0679    0.0000
H         5.3231    5.6035    0.1309    0.0230   -0.0433    0.0001
H         3.1482    6.7818    0.1279   -0.0046   -0.0180    0.0000
H         7.8407   -2.8603    0.1376    0.0117    0.0619   -0.0000
    57
stable frequency at   1510.959 1/cm IR int. is 12.233 a.m.u.; force const. is 16.455 mDyne/Ang.
Fe        0.6734   -0.3855    0.1306   -0.0000   -0.0000   -0.0000
N         3.9138    0.5779    0.1328    0.0250   -0.0876    0.0001
N         1.6368   -3.6259    0.1334   -0.0876   -0.0250   -0.0001
N        -0.2395   -2.0709    0.1309   -0.0004   -0.0000   -0.0000
N        -1.0120    0.5273    0.1286   -0.0000    0.0004   -0.0000
N         1.5863    1.2998    0.1304    0.0004    0.0000    0.0000
N         2.3588   -1.2984    0.1326    0.0000   -0.0004    0.0000
N        -0.2900    2.8548    0.1277    0.0876    0.0250    0.0001
N        -2.5670   -1.3489    0.1285   -0.0250    0.0876   -0.0001
C        -2.6308    2.2050    0.1263    0.0167   -0.0010    0.0000
C        -1.2119    1.9066    0.1276   -0.0591   -0.0346   -0.0000
C         1.0001    2.5643    0.1290   -0.0747   -0.0035   -0.0001
C         2.0252    3.5895    0.1292    0.0164    0.0111    0.0000
C        -3.3016    0.9663    0.1265   -0.0111    0.0164   -0.0000
C        -2.2764   -0.0588    0.1280    0.0035   -0.0747    0.0000
C        -0.6092   -5.7583    0.1333    0.0056    0.0039    0.0000
C        -3.1252   -4.3959    0.1301    0.0004   -0.0056    0.0000
C        -1.8137   -6.4621    0.1328   -0.0020   -0.0009   -0.0000
C        -4.6993    0.8970    0.1255    0.0039   -0.0056    0.0000
C        -3.3370    3.4131    0.1250   -0.0056   -0.0004   -0.0000
C        -5.4031    2.1016    0.1242   -0.0009    0.0020   -0.0000
C        -3.0557   -5.7893    0.1313   -0.0009    0.0023   -0.0000
C        -1.6188   -2.2708    0.1299    0.0346   -0.0591    0.0001
C        -1.9171   -3.6897    0.1307    0.0010    0.0167   -0.0000
C         3.2639    2.9186    0.1308   -0.0010   -0.0167    0.0000
C         2.9656    1.4998    0.1315   -0.0346    0.0591   -0.0001
C        -4.7303    3.3435    0.1239    0.0023    0.0009    0.0000
C         3.6232   -0.7123    0.1333   -0.0035    0.0747   -0.0000
C         4.6484   -1.7374    0.1346    0.0111   -0.0164    0.0000
C         2.5587   -2.6777    0.1336    0.0591    0.0346    0.0000
C         3.9776   -2.9761    0.1348   -0.0167    0.0010   -0.0000
C        -0.6784   -4.3606    0.1322   -0.0164   -0.0111   -0.0000
C         0.3466   -3.3353    0.1323    0.0747    0.0035    0.0001
C         1.9559    4.9872    0.1281   -0.0056   -0.0039   -0.0000
C         4.4720    3.6248    0.1315   -0.0004    0.0056   -0.0000
C         3.1605    5.6910    0.1287    0.0020    0.0009    0.0000
C         4.4025    5.0182    0.1304    0.0009   -0.0023    0.0000
C         6.0461   -1.6681    0.1356   -0.0039    0.0056   -0.0000
C         4.6838   -4.1842    0.1359    0.0056    0.0004    0.0000
C         6.7499   -2.8727    0.1368    0.0009   -0.0020    0.0000
C         6.0771   -4.1146    0.1369   -0.0023   -0.0009   -0.0000
H         6.5562   -0.7047    0.1355    0.0221   -0.0077    0.0000
H         4.1560   -5.1380    0.1360   -0.0152    0.0123   -0.0000
H         6.6624   -5.0353    0.1378    0.0075    0.0057    0.0000
H        -5.2094   -0.0664    0.1257   -0.0221    0.0077   -0.0000
H        -2.8092    4.3669    0.1248    0.0152   -0.0123    0.0000
H        -5.3156    4.2642    0.1229   -0.0075   -0.0057   -0.0000
H        -6.4939    2.0893    0.1234   -0.0011   -0.0085    0.0000
H         0.3542   -6.2683    0.1345   -0.0077   -0.0221    0.0000
H        -4.0791   -3.8681    0.1290    0.0123    0.0152   -0.0000
H        -3.9763   -6.3745    0.1309    0.0057   -0.0075    0.0000
H        -1.8014   -7.5529    0.1337    0.0085   -0.0011    0.0000
H         0.9926    5.4972    0.1268    0.0077    0.0221   -0.0000
H         5.4259    3.0971    0.1328   -0.0123   -0.0152   -0.0000
H         5.3231    5.6035    0.1309   -0.0057    0.0075   -0.0000
H         3.1482    6.7818    0.1279   -0.0085    0.0011   -0.0000
H         7.8407   -2.8603    0.1376    0.0011    0.0085   -0.0000
    57
stable frequency at   1523.151 1/cm IR int. is 11.609 a.m.u.; force const. is 15.868 mDyne/Ang.
Fe        0.6734   -0.3855    0.1306   -0.0003   -0.0016    0.0000
N         3.9138    0.5779    0.1328   -0.0381    0.0662   -0.0001
N         1.6368   -3.6259    0.1334    0.0462   -0.0177    0.0000
N        -0.2395   -2.0709    0.1309    0.0114    0.0098    0.0000
N        -1.0120    0.5273    0.1286   -0.0133   -0.0162   -0.0000
N         1.5863    1.2998    0.1304    0.0114    0.0098    0.0000
N         2.3588   -1.2984    0.1326   -0.0133   -0.0162   -0.0000
N        -0.2900    2.8548    0.1277    0.0462   -0.0177    0.0001
N        -2.5670   -1.3489    0.1285   -0.0381    0.0662   -0.0001
C        -2.6308    2.2050    0.1263   -0.0028   -0.0151    0.0000
C        -1.2119    1.9066    0.1276    0.0282    0.0339    0.0000
C         1.0001    2.5643    0.1290   -0.1123    0.0172   -0.0001
C         2.0252    3.5895    0.1292    0.0271   -0.0074    0.0000
C        -3.3016    0.9663    0.1265   -0.0077    0.0018   -0.0000
C        -2.2764   -0.0588    0.1280    0.0040   -0.0194    0.0000
C        -0.6092   -5.7583    0.1333   -0.0012    0.0113   -0.0000
C        -3.1252   -4.3959    0.1301    0.0065   -0.0021    0.0000
C        -1.8137   -6.4621    0.1328   -0.0042   -0.0044   -0.0000
C        -4.6993    0.8970    0.1255    0.0116   -0.0095    0.0000
C        -3.3370    3.4131    0.1250   -0.0165    0.0100   -0.0000
C        -5.4031    2.1016    0.1242   -0.0081    0.0102   -0.0000
C        -3.0557   -5.7893    0.1313   -0.0006    0.0001   -0.0000
C        -1.6188   -2.2708    0.1299    0.0710   -0.0875    0.0001
C        -1.9171   -3.6897    0.1307   -0.0156    0.0212   -0.0000
C         3.2639    2.9186    0.1308   -0.0156    0.0212   -0.0000
C         2.9656    1.4998    0.1315    0.0710   -0.0875    0.0001
C        -4.7303    3.3435    0.1239    0.0148   -0.0020    0.0000
C         3.6232   -0.7123    0.1333    0.0040   -0.0194    0.0000
C         4.6484   -1.7374    0.1346   -0.0077    0.0018   -0.0000
C         2.5587   -2.6777    0.1336    0.0282    0.0339    0.0000
C         3.9776   -2.9761    0.1348   -0.0028   -0.0151    0.0000
C        -0.6784   -4.3606    0.1322    0.0271   -0.0074    0.0000
C         0.3466   -3.3353    0.1323   -0.1123    0.0172   -0.0001
C         1.9559    4.9872    0.1281   -0.0012    0.0113   -0.0000
C         4.4720    3.6248    0.1315    0.0065   -0.0021    0.0000
C         3.1605    5.6910    0.1287   -0.0042   -0.0044   -0.0000
C         4.4025    5.0182    0.1304   -0.0006    0.0001   -0.0000
C         6.0461   -1.6681    0.1356    0.0116   -0.0095    0.0000
C         4.6838   -4.1842    0.1359   -0.0165    0.0100   -0.0000
C         6.7499   -2.8727    0.1368   -0.0081    0.0102   -0.0000
C         6.0771   -4.1146    0.1369    0.0148   -0.0020    0.0000
H         6.5562   -0.7047    0.1355   -0.0254    0.0096   -0.0000
H         4.1560   -5.1380    0.1360    0.0218   -0.0107    0.0000
H         6.6624   -5.0353    0.1378   -0.0065   -0.0165    0.0000
H        -5.2094   -0.0664    0.1257   -0.0254    0.0096   -0.0000
H        -2.8092    4.3669    0.1248    0.0218   -0.0107    0.0000
H        -5.3156    4.2642    0.1229   -0.0065   -0.0165    0.0000
H        -6.4939    2.0893    0.1234   -0.0087   -0.0238    0.0000
H         0.3542   -6.2683    0.1345   -0.0044    0.0074   -0.0000
H        -4.0791   -3.8681    0.1290    0.0153    0.0116    0.0000
H        -3.9763   -6.3745    0.1309    0.0099   -0.0157    0.0000
H        -1.8014   -7.5529    0.1337   -0.0104   -0.0045   -0.0000
H         0.9926    5.4972    0.1268   -0.0044    0.0074   -0.0000
H         5.4259    3.0971    0.1328    0.0153    0.0116    0.0000
H         5.3231    5.6035    0.1309    0.0099   -0.0157    0.0000
H         3.1482    6.7818    0.1279   -0.0104   -0.0045   -0.0000
H         7.8407   -2.8603    0.1376   -0.0087   -0.0238    0.0000
    57
stable frequency at   1523.152 1/cm IR int. is 11.609 a.m.u.; force const. is 15.868 mDyne/Ang.
Fe        0.6734   -0.3855    0.1306   -0.0016    0.0003   -0.0000
N         3.9138    0.5779    0.1328   -0.0177   -0.0462    0.0000
N         1.6368   -3.6259    0.1334    0.0662    0.0381    0.0000
N        -0.2395   -2.0709    0.1309   -0.0162    0.0133   -0.0000
N        -1.0120    0.5273    0.1286    0.0098   -0.0114    0.0000
N         1.5863    1.2998    0.1304   -0.0162    0.0133   -0.0000
N         2.3588   -1.2984    0.1326    0.0098   -0.0114    0.0000
N        -0.2900    2.8548    0.1277    0.0662    0.0381    0.0000
N        -2.5670   -1.3489    0.1285   -0.0177   -0.0462    0.0000
C        -2.6308    2.2050    0.1263    0.0212    0.0156    0.0000
C        -1.2119    1.9066    0.1276   -0.0875   -0.0710   -0.0000
C         1.0001    2.5643    0.1290   -0.0194   -0.0040   -0.0000
C         2.0252    3.5895    0.1292    0.0018    0.0077   -0.0000
C        -3.3016    0.9663    0.1265   -0.0074   -0.0271    0.0000
C        -2.2764   -0.0588    0.1280    0.0172    0.1123   -0.0001
C        -0.6092   -5.7583    0.1333   -0.0095   -0.0116    0.0000
C        -3.1252   -4.3959    0.1301    0.0100    0.0165   -0.0000
C        -1.8137   -6.4621    0.1328    0.0102    0.0081    0.0000
C        -4.6993    0.8970    0.1255    0.0113    0.0012    0.0000
C        -3.3370    3.4131    0.1250   -0.0021   -0.0065    0.0000
C        -5.4031    2.1016    0.1242   -0.0044    0.0042   -0.0000
C        -3.0557   -5.7893    0.1313   -0.0020   -0.0148    0.0000
C        -1.6188   -2.2708    0.1299    0.0339   -0.0282    0.0000
C        -1.9171   -3.6897    0.1307   -0.0151    0.0028   -0.0000
C         3.2639    2.9186    0.1308   -0.0151    0.0029   -0.0000
C         2.9656    1.4998    0.1315    0.0339   -0.0282    0.0000
C        -4.7303    3.3435    0.1239    0.0001    0.0006   -0.0000
C         3.6232   -0.7123    0.1333    0.0172    0.1123   -0.0000
C         4.6484   -1.7374    0.1346   -0.0074   -0.0271    0.0000
C         2.5587   -2.6777    0.1336   -0.0875   -0.0710   -0.0000
C         3.9776   -2.9761    0.1348    0.0212    0.0156    0.0000
C        -0.6784   -4.3606    0.1322    0.0018    0.0077   -0.0000
C         0.3466   -3.3353    0.1323   -0.0194   -0.0040   -0.0000
C         1.9559    4.9872    0.1281   -0.0095   -0.0116   -0.0000
C         4.4720    3.6248    0.1315    0.0100    0.0165   -0.0000
C         3.1605    5.6910    0.1287    0.0102    0.0081    0.0000
C         4.4025    5.0182    0.1304   -0.0020   -0.0148    0.0000
C         6.0461   -1.6681    0.1356    0.0113    0.0012    0.0000
C         4.6838   -4.1842    0.1359   -0.0021   -0.0065    0.0000
C         6.7499   -2.8727    0.1368   -0.0044    0.0042   -0.0000
C         6.0771   -4.1146    0.1369    0.0001    0.0006   -0.0000
H         6.5562   -0.7047    0.1355    0.0074    0.0044    0.0000
H         4.1560   -5.1380    0.1360    0.0116   -0.0153    0.0000
H         6.6624   -5.0353    0.1378   -0.0157   -0.0099   -0.0000
H        -5.2094   -0.0664    0.1257    0.0074    0.0044    0.0000
H        -2.8092    4.3669    0.1248    0.0116   -0.0153    0.0000
H        -5.3156    4.2642    0.1229   -0.0157   -0.0099   -0.0000
H        -6.4939    2.0893    0.1234   -0.0045    0.0104   -0.0000
H         0.3542   -6.2683    0.1345    0.0096    0.0254   -0.0000
H        -4.0791   -3.8681    0.1290   -0.0107   -0.0218    0.0000
H        -3.9763   -6.3745    0.1309   -0.0165    0.0065   -0.0000
H        -1.8014   -7.5529    0.1337   -0.0238    0.0087   -0.0000
H         0.9926    5.4972    0.1268    0.0096    0.0254   -0.0000
H         5.4259    3.0971    0.1328   -0.0107   -0.0218    0.0000
H         5.3231    5.6035    0.1309   -0.0165    0.0065   -0.0000
H         3.1482    6.7818    0.1279   -0.0238    0.0087   -0.0000
H         7.8407   -2.8603    0.1376   -0.0045    0.0104   -0.0000
    57
stable frequency at   1536.717 1/cm IR int. is 10.647 a.m.u.; force const. is 14.814 mDyne/Ang.
Fe        0.6734   -0.3855    0.1306    0.0000   -0.0000    0.0000
N         3.9138    0.5779    0.1328   -0.0264   -0.0044   -0.0000
N         1.6368   -3.6259    0.1334   -0.0044    0.0264   -0.0000
N        -0.2395   -2.0709    0.1309   -0.0034   -0.0064    0.0000
N        -1.0120    0.5273    0.1286   -0.0064    0.0034   -0.0000
N         1.5863    1.2998    0.1304    0.0034    0.0064   -0.0000
N         2.3588   -1.2984    0.1326    0.0064   -0.0034    0.0000
N        -0.2900    2.8548    0.1277    0.0044   -0.0264    0.0000
N        -2.5670   -1.3489    0.1285    0.0264    0.0044    0.0000
C        -2.6308    2.2050    0.1263   -0.0413   -0.0117   -0.0000
C        -1.2119    1.9066    0.1276    0.0779    0.0474    0.0000
C         1.0001    2.5643    0.1290   -0.0858   -0.0025   -0.0001
C         2.0252    3.5895    0.1292    0.0399    0.0120    0.0000
C        -3.3016    0.9663    0.1265   -0.0120    0.0399   -0.0000
C        -2.2764   -0.0588    0.1280    0.0025   -0.0858    0.0001
C        -0.6092   -5.7583    0.1333    0.0088    0.0108   -0.0000
C        -3.1252   -4.3959    0.1301    0.0043    0.0133   -0.0000
C        -1.8137   -6.4621    0.1328    0.0008   -0.0021    0.0000
C        -4.6993    0.8970    0.1255    0.0108   -0.0088    0.0000
C        -3.3370    3.4131    0.1250    0.0133   -0.0043    0.0000
C        -5.4031    2.1016    0.1242   -0.0021   -0.0008   -0.0000
C        -3.0557   -5.7893    0.1313   -0.0021   -0.0001   -0.0000
C        -1.6188   -2.2708    0.1299   -0.0475    0.0779   -0.0001
C        -1.9171   -3.6897    0.1307    0.0117   -0.0413    0.0000
C         3.2639    2.9186    0.1308   -0.0117    0.0413   -0.0000
C         2.9656    1.4998    0.1315    0.0474   -0.0779    0.0001
C        -4.7303    3.3435    0.1239   -0.0001    0.0021   -0.0000
C         3.6232   -0.7123    0.1333   -0.0025    0.0858   -0.0000
C         4.6484   -1.7374    0.1346    0.0120   -0.0399    0.0000
C         2.5587   -2.6777    0.1336   -0.0778   -0.0474   -0.0000
C         3.9776   -2.9761    0.1348    0.0413    0.0117    0.0000
C        -0.6784   -4.3606    0.1322   -0.0399   -0.0120   -0.0000
C         0.3466   -3.3353    0.1323    0.0858    0.0025    0.0001
C         1.9559    4.9872    0.1281   -0.0088   -0.0108   -0.0000
C         4.4720    3.6248    0.1315   -0.0043   -0.0133    0.0000
C         3.1605    5.6910    0.1287   -0.0008    0.0021   -0.0000
C         4.4025    5.0182    0.1304    0.0021    0.0001    0.0000
C         6.0461   -1.6681    0.1356   -0.0108    0.0088   -0.0000
C         4.6838   -4.1842    0.1359   -0.0133    0.0043   -0.0000
C         6.7499   -2.8727    0.1368    0.0021    0.0008    0.0000
C         6.0771   -4.1146    0.1369    0.0001   -0.0021    0.0000
H         6.5562   -0.7047    0.1355    0.0351   -0.0157    0.0000
H         4.1560   -5.1380    0.1360    0.0332   -0.0210    0.0000
H         6.6624   -5.0353    0.1378    0.0028   -0.0016    0.0000
H        -5.2094   -0.0664    0.1257   -0.0351    0.0157   -0.0000
H        -2.8092    4.3669    0.1248   -0.0332    0.0210   -0.0000
H        -5.3156    4.2642    0.1229   -0.0028    0.0016   -0.0000
H        -6.4939    2.0893    0.1234   -0.0030    0.0014   -0.0000
H         0.3542   -6.2683    0.1345   -0.0157   -0.0351    0.0000
H        -4.0791   -3.8681    0.1290   -0.0210   -0.0332    0.0000
H        -3.9763   -6.3745    0.1309   -0.0016   -0.0028    0.0000
H        -1.8014   -7.5529    0.1337   -0.0014   -0.0030    0.0000
H         0.9926    5.4972    0.1268    0.0157    0.0351   -0.0000
H         5.4259    3.0971    0.1328    0.0210    0.0332   -0.0000
H         5.3231    5.6035    0.1309    0.0016    0.0028   -0.0000
H         3.1482    6.7818    0.1279    0.0014    0.0030   -0.0000
H         7.8407   -2.8603    0.1376    0.0030   -0.0014    0.0000
    57
stable frequency at   1546.637 1/cm IR int. is 10.786 a.m.u.; force const. is 15.202 mDyne/Ang.
Fe        0.6734   -0.3855    0.1306    0.0000    0.0000   -0.0000
N         3.9138    0.5779    0.1328   -0.0234    0.0776   -0.0001
N         1.6368   -3.6259    0.1334   -0.0776   -0.0234   -0.0000
N        -0.2395   -2.0709    0.1309   -0.0061   -0.0119    0.0000
N        -1.0120    0.5273    0.1286    0.0119   -0.0061    0.0000
N         1.5863    1.2998    0.1304    0.0061    0.0119   -0.0000
N         2.3588   -1.2984    0.1326   -0.0119    0.0061   -0.0000
N        -0.2900    2.8548    0.1277    0.0776    0.0234    0.0000
N        -2.5670   -1.3489    0.1285    0.0234   -0.0776    0.0001
C        -2.6308    2.2050    0.1263   -0.0043    0.0231   -0.0000
C        -1.2119    1.9066    0.1276   -0.0504   -0.0522   -0.0000
C         1.0001    2.5643    0.1290   -0.0687    0.0164   -0.0001
C         2.0252    3.5895    0.1292    0.0084   -0.0220    0.0000
C        -3.3016    0.9663    0.1265   -0.0220   -0.0084   -0.0000
C        -2.2764   -0.0588    0.1280    0.0164    0.0687   -0.0000
C        -0.6092   -5.7583    0.1333    0.0040   -0.0194    0.0000
C        -3.1252   -4.3959    0.1301   -0.0186   -0.0075   -0.0000
C        -1.8137   -6.4621    0.1328   -0.0138    0.0070   -0.0000
C        -4.6993    0.8970    0.1255    0.0194    0.0040    0.0000
C        -3.3370    3.4131    0.1250    0.0075   -0.0186    0.0000
C        -5.4031    2.1016    0.1242   -0.0070   -0.0138    0.0000
C        -3.0557   -5.7893    0.1313    0.0135   -0.0074    0.0000
C        -1.6188   -2.2708    0.1299   -0.0521    0.0503   -0.0001
C        -1.9171   -3.6897    0.1307    0.0231    0.0043    0.0000
C         3.2639    2.9186    0.1308   -0.0231   -0.0043   -0.0000
C         2.9656    1.4998    0.1315    0.0521   -0.0503    0.0001
C        -4.7303    3.3435    0.1239    0.0074    0.0135   -0.0000
C         3.6232   -0.7123    0.1333   -0.0164   -0.0687    0.0000
C         4.6484   -1.7374    0.1346    0.0220    0.0084    0.0000
C         2.5587   -2.6777    0.1336    0.0504    0.0522    0.0000
C         3.9776   -2.9761    0.1348    0.0043   -0.0231    0.0000
C        -0.6784   -4.3606    0.1322   -0.0084    0.0221   -0.0000
C         0.3466   -3.3353    0.1323    0.0687   -0.0164    0.0001
C         1.9559    4.9872    0.1281   -0.0040    0.0194   -0.0000
C         4.4720    3.6248    0.1315    0.0186    0.0075    0.0000
C         3.1605    5.6910    0.1287    0.0138   -0.0070    0.0000
C         4.4025    5.0182    0.1304   -0.0135    0.0074   -0.0000
C         6.0461   -1.6681    0.1356   -0.0194   -0.0040   -0.0000
C         4.6838   -4.1842    0.1359   -0.0075    0.0186   -0.0000
C         6.7499   -2.8727    0.1368    0.0070    0.0138   -0.0000
C         6.0771   -4.1146    0.1369   -0.0074   -0.0135    0.0000
H         6.5562   -0.7047    0.1355    0.0091   -0.0216    0.0000
H         4.1560   -5.1380    0.1360    0.0239    0.0041    0.0000
H         6.6624   -5.0353    0.1378    0.0344    0.0123    0.0000
H        -5.2094   -0.0664    0.1257   -0.0091    0.0216   -0.0000
H        -2.8092    4.3669    0.1248   -0.0239   -0.0041   -0.0000
H        -5.3156    4.2642    0.1229   -0.0344   -0.0123   -0.0000
H        -6.4939    2.0893    0.1234   -0.0081    0.0356   -0.0000
H         0.3542   -6.2683    0.1345    0.0216    0.0091    0.0000
H        -4.0791   -3.8681    0.1290   -0.0041    0.0239   -0.0000
H        -3.9763   -6.3745    0.1309   -0.0123    0.0344   -0.0000
H        -1.8014   -7.5529    0.1337    0.0356    0.0081    0.0000
H         0.9926    5.4972    0.1268   -0.0216   -0.0091   -0.0000
H         5.4259    3.0971    0.1328    0.0041   -0.0239    0.0000
H         5.3231    5.6035    0.1309    0.0123   -0.0344    0.0000
H         3.1482    6.7818    0.1279   -0.0356   -0.0081   -0.0000
H         7.8407   -2.8603    0.1376    0.0081   -0.0356    0.0000
    57
stable frequency at   1579.298 1/cm IR int. is 7.290 a.m.u.; force const. is 10.712 mDyne/Ang.
Fe        0.6734   -0.3855    0.1306    0.0001    0.0002   -0.0000
N         3.9138    0.5779    0.1328   -0.0009    0.0116   -0.0000
N         1.6368   -3.6259    0.1334    0.0119    0.0055    0.0000
N        -0.2395   -2.0709    0.1309   -0.0001   -0.0011    0.0000
N        -1.0120    0.5273    0.1286   -0.0006   -0.0006   -0.0000
N         1.5863    1.2998    0.1304   -0.0001   -0.0011    0.0000
N         2.3588   -1.2984    0.1326   -0.0006   -0.0006   -0.0000
N        -0.2900    2.8548    0.1277    0.0119    0.0055    0.0000
N        -2.5670   -1.3489    0.1285   -0.0009    0.0116   -0.0000
C        -2.6308    2.2050    0.1263    0.0066   -0.0165    0.0000
C        -1.2119    1.9066    0.1276   -0.0058   -0.0006   -0.0000
C         1.0001    2.5643    0.1290   -0.0140   -0.0190    0.0000
C         2.0252    3.5895    0.1292   -0.0542    0.0874   -0.0001
C        -3.3016    0.9663    0.1265   -0.0002    0.0087   -0.0000
C        -2.2764   -0.0588    0.1280   -0.0012   -0.0045    0.0000
C        -0.6092   -5.7583    0.1333    0.0293   -0.0435    0.0001
C        -3.1252   -4.3959    0.1301   -0.0473    0.0098   -0.0000
C        -1.8137   -6.4621    0.1328   -0.0723    0.0204   -0.0001
C        -4.6993    0.8970    0.1255    0.0055   -0.0090    0.0000
C        -3.3370    3.4131    0.1250   -0.0092    0.0103   -0.0000
C        -5.4031    2.1016    0.1242   -0.0022    0.0134   -0.0000
C        -3.0557   -5.7893    0.1313    0.0563   -0.0551    0.0001
C        -1.6188   -2.2708    0.1299   -0.0082   -0.0199    0.0000
C        -1.9171   -3.6897    0.1307    0.0961   -0.0048    0.0001
C         3.2639    2.9186    0.1308    0.0963   -0.0048    0.0001
C         2.9656    1.4998    0.1315   -0.0082   -0.0199    0.0000
C        -4.7303    3.3435    0.1239    0.0012   -0.0065    0.0000
C         3.6232   -0.7123    0.1333   -0.0012   -0.0045    0.0000
C         4.6484   -1.7374    0.1346   -0.0001    0.0087   -0.0000
C         2.5587   -2.6777    0.1336   -0.0059   -0.0006   -0.0000
C         3.9776   -2.9761    0.1348    0.0066   -0.0166    0.0000
C        -0.6784   -4.3606    0.1322   -0.0541    0.0872   -0.0001
C         0.3466   -3.3353    0.1323   -0.0140   -0.0190    0.0000
C         1.9559    4.9872    0.1281    0.0293   -0.0436    0.0001
C         4.4720    3.6248    0.1315   -0.0474    0.0098   -0.0001
C         3.1605    5.6910    0.1287   -0.0724    0.0204   -0.0001
C         4.4025    5.0182    0.1304    0.0564   -0.0552    0.0001
C         6.0461   -1.6681    0.1356    0.0055   -0.0090    0.0000
C         4.6838   -4.1842    0.1359   -0.0092    0.0104   -0.0000
C         6.7499   -2.8727    0.1368   -0.0021    0.0134   -0.0000
C         6.0771   -4.1146    0.1369    0.0012   -0.0066    0.0000
H         6.5562   -0.7047    0.1355   -0.0139    0.0007   -0.0000
H         4.1560   -5.1380    0.1360    0.0169   -0.0033    0.0000
H         6.6624   -5.0353    0.1378    0.0070   -0.0036    0.0000
H        -5.2094   -0.0664    0.1257   -0.0139    0.0007   -0.0000
H        -2.8092    4.3669    0.1248    0.0168   -0.0033    0.0000
H        -5.3156    4.2642    0.1229    0.0069   -0.0037    0.0000
H        -6.4939    2.0893    0.1234   -0.0021   -0.0185    0.0000
H         0.3542   -6.2683    0.1345    0.0569   -0.0024    0.0001
H        -4.0791   -3.8681    0.1290   -0.0385    0.0369   -0.0001
H        -3.9763   -6.3745    0.1309   -0.0402    0.1003   -0.0001
H        -1.8014   -7.5529    0.1337    0.1008    0.0244    0.0001
H         0.9926    5.4972    0.1268    0.0570   -0.0024    0.0001
H         5.4259    3.0971    0.1328   -0.0386    0.0370   -0.0001
H         5.3231    5.6035    0.1309   -0.0403    0.1005   -0.0001
H         3.1482    6.7818    0.1279    0.1010    0.0245    0.0001
H         7.8407   -2.8603    0.1376   -0.0021   -0.0187    0.0000
    57
stable frequency at   1579.298 1/cm IR int. is 7.290 a.m.u.; force const. is 10.712 mDyne/Ang.
Fe        0.6734   -0.3855    0.1306    0.0002   -0.0001    0.0000
N         3.9138    0.5779    0.1328    0.0055   -0.0119    0.0000
N         1.6368   -3.6259    0.1334    0.0116    0.0009    0.0000
N        -0.2395   -2.0709    0.1309   -0.0006    0.0006   -0.0000
N        -1.0120    0.5273    0.1286   -0.0011    0.0001   -0.0000
N         1.5863    1.2998    0.1304   -0.0006    0.0006   -0.0000
N         2.3588   -1.2984    0.1326   -0.0011    0.0001   -0.0000
N        -0.2900    2.8548    0.1277    0.0116    0.0009    0.0000
N        -2.5670   -1.3489    0.1285    0.0055   -0.0119    0.0000
C        -2.6308    2.2050    0.1263   -0.0048   -0.0962    0.0001
C        -1.2119    1.9066    0.1276   -0.0199    0.0082   -0.0000
C         1.0001    2.5643    0.1290   -0.0045    0.0012   -0.0000
C         2.0252    3.5895    0.1292    0.0087    0.0001    0.0000
C        -3.3016    0.9663    0.1265    0.0873    0.0542    0.0000
C        -2.2764   -0.0588    0.1280   -0.0190    0.0140   -0.0000
C        -0.6092   -5.7583    0.1333   -0.0090   -0.0055   -0.0000
C        -3.1252   -4.3959    0.1301    0.0103    0.0092    0.0000
C        -1.8137   -6.4621    0.1328    0.0134    0.0022    0.0000
C        -4.6993    0.8970    0.1255   -0.0435   -0.0293   -0.0000
C        -3.3370    3.4131    0.1250    0.0098    0.0474   -0.0000
C        -5.4031    2.1016    0.1242    0.0204    0.0724   -0.0000
C        -3.0557   -5.7893    0.1313   -0.0065   -0.0012   -0.0000
C        -1.6188   -2.2708    0.1299   -0.0006    0.0058   -0.0000
C        -1.9171   -3.6897    0.1307   -0.0165   -0.0066   -0.0000
C         3.2639    2.9186    0.1308   -0.0165   -0.0066   -0.0000
C         2.9656    1.4998    0.1315   -0.0006    0.0059   -0.0000
C        -4.7303    3.3435    0.1239   -0.0552   -0.0563   -0.0000
C         3.6232   -0.7123    0.1333   -0.0190    0.0140   -0.0000
C         4.6484   -1.7374    0.1346    0.0873    0.0542    0.0000
C         2.5587   -2.6777    0.1336   -0.0199    0.0082   -0.0000
C         3.9776   -2.9761    0.1348   -0.0048   -0.0962    0.0000
C        -0.6784   -4.3606    0.1322    0.0087    0.0001    0.0000
C         0.3466   -3.3353    0.1323   -0.0045    0.0012   -0.0000
C         1.9559    4.9872    0.1281   -0.0090   -0.0055   -0.0000
C         4.4720    3.6248    0.1315    0.0103    0.0092    0.0000
C         3.1605    5.6910    0.1287    0.0134    0.0022    0.0000
C         4.4025    5.0182    0.1304   -0.0065   -0.0012   -0.0000
C         6.0461   -1.6681    0.1356   -0.0436   -0.0293   -0.0000
C         4.6838   -4.1842    0.1359    0.0098    0.0474   -0.0000
C         6.7499   -2.8727    0.1368    0.0204    0.0724   -0.0000
C         6.0771   -4.1146    0.1369   -0.0552   -0.0563   -0.0000
H         6.5562   -0.7047    0.1355   -0.0024   -0.0570    0.0000
H         4.1560   -5.1380    0.1360    0.0370    0.0386    0.0000
H         6.6624   -5.0353    0.1378    0.1004    0.0403    0.0000
H        -5.2094   -0.0664    0.1257   -0.0024   -0.0570    0.0000
H        -2.8092    4.3669    0.1248    0.0369    0.0386    0.0000
H        -5.3156    4.2642    0.1229    0.1004    0.0403    0.0000
H        -6.4939    2.0893    0.1234    0.0244   -0.1009    0.0001
H         0.3542   -6.2683    0.1345    0.0007    0.0139   -0.0000
H        -4.0791   -3.8681    0.1290   -0.0033   -0.0169    0.0000
H        -3.9763   -6.3745    0.1309   -0.0037   -0.0070    0.0000
H        -1.8014   -7.5529    0.1337   -0.0186    0.0021   -0.0000
H         0.9926    5.4972    0.1268    0.0007    0.0139   -0.0000
H         5.4259    3.0971    0.1328   -0.0033   -0.0169    0.0000
H         5.3231    5.6035    0.1309   -0.0037   -0.0070    0.0000
H         3.1482    6.7818    0.1279   -0.0186    0.0021   -0.0000
H         7.8407   -2.8603    0.1376    0.0244   -0.1009    0.0001
    57
stable frequency at   1579.617 1/cm IR int. is 7.237 a.m.u.; force const. is 10.639 mDyne/Ang.
Fe        0.6734   -0.3855    0.1306   -0.0000   -0.0000    0.0000
N         3.9138    0.5779    0.1328    0.0039    0.0021    0.0000
N         1.6368   -3.6259    0.1334    0.0021   -0.0039    0.0000
N        -0.2395   -2.0709    0.1309    0.0002    0.0005   -0.0000
N        -1.0120    0.5273    0.1286    0.0005   -0.0002    0.0000
N         1.5863    1.2998    0.1304   -0.0002   -0.0005    0.0000
N         2.3588   -1.2984    0.1326   -0.0005    0.0002   -0.0000
N        -0.2900    2.8548    0.1277   -0.0021    0.0039   -0.0000
N        -2.5670   -1.3489    0.1285   -0.0039   -0.0021   -0.0000
C        -2.6308    2.2050    0.1263    0.0003    0.0696   -0.0000
C        -1.2119    1.9066    0.1276    0.0144   -0.0098    0.0000
C         1.0001    2.5643    0.1290   -0.0056   -0.0170    0.0000
C         2.0252    3.5895    0.1292   -0.0372    0.0632   -0.0001
C        -3.3016    0.9663    0.1265   -0.0633   -0.0373   -0.0000
C        -2.2764   -0.0588    0.1280    0.0170   -0.0056    0.0000
C        -0.6092   -5.7583    0.1333   -0.0209    0.0320   -0.0000
C        -3.1252   -4.3959    0.1301    0.0353   -0.0050    0.0000
C        -1.8137   -6.4621    0.1328    0.0516   -0.0146    0.0001
C        -4.6993    0.8970    0.1255    0.0320    0.0208    0.0000
C        -3.3370    3.4131    0.1250   -0.0050   -0.0353    0.0000
C        -5.4031    2.1016    0.1242   -0.0145   -0.0516    0.0000
C        -3.0557   -5.7893    0.1313   -0.0403    0.0384   -0.0001
C        -1.6188   -2.2708    0.1299    0.0098    0.0144   -0.0000
C        -1.9171   -3.6897    0.1307   -0.0696    0.0003   -0.0001
C         3.2639    2.9186    0.1308    0.0695   -0.0003    0.0001
C         2.9656    1.4998    0.1315   -0.0098   -0.0144    0.0000
C        -4.7303    3.3435    0.1239    0.0384    0.0402    0.0000
C         3.6232   -0.7123    0.1333   -0.0170    0.0056   -0.0000
C         4.6484   -1.7374    0.1346    0.0633    0.0372    0.0000
C         2.5587   -2.6777    0.1336   -0.0144    0.0098   -0.0000
C         3.9776   -2.9761    0.1348   -0.0003   -0.0695    0.0000
C        -0.6784   -4.3606    0.1322    0.0373   -0.0634    0.0001
C         0.3466   -3.3353    0.1323    0.0056    0.0171   -0.0000
C         1.9559    4.9872    0.1281    0.0208   -0.0319    0.0000
C         4.4720    3.6248    0.1315   -0.0352    0.0050   -0.0000
C         3.1605    5.6910    0.1287   -0.0515    0.0145   -0.0001
C         4.4025    5.0182    0.1304    0.0401   -0.0383    0.0001
C         6.0461   -1.6681    0.1356   -0.0320   -0.0208   -0.0000
C         4.6838   -4.1842    0.1359    0.0050    0.0352   -0.0000
C         6.7499   -2.8727    0.1368    0.0145    0.0515   -0.0000
C         6.0771   -4.1146    0.1369   -0.0384   -0.0402   -0.0000
H         6.5562   -0.7047    0.1355   -0.0013   -0.0415    0.0000
H         4.1560   -5.1380    0.1360    0.0293    0.0264    0.0000
H         6.6624   -5.0353    0.1378    0.0722    0.0284    0.0000
H        -5.2094   -0.0664    0.1257    0.0013    0.0415   -0.0000
H        -2.8092    4.3669    0.1248   -0.0293   -0.0264   -0.0000
H        -5.3156    4.2642    0.1229   -0.0722   -0.0284   -0.0000
H        -6.4939    2.0893    0.1234   -0.0174    0.0735   -0.0001
H         0.3542   -6.2683    0.1345   -0.0416    0.0013   -0.0000
H        -4.0791   -3.8681    0.1290    0.0264   -0.0294    0.0000
H        -3.9763   -6.3745    0.1309    0.0284   -0.0723    0.0001
H        -1.8014   -7.5529    0.1337   -0.0735   -0.0174   -0.0000
H         0.9926    5.4972    0.1268    0.0415   -0.0013    0.0000
H         5.4259    3.0971    0.1328   -0.0264    0.0293   -0.0000
H         5.3231    5.6035    0.1309   -0.0283    0.0721   -0.0001
H         3.1482    6.7818    0.1279    0.0734    0.0174    0.0001
H         7.8407   -2.8603    0.1376    0.0174   -0.0734    0.0000
    57
stable frequency at   1581.412 1/cm IR int. is 7.799 a.m.u.; force const. is 11.491 mDyne/Ang.
Fe        0.6734   -0.3855    0.1306   -0.0000    0.0000   -0.0000
N         3.9138    0.5779    0.1328    0.0093   -0.0310    0.0000
N         1.6368   -3.6259    0.1334    0.0310    0.0093    0.0000
N        -0.2395   -2.0709    0.1309    0.0014    0.0019    0.0000
N        -1.0120    0.5273    0.1286   -0.0019    0.0014   -0.0000
N         1.5863    1.2998    0.1304   -0.0014   -0.0019    0.0000
N         2.3588   -1.2984    0.1326    0.0019   -0.0014    0.0000
N        -0.2900    2.8548    0.1277   -0.0310   -0.0093   -0.0000
N        -2.5670   -1.3489    0.1285   -0.0093    0.0310   -0.0000
C        -2.6308    2.2050    0.1263    0.0040    0.0662   -0.0000
C        -1.2119    1.9066    0.1276    0.0257    0.0068    0.0000
C         1.0001    2.5643    0.1290    0.0261    0.0092    0.0000
C         2.0252    3.5895    0.1292    0.0383   -0.0584    0.0001
C        -3.3016    0.9663    0.1265   -0.0584   -0.0383   -0.0000
C        -2.2764   -0.0588    0.1280    0.0092   -0.0261    0.0000
C        -0.6092   -5.7583    0.1333    0.0207   -0.0272    0.0000
C        -3.1252   -4.3959    0.1301   -0.0314    0.0072   -0.0000
C        -1.8137   -6.4621    0.1328   -0.0502    0.0132   -0.0001
C        -4.6993    0.8970    0.1255    0.0272    0.0207    0.0000
C        -3.3370    3.4131    0.1250   -0.0072   -0.0314    0.0000
C        -5.4031    2.1016    0.1242   -0.0132   -0.0502    0.0000
C        -3.0557   -5.7893    0.1313    0.0383   -0.0377    0.0001
C        -1.6188   -2.2708    0.1299    0.0068   -0.0257    0.0000
C        -1.9171   -3.6897    0.1307    0.0662   -0.0040    0.0001
C         3.2639    2.9186    0.1308   -0.0662    0.0040   -0.0001
C         2.9656    1.4998    0.1315   -0.0068    0.0257   -0.0000
C        -4.7303    3.3435    0.1239    0.0377    0.0383    0.0000
C         3.6232   -0.7123    0.1333   -0.0092    0.0261   -0.0000
C         4.6484   -1.7374    0.1346    0.0584    0.0383    0.0000
C         2.5587   -2.6777    0.1336   -0.0257   -0.0068   -0.0000
C         3.9776   -2.9761    0.1348   -0.0040   -0.0662    0.0000
C        -0.6784   -4.3606    0.1322   -0.0383    0.0584   -0.0001
C         0.3466   -3.3353    0.1323   -0.0261   -0.0092   -0.0000
C         1.9559    4.9872    0.1281   -0.0207    0.0272   -0.0000
C         4.4720    3.6248    0.1315    0.0314   -0.0072    0.0000
C         3.1605    5.6910    0.1287    0.0501   -0.0132    0.0001
C         4.4025    5.0182    0.1304   -0.0383    0.0377   -0.0001
C         6.0461   -1.6681    0.1356   -0.0272   -0.0207   -0.0000
C         4.6838   -4.1842    0.1359    0.0072    0.0314   -0.0000
C         6.7499   -2.8727    0.1368    0.0132    0.0502   -0.0000
C         6.0771   -4.1146    0.1369   -0.0377   -0.0383   -0.0000
H         6.5562   -0.7047    0.1355   -0.0040   -0.0368    0.0000
H         4.1560   -5.1380    0.1360    0.0240    0.0260    0.0000
H         6.6624   -5.0353    0.1378    0.0662    0.0262    0.0000
H        -5.2094   -0.0664    0.1257    0.0040    0.0368   -0.0000
H        -2.8092    4.3669    0.1248   -0.0240   -0.0261   -0.0000
H        -5.3156    4.2642    0.1229   -0.0663   -0.0262   -0.0000
H        -6.4939    2.0893    0.1234   -0.0159    0.0672   -0.0001
H         0.3542   -6.2683    0.1345    0.0368   -0.0040    0.0000
H        -4.0791   -3.8681    0.1290   -0.0261    0.0240   -0.0000
H        -3.9763   -6.3745    0.1309   -0.0262    0.0663   -0.0001
H        -1.8014   -7.5529    0.1337    0.0672    0.0159    0.0000
H         0.9926    5.4972    0.1268   -0.0368    0.0040   -0.0000
H         5.4259    3.0971    0.1328    0.0260   -0.0240    0.0000
H         5.3231    5.6035    0.1309    0.0262   -0.0662    0.0001
H         3.1482    6.7818    0.1279   -0.0672   -0.0159   -0.0001
H         7.8407   -2.8603    0.1376    0.0159   -0.0672    0.0000
    57
stable frequency at   1592.771 1/cm IR int. is 6.984 a.m.u.; force const. is 10.439 mDyne/Ang.
Fe        0.6734   -0.3855    0.1306   -0.0000   -0.0000    0.0000
N         3.9138    0.5779    0.1328   -0.0046    0.0148   -0.0000
N         1.6368   -3.6259    0.1334    0.0148    0.0046    0.0000
N        -0.2395   -2.0709    0.1309   -0.0018    0.0009   -0.0000
N        -1.0120    0.5273    0.1286    0.0009    0.0018   -0.0000
N         1.5863    1.2998    0.1304    0.0018   -0.0009    0.0000
N         2.3588   -1.2984    0.1326   -0.0009   -0.0018    0.0000
N        -0.2900    2.8548    0.1277   -0.0149   -0.0046   -0.0000
N        -2.5670   -1.3489    0.1285    0.0046   -0.0149    0.0000
C        -2.6308    2.2050    0.1263    0.0421   -0.0438    0.0001
C        -1.2119    1.9066    0.1276    0.0009    0.0134   -0.0000
C         1.0001    2.5643    0.1290    0.0089   -0.0093    0.0000
C         2.0252    3.5895    0.1292    0.0140    0.0545   -0.0000
C        -3.3016    0.9663    0.1265   -0.0545    0.0140   -0.0001
C        -2.2764   -0.0588    0.1280    0.0093    0.0089    0.0000
C        -0.6092   -5.7583    0.1333    0.0315    0.0582   -0.0000
C        -3.1252   -4.3959    0.1301   -0.0350   -0.0582    0.0000
C        -1.8137   -6.4621    0.1328   -0.0324   -0.0232   -0.0000
C        -4.6993    0.8970    0.1255    0.0583   -0.0315    0.0001
C        -3.3370    3.4131    0.1250   -0.0583    0.0350   -0.0001
C        -5.4031    2.1016    0.1242   -0.0233    0.0324   -0.0000
C        -3.0557   -5.7893    0.1313    0.0053    0.0366   -0.0000
C        -1.6188   -2.2708    0.1299   -0.0134    0.0009   -0.0000
C        -1.9171   -3.6897    0.1307    0.0438    0.0420    0.0000
C         3.2639    2.9186    0.1308   -0.0438   -0.0420   -0.0000
C         2.9656    1.4998    0.1315    0.0134   -0.0009    0.0000
C        -4.7303    3.3435    0.1239    0.0366   -0.0053    0.0000
C         3.6232   -0.7123    0.1333   -0.0093   -0.0089   -0.0000
C         4.6484   -1.7374    0.1346    0.0544   -0.0140    0.0000
C         2.5587   -2.6777    0.1336   -0.0009   -0.0134    0.0000
C         3.9776   -2.9761    0.1348   -0.0420    0.0438   -0.0001
C        -0.6784   -4.3606    0.1322   -0.0140   -0.0545    0.0000
C         0.3466   -3.3353    0.1323   -0.0089    0.0093   -0.0000
C         1.9559    4.9872    0.1281   -0.0315   -0.0583    0.0000
C         4.4720    3.6248    0.1315    0.0350    0.0583   -0.0000
C         3.1605    5.6910    0.1287    0.0324    0.0233    0.0000
C         4.4025    5.0182    0.1304   -0.0053   -0.0366    0.0000
C         6.0461   -1.6681    0.1356   -0.0582    0.0315   -0.0001
C         4.6838   -4.1842    0.1359    0.0582   -0.0350    0.0001
C         6.7499   -2.8727    0.1368    0.0232   -0.0323    0.0000
C         6.0771   -4.1146    0.1369   -0.0365    0.0053   -0.0000
H         6.5562   -0.7047    0.1355    0.0689   -0.0367    0.0001
H         4.1560   -5.1380    0.1360   -0.0727    0.0354   -0.0001
H         6.6624   -5.0353    0.1378    0.0115    0.0387   -0.0000
H        -5.2094   -0.0664    0.1257   -0.0690    0.0367   -0.0001
H        -2.8092    4.3669    0.1248    0.0729   -0.0354    0.0001
H        -5.3156    4.2642    0.1229   -0.0116   -0.0388    0.0000
H        -6.4939    2.0893    0.1234   -0.0250   -0.0385    0.0000
H         0.3542   -6.2683    0.1345   -0.0367   -0.0690    0.0000
H        -4.0791   -3.8681    0.1290    0.0354    0.0728   -0.0000
H        -3.9763   -6.3745    0.1309    0.0388   -0.0116    0.0000
H        -1.8014   -7.5529    0.1337    0.0384   -0.0250    0.0001
H         0.9926    5.4972    0.1268    0.0367    0.0690   -0.0000
H         5.4259    3.0971    0.1328   -0.0354   -0.0728    0.0000
H         5.3231    5.6035    0.1309   -0.0388    0.0116   -0.0000
H         3.1482    6.7818    0.1279   -0.0385    0.0250   -0.0001
H         7.8407   -2.8603    0.1376    0.0250    0.0384    0.0000
    57
stable frequency at   1593.189 1/cm IR int. is 6.999 a.m.u.; force const. is 10.467 mDyne/Ang.
Fe        0.6734   -0.3855    0.1306   -0.0001    0.0001   -0.0000
N         3.9138    0.5779    0.1328   -0.0031    0.0125   -0.0000
N         1.6368   -3.6259    0.1334   -0.0068   -0.0034   -0.0000
N        -0.2395   -2.0709    0.1309    0.0105   -0.0049    0.0000
N        -1.0120    0.5273    0.1286   -0.0036   -0.0023   -0.0000
N         1.5863    1.2998    0.1304    0.0105   -0.0049    0.0000
N         2.3588   -1.2984    0.1326   -0.0036   -0.0023   -0.0000
N        -0.2900    2.8548    0.1277   -0.0068   -0.0034   -0.0000
N        -2.5670   -1.3489    0.1285   -0.0031    0.0125   -0.0000
C        -2.6308    2.2050    0.1263   -0.0255    0.0285   -0.0000
C        -1.2119    1.9066    0.1276    0.0243    0.0085    0.0000
C         1.0001    2.5643    0.1290   -0.0154   -0.0107   -0.0000
C         2.0252    3.5895    0.1292    0.0222    0.0768   -0.0000
C        -3.3016    0.9663    0.1265    0.0131   -0.0078    0.0000
C        -2.2764   -0.0588    0.1280   -0.0010   -0.0186    0.0000
C        -0.6092   -5.7583    0.1333   -0.0409   -0.0777    0.0000
C        -3.1252   -4.3959    0.1301    0.0436    0.0758   -0.0000
C        -1.8137   -6.4621    0.1328    0.0397    0.0306    0.0000
C        -4.6993    0.8970    0.1255   -0.0201    0.0158   -0.0000
C        -3.3370    3.4131    0.1250    0.0266   -0.0206    0.0000
C        -5.4031    2.1016    0.1242    0.0082   -0.0209    0.0000
C        -3.0557   -5.7893    0.1313   -0.0052   -0.0487    0.0000
C        -1.6188   -2.2708    0.1299    0.0074    0.0081    0.0000
C        -1.9171   -3.6897    0.1307   -0.0536   -0.0572   -0.0000
C         3.2639    2.9186    0.1308   -0.0536   -0.0572   -0.0000
C         2.9656    1.4998    0.1315    0.0074    0.0081    0.0000
C        -4.7303    3.3435    0.1239   -0.0109    0.0076   -0.0000
C         3.6232   -0.7123    0.1333   -0.0010   -0.0186    0.0000
C         4.6484   -1.7374    0.1346    0.0131   -0.0078    0.0000
C         2.5587   -2.6777    0.1336    0.0243    0.0085    0.0000
C         3.9776   -2.9761    0.1348   -0.0255    0.0285   -0.0000
C        -0.6784   -4.3606    0.1322    0.0222    0.0768   -0.0000
C         0.3466   -3.3353    0.1323   -0.0154   -0.0107   -0.0000
C         1.9559    4.9872    0.1281   -0.0409   -0.0777    0.0000
C         4.4720    3.6248    0.1315    0.0436    0.0758   -0.0000
C         3.1605    5.6910    0.1287    0.0397    0.0306    0.0000
C         4.4025    5.0182    0.1304   -0.0052   -0.0488    0.0000
C         6.0461   -1.6681    0.1356   -0.0201    0.0158   -0.0000
C         4.6838   -4.1842    0.1359    0.0266   -0.0206    0.0000
C         6.7499   -2.8727    0.1368    0.0082   -0.0209    0.0000
C         6.0771   -4.1146    0.1369   -0.0109    0.0076   -0.0000
H         6.5562   -0.7047    0.1355    0.0283   -0.0096    0.0000
H         4.1560   -5.1380    0.1360   -0.0396    0.0146   -0.0000
H         6.6624   -5.0353    0.1378   -0.0039    0.0138   -0.0000
H        -5.2094   -0.0664    0.1257    0.0283   -0.0096    0.0000
H        -2.8092    4.3669    0.1248   -0.0396    0.0146   -0.0000
H        -5.3156    4.2642    0.1229   -0.0039    0.0138   -0.0000
H        -6.4939    2.0893    0.1234    0.0085    0.0258   -0.0000
H         0.3542   -6.2683    0.1345    0.0508    0.0934   -0.0000
H        -4.0791   -3.8681    0.1290   -0.0484   -0.0949    0.0000
H        -3.9763   -6.3745    0.1309   -0.0515    0.0181   -0.0001
H        -1.8014   -7.5529    0.1337   -0.0475    0.0332   -0.0001
H         0.9926    5.4972    0.1268    0.0508    0.0934   -0.0000
H         5.4259    3.0971    0.1328   -0.0484   -0.0949    0.0000
H         5.3231    5.6035    0.1309   -0.0515    0.0181   -0.0001
H         3.1482    6.7818    0.1279   -0.0475    0.0332   -0.0001
H         7.8407   -2.8603    0.1376    0.0085    0.0258   -0.0000
    57
stable frequency at   1593.189 1/cm IR int. is 6.999 a.m.u.; force const. is 10.467 mDyne/Ang.
Fe        0.6734   -0.3855    0.1306   -0.0001   -0.0001   -0.0000
N         3.9138    0.5779    0.1328    0.0034   -0.0068    0.0000
N         1.6368   -3.6259    0.1334   -0.0125   -0.0031   -0.0000
N        -0.2395   -2.0709    0.1309    0.0023   -0.0036    0.0000
N        -1.0120    0.5273    0.1286    0.0049    0.0105   -0.0000
N         1.5863    1.2998    0.1304    0.0023   -0.0036    0.0000
N         2.3588   -1.2984    0.1326    0.0049    0.0105   -0.0000
N        -0.2900    2.8548    0.1277   -0.0125   -0.0031   -0.0000
N        -2.5670   -1.3489    0.1285    0.0034   -0.0068    0.0000
C        -2.6308    2.2050    0.1263    0.0572   -0.0536    0.0001
C        -1.2119    1.9066    0.1276   -0.0081    0.0074   -0.0000
C         1.0001    2.5643    0.1290    0.0186   -0.0010    0.0000
C         2.0252    3.5895    0.1292    0.0078    0.0131   -0.0000
C        -3.3016    0.9663    0.1265   -0.0768    0.0222   -0.0001
C        -2.2764   -0.0588    0.1280    0.0107   -0.0154    0.0000
C        -0.6092   -5.7583    0.1333   -0.0159   -0.0201    0.0000
C        -3.1252   -4.3959    0.1301    0.0206    0.0266   -0.0000
C        -1.8137   -6.4621    0.1328    0.0210    0.0082    0.0000
C        -4.6993    0.8970    0.1255    0.0777   -0.0409    0.0001
C        -3.3370    3.4131    0.1250   -0.0758    0.0436   -0.0001
C        -5.4031    2.1016    0.1242   -0.0306    0.0396   -0.0000
C        -3.0557   -5.7893    0.1313   -0.0076   -0.0109    0.0000
C        -1.6188   -2.2708    0.1299   -0.0085    0.0243   -0.0000
C        -1.9171   -3.6897    0.1307   -0.0285   -0.0255   -0.0000
C         3.2639    2.9186    0.1308   -0.0284   -0.0255   -0.0000
C         2.9656    1.4998    0.1315   -0.0085    0.0243   -0.0000
C        -4.7303    3.3435    0.1239    0.0487   -0.0052    0.0000
C         3.6232   -0.7123    0.1333    0.0107   -0.0154    0.0000
C         4.6484   -1.7374    0.1346   -0.0768    0.0222   -0.0001
C         2.5587   -2.6777    0.1336   -0.0081    0.0074   -0.0000
C         3.9776   -2.9761    0.1348    0.0572   -0.0537    0.0001
C        -0.6784   -4.3606    0.1322    0.0078    0.0131   -0.0000
C         0.3466   -3.3353    0.1323    0.0186   -0.0010    0.0000
C         1.9559    4.9872    0.1281   -0.0158   -0.0200    0.0000
C         4.4720    3.6248    0.1315    0.0206    0.0265    0.0000
C         3.1605    5.6910    0.1287    0.0209    0.0082    0.0000
C         4.4025    5.0182    0.1304   -0.0076   -0.0108    0.0000
C         6.0461   -1.6681    0.1356    0.0777   -0.0410    0.0001
C         4.6838   -4.1842    0.1359   -0.0759    0.0436   -0.0001
C         6.7499   -2.8727    0.1368   -0.0306    0.0397   -0.0000
C         6.0771   -4.1146    0.1369    0.0488   -0.0052    0.0000
H         6.5562   -0.7047    0.1355   -0.0934    0.0509   -0.0001
H         4.1560   -5.1380    0.1360    0.0949   -0.0484    0.0001
H         6.6624   -5.0353    0.1378   -0.0181   -0.0515    0.0000
H        -5.2094   -0.0664    0.1257   -0.0933    0.0508   -0.0001
H        -2.8092    4.3669    0.1248    0.0948   -0.0484    0.0001
H        -5.3156    4.2642    0.1229   -0.0181   -0.0515    0.0000
H        -6.4939    2.0893    0.1234   -0.0332   -0.0475   -0.0000
H         0.3542   -6.2683    0.1345    0.0096    0.0283   -0.0000
H        -4.0791   -3.8681    0.1290   -0.0146   -0.0397    0.0000
H        -3.9763   -6.3745    0.1309   -0.0139   -0.0039   -0.0000
H        -1.8014   -7.5529    0.1337   -0.0258    0.0085   -0.0000
H         0.9926    5.4972    0.1268    0.0095    0.0282   -0.0000
H         5.4259    3.0971    0.1328   -0.0145   -0.0396    0.0000
H         5.3231    5.6035    0.1309   -0.0138   -0.0039   -0.0000
H         3.1482    6.7818    0.1279   -0.0258    0.0085   -0.0000
H         7.8407   -2.8603    0.1376   -0.0333   -0.0475   -0.0000
    57
stable frequency at   1595.431 1/cm IR int. is 7.008 a.m.u.; force const. is 10.511 mDyne/Ang.
Fe        0.6734   -0.3855    0.1306    0.0000   -0.0000   -0.0000
N         3.9138    0.5779    0.1328   -0.0003   -0.0014    0.0000
N         1.6368   -3.6259    0.1334    0.0014   -0.0003    0.0000
N        -0.2395   -2.0709    0.1309   -0.0070    0.0039   -0.0000
N        -1.0120    0.5273    0.1286   -0.0039   -0.0070    0.0000
N         1.5863    1.2998    0.1304    0.0070   -0.0039    0.0000
N         2.3588   -1.2984    0.1326    0.0039    0.0070   -0.0000
N        -0.2900    2.8548    0.1277   -0.0014    0.0003   -0.0000
N        -2.5670   -1.3489    0.1285    0.0003    0.0014   -0.0000
C        -2.6308    2.2050    0.1263   -0.0463    0.0429   -0.0001
C        -1.2119    1.9066    0.1276    0.0178   -0.0004    0.0000
C         1.0001    2.5643    0.1290   -0.0126   -0.0093   -0.0000
C         2.0252    3.5895    0.1292    0.0182    0.0566   -0.0000
C        -3.3016    0.9663    0.1265    0.0566   -0.0182    0.0001
C        -2.2764   -0.0588    0.1280   -0.0093    0.0126   -0.0000
C        -0.6092   -5.7583    0.1333    0.0310    0.0572   -0.0000
C        -3.1252   -4.3959    0.1301   -0.0339   -0.0570    0.0000
C        -1.8137   -6.4621    0.1328   -0.0308   -0.0221   -0.0000
C        -4.6993    0.8970    0.1255   -0.0571    0.0310   -0.0001
C        -3.3370    3.4131    0.1250    0.0570   -0.0339    0.0001
C        -5.4031    2.1016    0.1242    0.0221   -0.0308    0.0000
C        -3.0557   -5.7893    0.1313    0.0049    0.0347   -0.0000
C        -1.6188   -2.2708    0.1299   -0.0004   -0.0178    0.0000
C        -1.9171   -3.6897    0.1307    0.0429    0.0463    0.0000
C         3.2639    2.9186    0.1308   -0.0429   -0.0463   -0.0000
C         2.9656    1.4998    0.1315    0.0004    0.0178   -0.0000
C        -4.7303    3.3435    0.1239   -0.0347    0.0049   -0.0000
C         3.6232   -0.7123    0.1333    0.0093   -0.0126    0.0000
C         4.6484   -1.7374    0.1346   -0.0566    0.0182   -0.0001
C         2.5587   -2.6777    0.1336   -0.0178    0.0004   -0.0000
C         3.9776   -2.9761    0.1348    0.0463   -0.0429    0.0001
C        -0.6784   -4.3606    0.1322   -0.0182   -0.0566    0.0000
C         0.3466   -3.3353    0.1323    0.0126    0.0093    0.0000
C         1.9559    4.9872    0.1281   -0.0310   -0.0571    0.0000
C         4.4720    3.6248    0.1315    0.0339    0.0570   -0.0000
C         3.1605    5.6910    0.1287    0.0308    0.0221    0.0000
C         4.4025    5.0182    0.1304   -0.0049   -0.0347    0.0000
C         6.0461   -1.6681    0.1356    0.0572   -0.0310    0.0001
C         4.6838   -4.1842    0.1359   -0.0570    0.0339   -0.0001
C         6.7499   -2.8727    0.1368   -0.0221    0.0308   -0.0000
C         6.0771   -4.1146    0.1369    0.0347   -0.0049    0.0000
H         6.5562   -0.7047    0.1355   -0.0698    0.0371   -0.0001
H         4.1560   -5.1380    0.1360    0.0729   -0.0359    0.0001
H         6.6624   -5.0353    0.1378   -0.0111   -0.0370    0.0000
H        -5.2094   -0.0664    0.1257    0.0698   -0.0371    0.0001
H        -2.8092    4.3669    0.1248   -0.0729    0.0359   -0.0001
H        -5.3156    4.2642    0.1229    0.0111    0.0370   -0.0000
H        -6.4939    2.0893    0.1234    0.0239    0.0363   -0.0000
H         0.3542   -6.2683    0.1345   -0.0371   -0.0698    0.0000
H        -4.0791   -3.8681    0.1290    0.0359    0.0729   -0.0000
H        -3.9763   -6.3745    0.1309    0.0370   -0.0111    0.0000
H        -1.8014   -7.5529    0.1337    0.0363   -0.0239    0.0001
H         0.9926    5.4972    0.1268    0.0371    0.0698   -0.0000
H         5.4259    3.0971    0.1328   -0.0359   -0.0729    0.0000
H         5.3231    5.6035    0.1309   -0.0370    0.0111   -0.0000
H         3.1482    6.7818    0.1279   -0.0363    0.0239   -0.0001
H         7.8407   -2.8603    0.1376   -0.0239   -0.0363   -0.0000
    57
stable frequency at   3117.712 1/cm IR int. is 1.086 a.m.u.; force const. is 6.218 mDyne/Ang.
Fe        0.6734   -0.3855    0.1306    0.0000   -0.0000   -0.0000
N         3.9138    0.5779    0.1328   -0.0000   -0.0000   -0.0000
N         1.6368   -3.6259    0.1334    0.0000   -0.0000   -0.0000
N        -0.2395   -2.0709    0.1309    0.0000    0.0000   -0.0000
N        -1.0120    0.5273    0.1286   -0.0000   -0.0000   -0.0000
N         1.5863    1.2998    0.1304    0.0000    0.0000   -0.0000
N         2.3588   -1.2984    0.1326   -0.0000   -0.0000   -0.0000
N        -0.2900    2.8548    0.1277    0.0000   -0.0000   -0.0000
N        -2.5670   -1.3489    0.1285    0.0000   -0.0000   -0.0000
C        -2.6308    2.2050    0.1263    0.0002   -0.0001    0.0000
C        -1.2119    1.9066    0.1276    0.0000    0.0001   -0.0000
C         1.0001    2.5643    0.1290   -0.0000   -0.0000   -0.0000
C         2.0252    3.5895    0.1292    0.0000    0.0000   -0.0000
C        -3.3016    0.9663    0.1265   -0.0002    0.0001   -0.0000
C        -2.2764   -0.0588    0.1280    0.0001    0.0000   -0.0000
C        -0.6092   -5.7583    0.1333   -0.0023    0.0014   -0.0000
C        -3.1252   -4.3959    0.1301   -0.0031    0.0013   -0.0000
C        -1.8137   -6.4621    0.1328   -0.0001   -0.0106    0.0000
C        -4.6993    0.8970    0.1255    0.0048    0.0078   -0.0000
C        -3.3370    3.4131    0.1250    0.0043    0.0095   -0.0000
C        -5.4031    2.1016    0.1242   -0.0289    0.0003   -0.0000
C        -3.0557   -5.7893    0.1313    0.0104    0.0068    0.0000
C        -1.6188   -2.2708    0.1299   -0.0000   -0.0000   -0.0000
C        -1.9171   -3.6897    0.1307    0.0000    0.0001   -0.0000
C         3.2639    2.9186    0.1308   -0.0000    0.0000   -0.0000
C         2.9656    1.4998    0.1315    0.0000   -0.0000   -0.0000
C        -4.7303    3.3435    0.1239    0.0181   -0.0277    0.0000
C         3.6232   -0.7123    0.1333    0.0001    0.0000   -0.0000
C         4.6484   -1.7374    0.1346   -0.0002    0.0001   -0.0000
C         2.5587   -2.6777    0.1336    0.0000    0.0001   -0.0000
C         3.9776   -2.9761    0.1348    0.0003   -0.0001    0.0000
C        -0.6784   -4.3606    0.1322   -0.0000   -0.0000   -0.0000
C         0.3466   -3.3353    0.1323   -0.0000   -0.0000   -0.0000
C         1.9559    4.9872    0.1281    0.0006   -0.0003    0.0000
C         4.4720    3.6248    0.1315    0.0003   -0.0002    0.0000
C         3.1605    5.6910    0.1287   -0.0000    0.0005   -0.0000
C         4.4025    5.0182    0.1304    0.0002    0.0001   -0.0000
C         6.0461   -1.6681    0.1356    0.0067    0.0109   -0.0000
C         4.6838   -4.1842    0.1359    0.0060    0.0131   -0.0000
C         6.7499   -2.8727    0.1368   -0.0404    0.0004   -0.0000
C         6.0771   -4.1146    0.1369    0.0251   -0.0385    0.0000
H         6.5562   -0.7047    0.1355   -0.0747   -0.1373    0.0000
H         4.1560   -5.1380    0.1360   -0.0830   -0.1552    0.0000
H         6.6624   -5.0353    0.1378   -0.2910    0.4562   -0.0005
H        -5.2094   -0.0664    0.1257   -0.0539   -0.0991    0.0000
H        -2.8092    4.3669    0.1248   -0.0604   -0.1130    0.0000
H        -5.3156    4.2642    0.1229   -0.2098    0.3289   -0.0004
H        -6.4939    2.0893    0.1234    0.3413    0.0029    0.0003
H         0.3542   -6.2683    0.1345    0.0299   -0.0163    0.0000
H        -4.0791   -3.8681    0.1290    0.0365   -0.0194    0.0000
H        -3.9763   -6.3745    0.1309   -0.1234   -0.0788   -0.0000
H        -1.8014   -7.5529    0.1337   -0.0009    0.1249   -0.0001
H         0.9926    5.4972    0.1268   -0.0066    0.0036   -0.0000
H         5.4259    3.0971    0.1328   -0.0039    0.0022   -0.0000
H         5.3231    5.6035    0.1309   -0.0016   -0.0010   -0.0000
H         3.1482    6.7818    0.1279    0.0002   -0.0058    0.0000
H         7.8407   -2.8603    0.1376    0.4778    0.0041    0.0003
    57
stable frequency at   3117.712 1/cm IR int. is 1.086 a.m.u.; force const. is 6.218 mDyne/Ang.
Fe        0.6734   -0.3855    0.1306   -0.0000   -0.0000   -0.0000
N         3.9138    0.5779    0.1328   -0.0000   -0.0000    0.0000
N         1.6368   -3.6259    0.1334   -0.0000    0.0000    0.0000
N        -0.2395   -2.0709    0.1309   -0.0000    0.0000   -0.0000
N        -1.0120    0.5273    0.1286    0.0000   -0.0000    0.0000
N         1.5863    1.2998    0.1304   -0.0000    0.0000   -0.0000
N         2.3588   -1.2984    0.1326    0.0000   -0.0000    0.0000
N        -0.2900    2.8548    0.1277   -0.0000   -0.0000   -0.0000
N        -2.5670   -1.3489    0.1285   -0.0000   -0.0000   -0.0000
C        -2.6308    2.2050    0.1263    0.0001   -0.0000    0.0000
C        -1.2119    1.9066    0.1276   -0.0000    0.0000   -0.0000
C         1.0001    2.5643    0.1290    0.0000   -0.0001    0.0000
C         2.0252    3.5895    0.1292    0.0001    0.0002   -0.0000
C        -3.3016    0.9663    0.1265   -0.0000    0.0000   -0.0000
C        -2.2764   -0.0588    0.1280   -0.0000    0.0000   -0.0000
C        -0.6092   -5.7583    0.1333    0.0105   -0.0065    0.0000
C        -3.1252   -4.3959    0.1301    0.0127   -0.0058    0.0000
C        -1.8137   -6.4621    0.1328    0.0004    0.0391   -0.0000
C        -4.6993    0.8970    0.1255    0.0014    0.0022   -0.0000
C        -3.3370    3.4131    0.1250    0.0013    0.0030   -0.0000
C        -5.4031    2.1016    0.1242   -0.0103    0.0001   -0.0000
C        -3.0557   -5.7893    0.1313   -0.0372   -0.0242   -0.0000
C        -1.6188   -2.2708    0.1299    0.0001   -0.0000    0.0000
C        -1.9171   -3.6897    0.1307   -0.0001   -0.0003    0.0000
C         3.2639    2.9186    0.1308   -0.0001   -0.0002    0.0000
C         2.9656    1.4998    0.1315    0.0001   -0.0000    0.0000
C        -4.7303    3.3435    0.1239    0.0067   -0.0102    0.0000
C         3.6232   -0.7123    0.1333   -0.0000    0.0000    0.0000
C         4.6484   -1.7374    0.1346    0.0000   -0.0000    0.0000
C         2.5587   -2.6777    0.1336   -0.0000    0.0000    0.0000
C         3.9776   -2.9761    0.1348    0.0000   -0.0000    0.0000
C        -0.6784   -4.3606    0.1322    0.0001    0.0002   -0.0000
C         0.3466   -3.3353    0.1323    0.0000   -0.0001    0.0000
C         1.9559    4.9872    0.1281    0.0083   -0.0051    0.0000
C         4.4720    3.6248    0.1315    0.0101   -0.0046    0.0000
C         3.1605    5.6910    0.1287    0.0003    0.0306   -0.0000
C         4.4025    5.0182    0.1304   -0.0294   -0.0191   -0.0000
C         6.0461   -1.6681    0.1356    0.0001    0.0002    0.0000
C         4.6838   -4.1842    0.1359    0.0002    0.0006   -0.0000
C         6.7499   -2.8727    0.1368   -0.0024    0.0000   -0.0000
C         6.0771   -4.1146    0.1369    0.0019   -0.0029    0.0000
H         6.5562   -0.7047    0.1355   -0.0016   -0.0030    0.0000
H         4.1560   -5.1380    0.1360   -0.0036   -0.0069    0.0000
H         6.6624   -5.0353    0.1378   -0.0216    0.0338   -0.0000
H        -5.2094   -0.0664    0.1257   -0.0158   -0.0291    0.0000
H        -2.8092    4.3669    0.1248   -0.0191   -0.0358    0.0000
H        -5.3156    4.2642    0.1229   -0.0773    0.1210   -0.0001
H        -6.4939    2.0893    0.1234    0.1218    0.0009    0.0001
H         0.3542   -6.2683    0.1345   -0.1330    0.0724   -0.0002
H        -4.0791   -3.8681    0.1290   -0.1504    0.0804   -0.0002
H        -3.9763   -6.3745    0.1309    0.4410    0.2813    0.0002
H        -1.8014   -7.5529    0.1337    0.0040   -0.4618    0.0004
H         0.9926    5.4972    0.1268   -0.1052    0.0572   -0.0001
H         5.4259    3.0971    0.1328   -0.1196    0.0640   -0.0002
H         5.3231    5.6035    0.1309    0.3484    0.2222    0.0002
H         3.1482    6.7818    0.1279    0.0031   -0.3624    0.0003
H         7.8407   -2.8603    0.1376    0.0283    0.0001    0.0000
    57
stable frequency at   3117.715 1/cm IR int. is 1.086 a.m.u.; force const. is 6.219 mDyne/Ang.
Fe        0.6734   -0.3855    0.1306   -0.0000    0.0000    0.0000
N         3.9138    0.5779    0.1328   -0.0000   -0.0000   -0.0000
N         1.6368   -3.6259    0.1334    0.0000   -0.0000   -0.0000
N        -0.2395   -2.0709    0.1309   -0.0000    0.0000   -0.0000
N        -1.0120    0.5273    0.1286   -0.0000   -0.0000    0.0000
N         1.5863    1.2998    0.1304    0.0000   -0.0000    0.0000
N         2.3588   -1.2984    0.1326    0.0000    0.0000   -0.0000
N        -0.2900    2.8548    0.1277   -0.0000    0.0000    0.0000
N        -2.5670   -1.3489    0.1285    0.0000    0.0000    0.0000
C        -2.6308    2.2050    0.1263   -0.0002    0.0001    0.0000
C        -1.2119    1.9066    0.1276   -0.0000   -0.0000    0.0000
C         1.0001    2.5643    0.1290    0.0000   -0.0000    0.0000
C         2.0252    3.5895    0.1292    0.0001    0.0002    0.0000
C        -3.3016    0.9663    0.1265    0.0002   -0.0001    0.0000
C        -2.2764   -0.0588    0.1280   -0.0000   -0.0000    0.0000
C        -0.6092   -5.7583    0.1333   -0.0047    0.0029   -0.0000
C        -3.1252   -4.3959    0.1301   -0.0055    0.0025   -0.0000
C        -1.8137   -6.4621    0.1328   -0.0002   -0.0180    0.0000
C        -4.6993    0.8970    0.1255   -0.0052   -0.0084    0.0000
C        -3.3370    3.4131    0.1250   -0.0045   -0.0100    0.0000
C        -5.4031    2.1016    0.1242    0.0318   -0.0003    0.0000
C        -3.0557   -5.7893    0.1313    0.0164    0.0107    0.0000
C        -1.6188   -2.2708    0.1299   -0.0000    0.0000    0.0000
C        -1.9171   -3.6897    0.1307    0.0000    0.0001   -0.0000
C         3.2639    2.9186    0.1308   -0.0001   -0.0002    0.0000
C         2.9656    1.4998    0.1315    0.0000   -0.0000    0.0000
C        -4.7303    3.3435    0.1239   -0.0193    0.0296   -0.0000
C         3.6232   -0.7123    0.1333   -0.0000    0.0000   -0.0000
C         4.6484   -1.7374    0.1346   -0.0001    0.0000   -0.0000
C         2.5587   -2.6777    0.1336    0.0000    0.0000   -0.0000
C         3.9776   -2.9761    0.1348    0.0001   -0.0000   -0.0000
C        -0.6784   -4.3606    0.1322   -0.0001   -0.0001   -0.0000
C         0.3466   -3.3353    0.1323   -0.0000   -0.0000   -0.0000
C         1.9559    4.9872    0.1281    0.0082   -0.0051    0.0000
C         4.4720    3.6248    0.1315    0.0098   -0.0044    0.0000
C         3.1605    5.6910    0.1287    0.0003    0.0317   -0.0000
C         4.4025    5.0182    0.1304   -0.0297   -0.0194   -0.0000
C         6.0461   -1.6681    0.1356    0.0028    0.0046   -0.0000
C         4.6838   -4.1842    0.1359    0.0024    0.0054   -0.0000
C         6.7499   -2.8727    0.1368   -0.0181    0.0002   -0.0000
C         6.0771   -4.1146    0.1369    0.0109   -0.0167    0.0000
H         6.5562   -0.7047    0.1355   -0.0317   -0.0581    0.0000
H         4.1560   -5.1380    0.1360   -0.0344   -0.0642    0.0000
H         6.6624   -5.0353    0.1378   -0.1267    0.1984   -0.0002
H        -5.2094   -0.0664    0.1257    0.0581    0.1065   -0.0000
H        -2.8092    4.3669    0.1248    0.0632    0.1181   -0.0000
H        -5.3156    4.2642    0.1229    0.2242   -0.3512    0.0004
H        -6.4939    2.0893    0.1234   -0.3753   -0.0032   -0.0003
H         0.3542   -6.2683    0.1345    0.0599   -0.0327    0.0001
H        -4.0791   -3.8681    0.1290    0.0651   -0.0349    0.0001
H        -3.9763   -6.3745    0.1309   -0.1951   -0.1246   -0.0001
H        -1.8014   -7.5529    0.1337   -0.0019    0.2128   -0.0002
H         0.9926    5.4972    0.1268   -0.1043    0.0568   -0.0001
H         5.4259    3.0971    0.1328   -0.1168    0.0624   -0.0002
H         5.3231    5.6035    0.1309    0.3529    0.2252    0.0002
H         3.1482    6.7818    0.1279    0.0032   -0.3748    0.0003
H         7.8407   -2.8603    0.1376    0.2140    0.0018    0.0002
    57
stable frequency at   3117.827 1/cm IR int. is 1.086 a.m.u.; force const. is 6.219 mDyne/Ang.
Fe        0.6734   -0.3855    0.1306    0.0000    0.0000    0.0000
N         3.9138    0.5779    0.1328    0.0000   -0.0000   -0.0000
N         1.6368   -3.6259    0.1334   -0.0000   -0.0000   -0.0000
N        -0.2395   -2.0709    0.1309    0.0000   -0.0000    0.0000
N        -1.0120    0.5273    0.1286   -0.0000   -0.0000    0.0000
N         1.5863    1.2998    0.1304   -0.0000    0.0000   -0.0000
N         2.3588   -1.2984    0.1326    0.0000    0.0000   -0.0000
N        -0.2900    2.8548    0.1277    0.0000    0.0000    0.0000
N        -2.5670   -1.3489    0.1285   -0.0000    0.0000    0.0000
C        -2.6308    2.2050    0.1263   -0.0002    0.0001    0.0000
C        -1.2119    1.9066    0.1276   -0.0000   -0.0000    0.0000
C         1.0001    2.5643    0.1290   -0.0001    0.0000   -0.0000
C         2.0252    3.5895    0.1292   -0.0001   -0.0001    0.0000
C        -3.3016    0.9663    0.1265    0.0001   -0.0001    0.0000
C        -2.2764   -0.0588    0.1280   -0.0000   -0.0001    0.0000
C        -0.6092   -5.7583    0.1333    0.0071   -0.0044    0.0000
C        -3.1252   -4.3959    0.1301    0.0083   -0.0038    0.0000
C        -1.8137   -6.4621    0.1328    0.0002    0.0257   -0.0000
C        -4.6993    0.8970    0.1255   -0.0044   -0.0072    0.0000
C        -3.3370    3.4131    0.1250   -0.0039   -0.0084    0.0000
C        -5.4031    2.1016    0.1242    0.0259   -0.0002    0.0000
C        -3.0557   -5.7893    0.1313   -0.0237   -0.0155   -0.0000
C        -1.6188   -2.2708    0.1299    0.0000   -0.0000    0.0000
C        -1.9171   -3.6897    0.1307   -0.0001   -0.0002    0.0000
C         3.2639    2.9186    0.1308    0.0001    0.0002   -0.0000
C         2.9656    1.4998    0.1315   -0.0000    0.0000   -0.0000
C        -4.7303    3.3435    0.1239   -0.0156    0.0240   -0.0000
C         3.6232   -0.7123    0.1333    0.0000    0.0001   -0.0000
C         4.6484   -1.7374    0.1346   -0.0001    0.0001   -0.0000
C         2.5587   -2.6777    0.1336    0.0000    0.0000   -0.0000
C         3.9776   -2.9761    0.1348    0.0002   -0.0001   -0.0000
C        -0.6784   -4.3606    0.1322    0.0001    0.0001   -0.0000
C         0.3466   -3.3353    0.1323    0.0001   -0.0000    0.0000
C         1.9559    4.9872    0.1281   -0.0072    0.0044   -0.0000
C         4.4720    3.6248    0.1315   -0.0084    0.0039   -0.0000
C         3.1605    5.6910    0.1287   -0.0002   -0.0260    0.0000
C         4.4025    5.0182    0.1304    0.0240    0.0156    0.0000
C         6.0461   -1.6681    0.1356    0.0043    0.0071   -0.0000
C         4.6838   -4.1842    0.1359    0.0038    0.0083   -0.0000
C         6.7499   -2.8727    0.1368   -0.0255    0.0002   -0.0000
C         6.0771   -4.1146    0.1369    0.0154   -0.0236    0.0000
H         6.5562   -0.7047    0.1355   -0.0488   -0.0894    0.0000
H         4.1560   -5.1380    0.1360   -0.0526   -0.0982    0.0000
H         6.6624   -5.0353    0.1378   -0.1788    0.2804   -0.0003
H        -5.2094   -0.0664    0.1257    0.0495    0.0906   -0.0000
H        -2.8092    4.3669    0.1248    0.0534    0.0997   -0.0000
H        -5.3156    4.2642    0.1229    0.1815   -0.2847    0.0003
H        -6.4939    2.0893    0.1234   -0.3063   -0.0028   -0.0002
H         0.3542   -6.2683    0.1345   -0.0898    0.0490   -0.0001
H        -4.0791   -3.8681    0.1290   -0.0986    0.0528   -0.0001
H        -3.9763   -6.3745    0.1309    0.2818    0.1797    0.0001
H        -1.8014   -7.5529    0.1337    0.0028   -0.3033    0.0002
H         0.9926    5.4972    0.1268    0.0909   -0.0496    0.0001
H         5.4259    3.0971    0.1328    0.0999   -0.0535    0.0001
H         5.3231    5.6035    0.1309   -0.2852   -0.1818   -0.0001
H         3.1482    6.7818    0.1279   -0.0028    0.3068   -0.0002
H         7.8407   -2.8603    0.1376    0.3019    0.0028    0.0002
    57
stable frequency at   3130.692 1/cm IR int. is 1.090 a.m.u.; force const. is 6.293 mDyne/Ang.
Fe        0.6734   -0.3855    0.1306   -0.0000   -0.0000   -0.0000
N         3.9138    0.5779    0.1328    0.0000   -0.0000    0.0000
N         1.6368   -3.6259    0.1334    0.0000    0.0000    0.0000
N        -0.2395   -2.0709    0.1309    0.0000    0.0000    0.0000
N        -1.0120    0.5273    0.1286   -0.0000    0.0000   -0.0000
N         1.5863    1.2998    0.1304   -0.0000   -0.0000   -0.0000
N         2.3588   -1.2984    0.1326    0.0000   -0.0000    0.0000
N        -0.2900    2.8548    0.1277   -0.0000   -0.0000   -0.0000
N        -2.5670   -1.3489    0.1285   -0.0000    0.0000   -0.0000
C        -2.6308    2.2050    0.1263    0.0003   -0.0000    0.0000
C        -1.2119    1.9066    0.1276    0.0000    0.0000   -0.0000
C         1.0001    2.5643    0.1290    0.0000    0.0000   -0.0000
C         2.0252    3.5895    0.1292    0.0002    0.0002   -0.0000
C        -3.3016    0.9663    0.1265    0.0002   -0.0002    0.0000
C        -2.2764   -0.0588    0.1280    0.0000   -0.0000   -0.0000
C        -0.6092   -5.7583    0.1333   -0.0136    0.0083   -0.0000
C        -3.1252   -4.3959    0.1301    0.0131   -0.0061    0.0000
C        -1.8137   -6.4621    0.1328    0.0013   -0.0267    0.0000
C        -4.6993    0.8970    0.1255   -0.0081   -0.0133    0.0000
C        -3.3370    3.4131    0.1250    0.0059    0.0127   -0.0000
C        -5.4031    2.1016    0.1242    0.0260    0.0012    0.0000
C        -3.0557   -5.7893    0.1313   -0.0210   -0.0121   -0.0000
C        -1.6188   -2.2708    0.1299    0.0000   -0.0000    0.0000
C        -1.9171   -3.6897    0.1307   -0.0000   -0.0003    0.0000
C         3.2639    2.9186    0.1308    0.0000    0.0003   -0.0000
C         2.9656    1.4998    0.1315   -0.0000    0.0000   -0.0000
C        -4.7303    3.3435    0.1239    0.0118   -0.0205    0.0000
C         3.6232   -0.7123    0.1333   -0.0000    0.0000    0.0000
C         4.6484   -1.7374    0.1346   -0.0002    0.0002   -0.0000
C         2.5587   -2.6777    0.1336   -0.0000   -0.0000    0.0000
C         3.9776   -2.9761    0.1348   -0.0003    0.0000   -0.0000
C        -0.6784   -4.3606    0.1322   -0.0002   -0.0002    0.0000
C         0.3466   -3.3353    0.1323   -0.0000   -0.0000    0.0000
C         1.9559    4.9872    0.1281    0.0133   -0.0081    0.0000
C         4.4720    3.6248    0.1315   -0.0127    0.0059   -0.0000
C         3.1605    5.6910    0.1287   -0.0012    0.0260   -0.0000
C         4.4025    5.0182    0.1304    0.0205    0.0118    0.0000
C         6.0461   -1.6681    0.1356    0.0081    0.0134   -0.0000
C         4.6838   -4.1842    0.1359   -0.0060   -0.0128    0.0000
C         6.7499   -2.8727    0.1368   -0.0262   -0.0013   -0.0000
C         6.0771   -4.1146    0.1369   -0.0119    0.0206   -0.0000
H         6.5562   -0.7047    0.1355   -0.0898   -0.1643    0.0000
H         4.1560   -5.1380    0.1360    0.0794    0.1486   -0.0000
H         6.6624   -5.0353    0.1378    0.1447   -0.2299    0.0002
H        -5.2094   -0.0664    0.1257    0.0892    0.1631   -0.0000
H        -2.8092    4.3669    0.1248   -0.0789   -0.1476    0.0000
H        -5.3156    4.2642    0.1229   -0.1437    0.2282   -0.0003
H        -6.4939    2.0893    0.1234   -0.2980   -0.0045   -0.0002
H         0.3542   -6.2683    0.1345    0.1671   -0.0913    0.0002
H        -4.0791   -3.8681    0.1290   -0.1513    0.0809   -0.0002
H        -3.9763   -6.3745    0.1309    0.2338    0.1472    0.0001
H        -1.8014   -7.5529    0.1337   -0.0046    0.3054   -0.0002
H         0.9926    5.4972    0.1268   -0.1631    0.0891   -0.0002
H         5.4259    3.0971    0.1328    0.1475   -0.0788    0.0002
H         5.3231    5.6035    0.1309   -0.2282   -0.1436   -0.0001
H         3.1482    6.7818    0.1279    0.0045   -0.2979    0.0002
H         7.8407   -2.8603    0.1376    0.3003    0.0045    0.0002
    57
stable frequency at   3130.721 1/cm IR int. is 1.090 a.m.u.; force const. is 6.293 mDyne/Ang.
Fe        0.6734   -0.3855    0.1306    0.0000    0.0000   -0.0000
N         3.9138    0.5779    0.1328    0.0000   -0.0000    0.0000
N         1.6368   -3.6259    0.1334   -0.0000    0.0000   -0.0000
N        -0.2395   -2.0709    0.1309   -0.0000   -0.0001   -0.0000
N        -1.0120    0.5273    0.1286    0.0000    0.0000   -0.0000
N         1.5863    1.2998    0.1304   -0.0000   -0.0001   -0.0000
N         2.3588   -1.2984    0.1326    0.0000    0.0000   -0.0000
N        -0.2900    2.8548    0.1277   -0.0000    0.0000   -0.0000
N        -2.5670   -1.3489    0.1285    0.0000   -0.0000    0.0000
C        -2.6308    2.2050    0.1263   -0.0000    0.0000   -0.0000
C        -1.2119    1.9066    0.1276   -0.0000   -0.0000   -0.0000
C         1.0001    2.5643    0.1290    0.0001    0.0000    0.0000
C         2.0252    3.5895    0.1292    0.0003    0.0003    0.0000
C        -3.3016    0.9663    0.1265   -0.0000    0.0000   -0.0000
C        -2.2764   -0.0588    0.1280   -0.0000   -0.0000   -0.0000
C        -0.6092   -5.7583    0.1333    0.0185   -0.0113    0.0000
C        -3.1252   -4.3959    0.1301   -0.0184    0.0086   -0.0000
C        -1.8137   -6.4621    0.1328   -0.0017    0.0377   -0.0000
C        -4.6993    0.8970    0.1255    0.0004    0.0008   -0.0000
C        -3.3370    3.4131    0.1250   -0.0004   -0.0009    0.0000
C        -5.4031    2.1016    0.1242   -0.0011   -0.0001   -0.0000
C        -3.0557   -5.7893    0.1313    0.0284    0.0163    0.0000
C        -1.6188   -2.2708    0.1299   -0.0000    0.0001   -0.0000
C        -1.9171   -3.6897    0.1307    0.0001    0.0004   -0.0000
C         3.2639    2.9186    0.1308    0.0001    0.0004   -0.0000
C         2.9656    1.4998    0.1315   -0.0000    0.0001   -0.0000
C        -4.7303    3.3435    0.1239   -0.0007    0.0012   -0.0000
C         3.6232   -0.7123    0.1333   -0.0000   -0.0000   -0.0000
C         4.6484   -1.7374    0.1346   -0.0000    0.0000   -0.0000
C         2.5587   -2.6777    0.1336   -0.0000   -0.0000   -0.0000
C         3.9776   -2.9761    0.1348   -0.0000    0.0000   -0.0000
C        -0.6784   -4.3606    0.1322    0.0003    0.0003    0.0000
C         0.3466   -3.3353    0.1323    0.0001    0.0000    0.0000
C         1.9559    4.9872    0.1281    0.0186   -0.0114    0.0000
C         4.4720    3.6248    0.1315   -0.0186    0.0087   -0.0000
C         3.1605    5.6910    0.1287   -0.0017    0.0380   -0.0000
C         4.4025    5.0182    0.1304    0.0286    0.0164    0.0000
C         6.0461   -1.6681    0.1356    0.0006    0.0011   -0.0000
C         4.6838   -4.1842    0.1359   -0.0006   -0.0012    0.0000
C         6.7499   -2.8727    0.1368   -0.0017   -0.0001   -0.0000
C         6.0771   -4.1146    0.1369   -0.0010    0.0017   -0.0000
H         6.5562   -0.7047    0.1355   -0.0069   -0.0129    0.0000
H         4.1560   -5.1380    0.1360    0.0076    0.0141   -0.0000
H         6.6624   -5.0353    0.1378    0.0119   -0.0190    0.0000
H        -5.2094   -0.0664    0.1257   -0.0049   -0.0091    0.0000
H        -2.8092    4.3669    0.1248    0.0058    0.0107   -0.0000
H        -5.3156    4.2642    0.1229    0.0086   -0.0138    0.0000
H        -6.4939    2.0893    0.1234    0.0121    0.0002    0.0000
H         0.3542   -6.2683    0.1345   -0.2267    0.1240   -0.0003
H        -4.0791   -3.8681    0.1290    0.2132   -0.1140    0.0003
H        -3.9763   -6.3745    0.1309   -0.3162   -0.1988   -0.0001
H        -1.8014   -7.5529    0.1337    0.0063   -0.4311    0.0003
H         0.9926    5.4972    0.1268   -0.2287    0.1251   -0.0003
H         5.4259    3.0971    0.1328    0.2150   -0.1149    0.0003
H         5.3231    5.6035    0.1309   -0.3189   -0.2005   -0.0002
H         3.1482    6.7818    0.1279    0.0064   -0.4347    0.0003
H         7.8407   -2.8603    0.1376    0.0189    0.0003    0.0000
    57
stable frequency at   3130.722 1/cm IR int. is 1.090 a.m.u.; force const. is 6.293 mDyne/Ang.
Fe        0.6734   -0.3855    0.1306    0.0000   -0.0000   -0.0000
N         3.9138    0.5779    0.1328    0.0000    0.0000   -0.0000
N         1.6368   -3.6259    0.1334   -0.0000   -0.0000   -0.0000
N        -0.2395   -2.0709    0.1309    0.0000   -0.0000   -0.0000
N        -1.0120    0.5273    0.1286   -0.0001    0.0000   -0.0000
N         1.5863    1.2998    0.1304    0.0000   -0.0000   -0.0000
N         2.3588   -1.2984    0.1326   -0.0001    0.0000   -0.0000
N        -0.2900    2.8548    0.1277   -0.0000   -0.0000   -0.0000
N        -2.5670   -1.3489    0.1285    0.0000    0.0000   -0.0000
C        -2.6308    2.2050    0.1263    0.0004   -0.0001    0.0000
C        -1.2119    1.9066    0.1276    0.0001    0.0000   -0.0000
C         1.0001    2.5643    0.1290   -0.0000    0.0000   -0.0000
C         2.0252    3.5895    0.1292    0.0000    0.0000   -0.0000
C        -3.3016    0.9663    0.1265    0.0003   -0.0003    0.0000
C        -2.2764   -0.0588    0.1280    0.0000   -0.0001   -0.0000
C        -0.6092   -5.7583    0.1333    0.0009   -0.0005    0.0000
C        -3.1252   -4.3959    0.1301   -0.0011    0.0005   -0.0000
C        -1.8137   -6.4621    0.1328   -0.0001    0.0013   -0.0000
C        -4.6993    0.8970    0.1255   -0.0113   -0.0186    0.0000
C        -3.3370    3.4131    0.1250    0.0087    0.0185   -0.0000
C        -5.4031    2.1016    0.1242    0.0379    0.0017    0.0000
C        -3.0557   -5.7893    0.1313    0.0014    0.0008    0.0000
C        -1.6188   -2.2708    0.1299   -0.0000    0.0000   -0.0000
C        -1.9171   -3.6897    0.1307    0.0000    0.0000   -0.0000
C         3.2639    2.9186    0.1308    0.0000    0.0000   -0.0000
C         2.9656    1.4998    0.1315   -0.0000    0.0000   -0.0000
C        -4.7303    3.3435    0.1239    0.0164   -0.0286    0.0000
C         3.6232   -0.7123    0.1333    0.0000   -0.0001   -0.0000
C         4.6484   -1.7374    0.1346    0.0003   -0.0003    0.0000
C         2.5587   -2.6777    0.1336    0.0001    0.0000   -0.0000
C         3.9776   -2.9761    0.1348    0.0004   -0.0001    0.0000
C        -0.6784   -4.3606    0.1322    0.0000    0.0000   -0.0000
C         0.3466   -3.3353    0.1323   -0.0000    0.0000   -0.0000
C         1.9559    4.9872    0.1281    0.0009   -0.0005    0.0000
C         4.4720    3.6248    0.1315   -0.0011    0.0005   -0.0000
C         3.1605    5.6910    0.1287   -0.0001    0.0014   -0.0000
C         4.4025    5.0182    0.1304    0.0015    0.0009    0.0000
C         6.0461   -1.6681    0.1356   -0.0113   -0.0185    0.0000
C         4.6838   -4.1842    0.1359    0.0086    0.0184   -0.0000
C         6.7499   -2.8727    0.1368    0.0377    0.0017    0.0000
C         6.0771   -4.1146    0.1369    0.0163   -0.0284    0.0000
H         6.5562   -0.7047    0.1355    0.1242    0.2270   -0.0000
H         4.1560   -5.1380    0.1360   -0.1141   -0.2134    0.0000
H         6.6624   -5.0353    0.1378   -0.1990    0.3165   -0.0003
H        -5.2094   -0.0664    0.1257    0.1250    0.2285   -0.0000
H        -2.8092    4.3669    0.1248   -0.1148   -0.2148    0.0000
H        -5.3156    4.2642    0.1229   -0.2003    0.3185   -0.0004
H        -6.4939    2.0893    0.1234   -0.4343   -0.0064   -0.0003
H         0.3542   -6.2683    0.1345   -0.0107    0.0057   -0.0000
H        -4.0791   -3.8681    0.1290    0.0122   -0.0066    0.0000
H        -3.9763   -6.3745    0.1309   -0.0160   -0.0100   -0.0000
H        -1.8014   -7.5529    0.1337    0.0002   -0.0150    0.0000
H         0.9926    5.4972    0.1268   -0.0113    0.0061   -0.0000
H         5.4259    3.0971    0.1328    0.0126   -0.0068    0.0000
H         5.3231    5.6035    0.1309   -0.0167   -0.0105   -0.0000
H         3.1482    6.7818    0.1279    0.0002   -0.0160    0.0000
H         7.8407   -2.8603    0.1376   -0.4315   -0.0063   -0.0003
    57
stable frequency at   3130.775 1/cm IR int. is 1.090 a.m.u.; force const. is 6.293 mDyne/Ang.
Fe        0.6734   -0.3855    0.1306   -0.0000   -0.0000    0.0000
N         3.9138    0.5779    0.1328   -0.0000   -0.0000    0.0000
N         1.6368   -3.6259    0.1334   -0.0000    0.0000    0.0000
N        -0.2395   -2.0709    0.1309   -0.0000   -0.0000   -0.0000
N        -1.0120    0.5273    0.1286   -0.0000    0.0000   -0.0000
N         1.5863    1.2998    0.1304    0.0000    0.0000   -0.0000
N         2.3588   -1.2984    0.1326    0.0000   -0.0000    0.0000
N        -0.2900    2.8548    0.1277    0.0000   -0.0000   -0.0000
N        -2.5670   -1.3489    0.1285    0.0000    0.0000   -0.0000
C        -2.6308    2.2050    0.1263    0.0003   -0.0000    0.0000
C        -1.2119    1.9066    0.1276    0.0001    0.0001   -0.0000
C         1.0001    2.5643    0.1290   -0.0001   -0.0000   -0.0000
C         2.0252    3.5895    0.1292   -0.0002   -0.0002   -0.0000
C        -3.3016    0.9663    0.1265    0.0002   -0.0002    0.0000
C        -2.2764   -0.0588    0.1280    0.0000   -0.0001   -0.0000
C        -0.6092   -5.7583    0.1333    0.0130   -0.0079    0.0000
C        -3.1252   -4.3959    0.1301   -0.0131    0.0062   -0.0000
C        -1.8137   -6.4621    0.1328   -0.0012    0.0261   -0.0000
C        -4.6993    0.8970    0.1255   -0.0080   -0.0131    0.0000
C        -3.3370    3.4131    0.1250    0.0062    0.0133   -0.0000
C        -5.4031    2.1016    0.1242    0.0264    0.0012    0.0000
C        -3.0557   -5.7893    0.1313    0.0204    0.0117    0.0000
C        -1.6188   -2.2708    0.1299   -0.0001    0.0001   -0.0000
C        -1.9171   -3.6897    0.1307    0.0000    0.0003   -0.0000
C         3.2639    2.9186    0.1308   -0.0000   -0.0003    0.0000
C         2.9656    1.4998    0.1315    0.0001   -0.0001    0.0000
C        -4.7303    3.3435    0.1239    0.0118   -0.0206    0.0000
C         3.6232   -0.7123    0.1333   -0.0000    0.0001    0.0000
C         4.6484   -1.7374    0.1346   -0.0002    0.0002   -0.0000
C         2.5587   -2.6777    0.1336   -0.0001   -0.0001    0.0000
C         3.9776   -2.9761    0.1348   -0.0003    0.0000   -0.0000
C        -0.6784   -4.3606    0.1322    0.0002    0.0002    0.0000
C         0.3466   -3.3353    0.1323    0.0001    0.0000    0.0000
C         1.9559    4.9872    0.1281   -0.0131    0.0080   -0.0000
C         4.4720    3.6248    0.1315    0.0133   -0.0062    0.0000
C         3.1605    5.6910    0.1287    0.0012   -0.0263    0.0000
C         4.4025    5.0182    0.1304   -0.0206   -0.0118   -0.0000
C         6.0461   -1.6681    0.1356    0.0080    0.0131   -0.0000
C         4.6838   -4.1842    0.1359   -0.0062   -0.0133    0.0000
C         6.7499   -2.8727    0.1368   -0.0265   -0.0012   -0.0000
C         6.0771   -4.1146    0.1369   -0.0119    0.0207   -0.0000
H         6.5562   -0.7047    0.1355   -0.0883   -0.1614    0.0000
H         4.1560   -5.1380    0.1360    0.0824    0.1543   -0.0000
H         6.6624   -5.0353    0.1378    0.1451   -0.2307    0.0002
H        -5.2094   -0.0664    0.1257    0.0879    0.1608   -0.0000
H        -2.8092    4.3669    0.1248   -0.0821   -0.1537    0.0000
H        -5.3156    4.2642    0.1229   -0.1446    0.2298   -0.0003
H        -6.4939    2.0893    0.1234   -0.3018   -0.0044   -0.0002
H         0.3542   -6.2683    0.1345   -0.1590    0.0870   -0.0002
H        -4.0791   -3.8681    0.1290    0.1522   -0.0813    0.0002
H        -3.9763   -6.3745    0.1309   -0.2275   -0.1431   -0.0001
H        -1.8014   -7.5529    0.1337    0.0044   -0.2986    0.0002
H         0.9926    5.4972    0.1268    0.1603   -0.0877    0.0002
H         5.4259    3.0971    0.1328   -0.1534    0.0819   -0.0002
H         5.3231    5.6035    0.1309    0.2292    0.1442    0.0001
H         3.1482    6.7818    0.1279   -0.0044    0.3010   -0.0002
H         7.8407   -2.8603    0.1376    0.3029    0.0044    0.0002
    57
stable frequency at   3143.319 1/cm IR int. is 1.093 a.m.u.; force const. is 6.364 mDyne/Ang.
Fe        0.6734   -0.3855    0.1306    0.0000    0.0000    0.0000
N         3.9138    0.5779    0.1328    0.0001    0.0000    0.0000
N         1.6368   -3.6259    0.1334   -0.0000    0.0001   -0.0000
N        -0.2395   -2.0709    0.1309    0.0000    0.0000   -0.0000
N        -1.0120    0.5273    0.1286   -0.0000    0.0000    0.0000
N         1.5863    1.2998    0.1304   -0.0000   -0.0000    0.0000
N         2.3588   -1.2984    0.1326    0.0000   -0.0000   -0.0000
N        -0.2900    2.8548    0.1277    0.0000   -0.0001    0.0000
N        -2.5670   -1.3489    0.1285   -0.0001   -0.0000   -0.0000
C        -2.6308    2.2050    0.1263    0.0006   -0.0010    0.0000
C        -1.2119    1.9066    0.1276    0.0002    0.0002    0.0000
C         1.0001    2.5643    0.1290   -0.0002    0.0001   -0.0000
C         2.0252    3.5895    0.1292    0.0001   -0.0011    0.0000
C        -3.3016    0.9663    0.1265   -0.0011   -0.0001   -0.0000
C        -2.2764   -0.0588    0.1280    0.0001    0.0002   -0.0000
C        -0.6092   -5.7583    0.1333    0.0234   -0.0122    0.0000
C        -3.1252   -4.3959    0.1301    0.0265   -0.0146    0.0000
C        -1.8137   -6.4621    0.1328   -0.0013   -0.0085    0.0000
C        -4.6993    0.8970    0.1255    0.0123    0.0235   -0.0000
C        -3.3370    3.4131    0.1250    0.0146    0.0265   -0.0000
C        -5.4031    2.1016    0.1242    0.0085   -0.0014    0.0000
C        -3.0557   -5.7893    0.1313    0.0076    0.0066    0.0000
C        -1.6188   -2.2708    0.1299    0.0002   -0.0002    0.0000
C        -1.9171   -3.6897    0.1307   -0.0010   -0.0006   -0.0000
C         3.2639    2.9186    0.1308    0.0010    0.0006    0.0000
C         2.9656    1.4998    0.1315   -0.0002    0.0002   -0.0000
C        -4.7303    3.3435    0.1239   -0.0066    0.0076   -0.0000
C         3.6232   -0.7123    0.1333   -0.0001   -0.0002    0.0000
C         4.6484   -1.7374    0.1346    0.0010    0.0001    0.0000
C         2.5587   -2.6777    0.1336   -0.0002   -0.0002   -0.0000
C         3.9776   -2.9761    0.1348   -0.0006    0.0010   -0.0000
C        -0.6784   -4.3606    0.1322   -0.0001    0.0011   -0.0000
C         0.3466   -3.3353    0.1323    0.0002   -0.0001    0.0000
C         1.9559    4.9872    0.1281   -0.0237    0.0123   -0.0000
C         4.4720    3.6248    0.1315   -0.0267    0.0147   -0.0000
C         3.1605    5.6910    0.1287    0.0014    0.0086   -0.0000
C         4.4025    5.0182    0.1304   -0.0077   -0.0067   -0.0000
C         6.0461   -1.6681    0.1356   -0.0118   -0.0226    0.0000
C         4.6838   -4.1842    0.1359   -0.0142   -0.0257    0.0000
C         6.7499   -2.8727    0.1368   -0.0082    0.0013   -0.0000
C         6.0771   -4.1146    0.1369    0.0064   -0.0074    0.0000
H         6.5562   -0.7047    0.1355    0.1375    0.2556   -0.0000
H         4.1560   -5.1380    0.1360    0.1590    0.2926   -0.0000
H         6.6624   -5.0353    0.1378   -0.0582    0.0887   -0.0001
H        -5.2094   -0.0664    0.1257   -0.1430   -0.2657    0.0001
H        -2.8092    4.3669    0.1248   -0.1644   -0.3025    0.0001
H        -5.3156    4.2642    0.1229    0.0602   -0.0918    0.0001
H        -6.4939    2.0893    0.1234   -0.0941    0.0005   -0.0001
H         0.3542   -6.2683    0.1345   -0.2648    0.1425   -0.0003
H        -4.0791   -3.8681    0.1290   -0.3015    0.1639   -0.0004
H        -3.9763   -6.3745    0.1309   -0.0915   -0.0600   -0.0000
H        -1.8014   -7.5529    0.1337    0.0005    0.0938   -0.0001
H         0.9926    5.4972    0.1268    0.2673   -0.1438    0.0004
H         5.4259    3.0971    0.1328    0.3046   -0.1655    0.0004
H         5.3231    5.6035    0.1309    0.0926    0.0607    0.0000
H         3.1482    6.7818    0.1279   -0.0005   -0.0947    0.0001
H         7.8407   -2.8603    0.1376    0.0904   -0.0005    0.0001
    57
stable frequency at   3143.354 1/cm IR int. is 1.093 a.m.u.; force const. is 6.364 mDyne/Ang.
Fe        0.6734   -0.3855    0.1306    0.0000   -0.0000    0.0000
N         3.9138    0.5779    0.1328   -0.0001    0.0001   -0.0000
N         1.6368   -3.6259    0.1334   -0.0001    0.0001   -0.0000
N        -0.2395   -2.0709    0.1309    0.0000   -0.0000    0.0000
N        -1.0120    0.5273    0.1286   -0.0000    0.0000   -0.0000
N         1.5863    1.2998    0.1304    0.0000   -0.0000    0.0000
N         2.3588   -1.2984    0.1326   -0.0000    0.0000   -0.0000
N        -0.2900    2.8548    0.1277   -0.0001    0.0001   -0.0000
N        -2.5670   -1.3489    0.1285   -0.0001    0.0001   -0.0000
C        -2.6308    2.2050    0.1263    0.0000   -0.0001    0.0000
C        -1.2119    1.9066    0.1276   -0.0000   -0.0000    0.0000
C         1.0001    2.5643    0.1290    0.0003   -0.0001    0.0000
C         2.0252    3.5895    0.1292   -0.0001    0.0016   -0.0000
C        -3.3016    0.9663    0.1265    0.0000   -0.0000    0.0000
C        -2.2764   -0.0588    0.1280    0.0000    0.0000    0.0000
C        -0.6092   -5.7583    0.1333    0.0351   -0.0182    0.0000
C        -3.1252   -4.3959    0.1301    0.0344   -0.0190    0.0000
C        -1.8137   -6.4621    0.1328   -0.0019   -0.0132    0.0000
C        -4.6993    0.8970    0.1255   -0.0003   -0.0007    0.0000
C        -3.3370    3.4131    0.1250    0.0009    0.0015   -0.0000
C        -5.4031    2.1016    0.1242   -0.0002   -0.0000   -0.0000
C        -3.0557   -5.7893    0.1313    0.0100    0.0087    0.0000
C        -1.6188   -2.2708    0.1299    0.0002   -0.0002    0.0000
C        -1.9171   -3.6897    0.1307   -0.0014   -0.0008   -0.0000
C         3.2639    2.9186    0.1308   -0.0014   -0.0008   -0.0000
C         2.9656    1.4998    0.1315    0.0002   -0.0002    0.0000
C        -4.7303    3.3435    0.1239   -0.0009    0.0012   -0.0000
C         3.6232   -0.7123    0.1333    0.0000    0.0000    0.0000
C         4.6484   -1.7374    0.1346    0.0001   -0.0000    0.0000
C         2.5587   -2.6777    0.1336   -0.0000   -0.0000    0.0000
C         3.9776   -2.9761    0.1348    0.0000   -0.0000    0.0000
C        -0.6784   -4.3606    0.1322   -0.0001    0.0016   -0.0000
C         0.3466   -3.3353    0.1323    0.0003   -0.0001    0.0000
C         1.9559    4.9872    0.1281    0.0358   -0.0186    0.0000
C         4.4720    3.6248    0.1315    0.0352   -0.0194    0.0000
C         3.1605    5.6910    0.1287   -0.0020   -0.0135    0.0000
C         4.4025    5.0182    0.1304    0.0102    0.0089    0.0000
C         6.0461   -1.6681    0.1356   -0.0009   -0.0018    0.0000
C         4.6838   -4.1842    0.1359    0.0002    0.0004    0.0000
C         6.7499   -2.8727    0.1368   -0.0006    0.0000   -0.0000
C         6.0771   -4.1146    0.1369   -0.0006    0.0009   -0.0000
H         6.5562   -0.7047    0.1355    0.0107    0.0199   -0.0000
H         4.1560   -5.1380    0.1360   -0.0025   -0.0044    0.0000
H         6.6624   -5.0353    0.1378    0.0063   -0.0099    0.0000
H        -5.2094   -0.0664    0.1257    0.0039    0.0073   -0.0000
H        -2.8092    4.3669    0.1248   -0.0097   -0.0176    0.0000
H        -5.3156    4.2642    0.1229    0.0090   -0.0142    0.0000
H        -6.4939    2.0893    0.1234    0.0012    0.0000    0.0000
H         0.3542   -6.2683    0.1345   -0.3960    0.2128   -0.0005
H        -4.0791   -3.8681    0.1290   -0.3921    0.2128   -0.0005
H        -3.9763   -6.3745    0.1309   -0.1212   -0.0795   -0.0000
H        -1.8014   -7.5529    0.1337    0.0004    0.1446   -0.0001
H         0.9926    5.4972    0.1268   -0.4047    0.2175   -0.0005
H         5.4259    3.0971    0.1328   -0.4009    0.2176   -0.0005
H         5.3231    5.6035    0.1309   -0.1241   -0.0815   -0.0001
H         3.1482    6.7818    0.1279    0.0004    0.1478   -0.0001
H         7.8407   -2.8603    0.1376    0.0058    0.0000    0.0000
    57
stable frequency at   3143.355 1/cm IR int. is 1.093 a.m.u.; force const. is 6.364 mDyne/Ang.
Fe        0.6734   -0.3855    0.1306    0.0000    0.0000    0.0000
N         3.9138    0.5779    0.1328   -0.0001   -0.0001    0.0000
N         1.6368   -3.6259    0.1334   -0.0001   -0.0001    0.0000
N        -0.2395   -2.0709    0.1309   -0.0000   -0.0000    0.0000
N        -1.0120    0.5273    0.1286    0.0000    0.0000    0.0000
N         1.5863    1.2998    0.1304   -0.0000   -0.0000    0.0000
N         2.3588   -1.2984    0.1326    0.0000    0.0000    0.0000
N        -0.2900    2.8548    0.1277   -0.0001   -0.0001    0.0000
N        -2.5670   -1.3489    0.1285   -0.0000   -0.0001    0.0000
C        -2.6308    2.2050    0.1263    0.0008   -0.0014    0.0000
C        -1.2119    1.9066    0.1276    0.0002    0.0002    0.0000
C         1.0001    2.5643    0.1290   -0.0000    0.0000    0.0000
C         2.0252    3.5895    0.1292    0.0000    0.0001    0.0000
C        -3.3016    0.9663    0.1265   -0.0016   -0.0001   -0.0000
C        -2.2764   -0.0588    0.1280    0.0001    0.0003   -0.0000
C        -0.6092   -5.7583    0.1333    0.0004   -0.0002    0.0000
C        -3.1252   -4.3959    0.1301   -0.0019    0.0011   -0.0000
C        -1.8137   -6.4621    0.1328    0.0001   -0.0001    0.0000
C        -4.6993    0.8970    0.1255    0.0186    0.0357   -0.0000
C        -3.3370    3.4131    0.1250    0.0193    0.0350   -0.0000
C        -5.4031    2.1016    0.1242    0.0134   -0.0020    0.0000
C        -3.0557   -5.7893    0.1313   -0.0013   -0.0009   -0.0000
C        -1.6188   -2.2708    0.1299    0.0000   -0.0000    0.0000
C        -1.9171   -3.6897    0.1307    0.0001    0.0001    0.0000
C         3.2639    2.9186    0.1308   -0.0000    0.0000    0.0000
C         2.9656    1.4998    0.1315    0.0000   -0.0000    0.0000
C        -4.7303    3.3435    0.1239   -0.0089    0.0102   -0.0000
C         3.6232   -0.7123    0.1333    0.0001    0.0003   -0.0000
C         4.6484   -1.7374    0.1346   -0.0016   -0.0001   -0.0000
C         2.5587   -2.6777    0.1336    0.0002    0.0002    0.0000
C         3.9776   -2.9761    0.1348    0.0008   -0.0014    0.0000
C        -0.6784   -4.3606    0.1322    0.0000    0.0000    0.0000
C         0.3466   -3.3353    0.1323   -0.0000    0.0000    0.0000
C         1.9559    4.9872    0.1281    0.0020   -0.0011    0.0000
C         4.4720    3.6248    0.1315   -0.0001    0.0001   -0.0000
C         3.1605    5.6910    0.1287   -0.0000   -0.0007    0.0000
C         4.4025    5.0182    0.1304   -0.0008   -0.0005   -0.0000
C         6.0461   -1.6681    0.1356    0.0183    0.0352   -0.0000
C         4.6838   -4.1842    0.1359    0.0191    0.0345   -0.0000
C         6.7499   -2.8727    0.1368    0.0132   -0.0019    0.0000
C         6.0771   -4.1146    0.1369   -0.0088    0.0100   -0.0000
H         6.5562   -0.7047    0.1355   -0.2137   -0.3976    0.0001
H         4.1560   -5.1380    0.1360   -0.2138   -0.3938    0.0000
H         6.6624   -5.0353    0.1378    0.0798   -0.1216    0.0001
H        -5.2094   -0.0664    0.1257   -0.2166   -0.4030    0.0001
H        -2.8092    4.3669    0.1248   -0.2166   -0.3990    0.0001
H        -5.3156    4.2642    0.1229    0.0811   -0.1236    0.0001
H        -6.4939    2.0893    0.1234   -0.1472    0.0004   -0.0001
H         0.3542   -6.2683    0.1345   -0.0042    0.0022   -0.0000
H        -4.0791   -3.8681    0.1290    0.0212   -0.0116    0.0000
H        -3.9763   -6.3745    0.1309    0.0153    0.0098    0.0000
H        -1.8014   -7.5529    0.1337   -0.0000    0.0001   -0.0000
H         0.9926    5.4972    0.1268   -0.0228    0.0122   -0.0000
H         5.4259    3.0971    0.1328    0.0012   -0.0007    0.0000
H         5.3231    5.6035    0.1309    0.0089    0.0056    0.0000
H         3.1482    6.7818    0.1279   -0.0000    0.0068   -0.0000
H         7.8407   -2.8603    0.1376   -0.1452    0.0004   -0.0001
    57
stable frequency at   3143.367 1/cm IR int. is 1.093 a.m.u.; force const. is 6.365 mDyne/Ang.
Fe        0.6734   -0.3855    0.1306   -0.0000   -0.0000   -0.0000
N         3.9138    0.5779    0.1328   -0.0000    0.0001   -0.0000
N         1.6368   -3.6259    0.1334    0.0001    0.0000    0.0000
N        -0.2395   -2.0709    0.1309   -0.0000    0.0000   -0.0000
N        -1.0120    0.5273    0.1286    0.0000    0.0000    0.0000
N         1.5863    1.2998    0.1304    0.0000   -0.0000    0.0000
N         2.3588   -1.2984    0.1326   -0.0000   -0.0000   -0.0000
N        -0.2900    2.8548    0.1277   -0.0001   -0.0000   -0.0000
N        -2.5670   -1.3489    0.1285    0.0000   -0.0001    0.0000
C        -2.6308    2.2050    0.1263    0.0006   -0.0010    0.0000
C        -1.2119    1.9066    0.1276    0.0001    0.0001    0.0000
C         1.0001    2.5643    0.1290    0.0002   -0.0000    0.0000
C         2.0252    3.5895    0.1292   -0.0001    0.0011   -0.0000
C        -3.3016    0.9663    0.1265   -0.0011   -0.0001   -0.0000
C        -2.2764   -0.0588    0.1280    0.0000    0.0002   -0.0000
C        -0.6092   -5.7583    0.1333   -0.0247    0.0129   -0.0000
C        -3.1252   -4.3959    0.1301   -0.0256    0.0141   -0.0000
C        -1.8137   -6.4621    0.1328    0.0014    0.0093   -0.0000
C        -4.6993    0.8970    0.1255    0.0123    0.0237   -0.0000
C        -3.3370    3.4131    0.1250    0.0136    0.0247   -0.0000
C        -5.4031    2.1016    0.1242    0.0089   -0.0013    0.0000
C        -3.0557   -5.7893    0.1313   -0.0079   -0.0068   -0.0000
C        -1.6188   -2.2708    0.1299   -0.0002    0.0001   -0.0000
C        -1.9171   -3.6897    0.1307    0.0010    0.0006    0.0000
C         3.2639    2.9186    0.1308   -0.0010   -0.0006   -0.0000
C         2.9656    1.4998    0.1315    0.0001   -0.0001    0.0000
C        -4.7303    3.3435    0.1239   -0.0065    0.0076   -0.0000
C         3.6232   -0.7123    0.1333   -0.0001   -0.0002    0.0000
C         4.6484   -1.7374    0.1346    0.0011    0.0001    0.0000
C         2.5587   -2.6777    0.1336   -0.0002   -0.0002   -0.0000
C         3.9776   -2.9761    0.1348   -0.0006    0.0010   -0.0000
C        -0.6784   -4.3606    0.1322    0.0001   -0.0011    0.0000
C         0.3466   -3.3353    0.1323   -0.0002    0.0000   -0.0000
C         1.9559    4.9872    0.1281    0.0233   -0.0121    0.0000
C         4.4720    3.6248    0.1315    0.0243   -0.0134    0.0000
C         3.1605    5.6910    0.1287   -0.0013   -0.0088    0.0000
C         4.4025    5.0182    0.1304    0.0075    0.0064    0.0000
C         6.0461   -1.6681    0.1356   -0.0131   -0.0252    0.0000
C         4.6838   -4.1842    0.1359   -0.0145   -0.0263    0.0000
C         6.7499   -2.8727    0.1368   -0.0095    0.0014   -0.0000
C         6.0771   -4.1146    0.1369    0.0069   -0.0081    0.0000
H         6.5562   -0.7047    0.1355    0.1532    0.2851   -0.0000
H         4.1560   -5.1380    0.1360    0.1626    0.2995   -0.0000
H         6.6624   -5.0353    0.1378   -0.0639    0.0978   -0.0001
H        -5.2094   -0.0664    0.1257   -0.1441   -0.2681    0.0001
H        -2.8092    4.3669    0.1248   -0.1530   -0.2818    0.0001
H        -5.3156    4.2642    0.1229    0.0601   -0.0921    0.0001
H        -6.4939    2.0893    0.1234   -0.0985    0.0003   -0.0001
H         0.3542   -6.2683    0.1345    0.2794   -0.1501    0.0003
H        -4.0791   -3.8681    0.1290    0.2921   -0.1586    0.0004
H        -3.9763   -6.3745    0.1309    0.0953    0.0623    0.0000
H        -1.8014   -7.5529    0.1337   -0.0003   -0.1027    0.0001
H         0.9926    5.4972    0.1268   -0.2634    0.1415   -0.0003
H         5.4259    3.0971    0.1328   -0.2773    0.1506   -0.0004
H         5.3231    5.6035    0.1309   -0.0911   -0.0595   -0.0000
H         3.1482    6.7818    0.1279    0.0003    0.0969   -0.0001
H         7.8407   -2.8603    0.1376    0.1048   -0.0003    0.0001
    57
stable frequency at   3146.590 1/cm IR int. is 1.096 a.m.u.; force const. is 6.392 mDyne/Ang.
Fe        0.6734   -0.3855    0.1306    0.0000    0.0000    0.0000
N         3.9138    0.5779    0.1328    0.0001   -0.0002    0.0000
N         1.6368   -3.6259    0.1334    0.0002    0.0001    0.0000
N        -0.2395   -2.0709    0.1309    0.0001    0.0002   -0.0000
N        -1.0120    0.5273    0.1286   -0.0002    0.0001   -0.0000
N         1.5863    1.2998    0.1304   -0.0001   -0.0002    0.0000
N         2.3588   -1.2984    0.1326    0.0002   -0.0001    0.0000
N        -0.2900    2.8548    0.1277   -0.0002   -0.0001   -0.0000
N        -2.5670   -1.3489    0.1285   -0.0000    0.0002   -0.0000
C        -2.6308    2.2050    0.1263    0.0007   -0.0005    0.0000
C        -1.2119    1.9066    0.1276    0.0002    0.0001    0.0000
C         1.0001    2.5643    0.1290    0.0002    0.0001    0.0000
C         2.0252    3.5895    0.1292    0.0003    0.0009   -0.0000
C        -3.3016    0.9663    0.1265    0.0009   -0.0003    0.0000
C        -2.2764   -0.0588    0.1280    0.0001   -0.0002    0.0000
C        -0.6092   -5.7583    0.1333   -0.0240    0.0121   -0.0000
C        -3.1252   -4.3959    0.1301    0.0203   -0.0116    0.0000
C        -1.8137   -6.4621    0.1328    0.0002    0.0172   -0.0000
C        -4.6993    0.8970    0.1255   -0.0123   -0.0243    0.0000
C        -3.3370    3.4131    0.1250    0.0117    0.0206   -0.0000
C        -5.4031    2.1016    0.1242   -0.0174    0.0002   -0.0000
C        -3.0557   -5.7893    0.1313    0.0127    0.0083    0.0000
C        -1.6188   -2.2708    0.1299    0.0001   -0.0002    0.0000
C        -1.9171   -3.6897    0.1307   -0.0005   -0.0006   -0.0000
C         3.2639    2.9186    0.1308    0.0005    0.0007    0.0000
C         2.9656    1.4998    0.1315   -0.0001    0.0002   -0.0000
C        -4.7303    3.3435    0.1239   -0.0084    0.0129   -0.0000
C         3.6232   -0.7123    0.1333   -0.0001    0.0002   -0.0000
C         4.6484   -1.7374    0.1346   -0.0009    0.0003   -0.0000
C         2.5587   -2.6777    0.1336   -0.0002   -0.0001   -0.0000
C         3.9776   -2.9761    0.1348   -0.0006    0.0005   -0.0000
C        -0.6784   -4.3606    0.1322   -0.0003   -0.0009    0.0000
C         0.3466   -3.3353    0.1323   -0.0002   -0.0001   -0.0000
C         1.9559    4.9872    0.1281    0.0243   -0.0123    0.0000
C         4.4720    3.6248    0.1315   -0.0206    0.0117   -0.0000
C         3.1605    5.6910    0.1287   -0.0002   -0.0174    0.0000
C         4.4025    5.0182    0.1304   -0.0129   -0.0084   -0.0000
C         6.0461   -1.6681    0.1356    0.0121    0.0240   -0.0000
C         4.6838   -4.1842    0.1359   -0.0116   -0.0203    0.0000
C         6.7499   -2.8727    0.1368    0.0171   -0.0002    0.0000
C         6.0771   -4.1146    0.1369    0.0083   -0.0127    0.0000
H         6.5562   -0.7047    0.1355   -0.1434   -0.2675    0.0000
H         4.1560   -5.1380    0.1360    0.1263    0.2315   -0.0000
H         6.6624   -5.0353    0.1378   -0.0882    0.1389   -0.0001
H        -5.2094   -0.0664    0.1257    0.1451    0.2707   -0.0001
H        -2.8092    4.3669    0.1248   -0.1278   -0.2344    0.0000
H        -5.3156    4.2642    0.1229    0.0893   -0.1406    0.0002
H        -6.4939    2.0893    0.1234    0.1883    0.0020    0.0001
H         0.3542   -6.2683    0.1345    0.2678   -0.1436    0.0003
H        -4.0791   -3.8681    0.1290   -0.2315    0.1263   -0.0003
H        -3.9763   -6.3745    0.1309   -0.1390   -0.0882   -0.0001
H        -1.8014   -7.5529    0.1337    0.0020   -0.1862    0.0001
H         0.9926    5.4972    0.1268   -0.2710    0.1453   -0.0004
H         5.4259    3.0971    0.1328    0.2349   -0.1281    0.0003
H         5.3231    5.6035    0.1309    0.1409    0.0894    0.0001
H         3.1482    6.7818    0.1279   -0.0020    0.1886   -0.0001
H         7.8407   -2.8603    0.1376   -0.1860   -0.0020   -0.0001
    57
stable frequency at   3146.683 1/cm IR int. is 1.096 a.m.u.; force const. is 6.392 mDyne/Ang.
Fe        0.6734   -0.3855    0.1306   -0.0000   -0.0000   -0.0000
N         3.9138    0.5779    0.1328   -0.0001    0.0001   -0.0000
N         1.6368   -3.6259    0.1334    0.0001   -0.0001    0.0000
N        -0.2395   -2.0709    0.1309    0.0001    0.0002   -0.0000
N        -1.0120    0.5273    0.1286   -0.0000    0.0000   -0.0000
N         1.5863    1.2998    0.1304    0.0001    0.0002   -0.0000
N         2.3588   -1.2984    0.1326   -0.0000    0.0000   -0.0000
N        -0.2900    2.8548    0.1277    0.0001   -0.0001    0.0000
N        -2.5670   -1.3489    0.1285   -0.0001    0.0001   -0.0000
C        -2.6308    2.2050    0.1263    0.0002   -0.0002    0.0000
C        -1.2119    1.9066    0.1276    0.0001    0.0000   -0.0000
C         1.0001    2.5643    0.1290   -0.0003   -0.0000   -0.0000
C         2.0252    3.5895    0.1292   -0.0004   -0.0012    0.0000
C        -3.3016    0.9663    0.1265    0.0002   -0.0001    0.0000
C        -2.2764   -0.0588    0.1280   -0.0000   -0.0000   -0.0000
C        -0.6092   -5.7583    0.1333   -0.0315    0.0159   -0.0000
C        -3.1252   -4.3959    0.1301    0.0308   -0.0174    0.0000
C        -1.8137   -6.4621    0.1328    0.0002    0.0234   -0.0000
C        -4.6993    0.8970    0.1255   -0.0025   -0.0049    0.0000
C        -3.3370    3.4131    0.1250    0.0041    0.0072   -0.0000
C        -5.4031    2.1016    0.1242   -0.0038   -0.0000   -0.0000
C        -3.0557   -5.7893    0.1313    0.0184    0.0120    0.0000
C        -1.6188   -2.2708    0.1299    0.0001   -0.0002    0.0000
C        -1.9171   -3.6897    0.1307   -0.0008   -0.0010    0.0000
C         3.2639    2.9186    0.1308   -0.0008   -0.0010   -0.0000
C         2.9656    1.4998    0.1315    0.0001   -0.0002    0.0000
C        -4.7303    3.3435    0.1239   -0.0026    0.0038   -0.0000
C         3.6232   -0.7123    0.1333   -0.0000   -0.0000   -0.0000
C         4.6484   -1.7374    0.1346    0.0002   -0.0001    0.0000
C         2.5587   -2.6777    0.1336    0.0001    0.0000   -0.0000
C         3.9776   -2.9761    0.1348    0.0002   -0.0002    0.0000
C        -0.6784   -4.3606    0.1322   -0.0004   -0.0012    0.0000
C         0.3466   -3.3353    0.1323   -0.0003   -0.0000   -0.0000
C         1.9559    4.9872    0.1281   -0.0313    0.0158   -0.0000
C         4.4720    3.6248    0.1315    0.0306   -0.0173    0.0000
C         3.1605    5.6910    0.1287    0.0002    0.0233   -0.0000
C         4.4025    5.0182    0.1304    0.0182    0.0119    0.0000
C         6.0461   -1.6681    0.1356   -0.0024   -0.0048    0.0000
C         4.6838   -4.1842    0.1359    0.0040    0.0071   -0.0000
C         6.7499   -2.8727    0.1368   -0.0037   -0.0000   -0.0000
C         6.0771   -4.1146    0.1369   -0.0025    0.0037   -0.0000
H         6.5562   -0.7047    0.1355    0.0284    0.0530   -0.0000
H         4.1560   -5.1380    0.1360   -0.0441   -0.0809    0.0000
H         6.6624   -5.0353    0.1378    0.0262   -0.0413    0.0000
H        -5.2094   -0.0664    0.1257    0.0293    0.0547   -0.0000
H        -2.8092    4.3669    0.1248   -0.0449   -0.0824    0.0000
H        -5.3156    4.2642    0.1229    0.0268   -0.0422    0.0000
H        -6.4939    2.0893    0.1234    0.0413    0.0005    0.0000
H         0.3542   -6.2683    0.1345    0.3508   -0.1880    0.0004
H        -4.0791   -3.8681    0.1290   -0.3504    0.1911   -0.0004
H        -3.9763   -6.3745    0.1309   -0.2009   -0.1276   -0.0001
H        -1.8014   -7.5529    0.1337    0.0027   -0.2541    0.0002
H         0.9926    5.4972    0.1268    0.3484   -0.1868    0.0005
H         5.4259    3.0971    0.1328   -0.3484    0.1900   -0.0005
H         5.3231    5.6035    0.1309   -0.1997   -0.1268   -0.0001
H         3.1482    6.7818    0.1279    0.0027   -0.2525    0.0002
H         7.8407   -2.8603    0.1376    0.0401    0.0005    0.0000
    57
stable frequency at   3146.684 1/cm IR int. is 1.096 a.m.u.; force const. is 6.392 mDyne/Ang.
Fe        0.6734   -0.3855    0.1306    0.0000   -0.0000    0.0000
N         3.9138    0.5779    0.1328    0.0001    0.0001    0.0000
N         1.6368   -3.6259    0.1334   -0.0001   -0.0001    0.0000
N        -0.2395   -2.0709    0.1309   -0.0000   -0.0000    0.0000
N        -1.0120    0.5273    0.1286   -0.0002    0.0001   -0.0000
N         1.5863    1.2998    0.1304   -0.0000   -0.0000    0.0000
N         2.3588   -1.2984    0.1326   -0.0002    0.0001   -0.0000
N        -0.2900    2.8548    0.1277   -0.0001   -0.0001    0.0000
N        -2.5670   -1.3489    0.1285    0.0001    0.0001    0.0000
C        -2.6308    2.2050    0.1263    0.0010   -0.0008    0.0000
C        -1.2119    1.9066    0.1276    0.0002    0.0001    0.0000
C         1.0001    2.5643    0.1290    0.0000   -0.0000    0.0000
C         2.0252    3.5895    0.1292    0.0001    0.0002    0.0000
C        -3.3016    0.9663    0.1265    0.0012   -0.0004    0.0000
C        -2.2764   -0.0588    0.1280    0.0000   -0.0003    0.0000
C        -0.6092   -5.7583    0.1333    0.0050   -0.0026    0.0000
C        -3.1252   -4.3959    0.1301   -0.0073    0.0041   -0.0000
C        -1.8137   -6.4621    0.1328    0.0000   -0.0039    0.0000
C        -4.6993    0.8970    0.1255   -0.0158   -0.0313    0.0000
C        -3.3370    3.4131    0.1250    0.0174    0.0307   -0.0000
C        -5.4031    2.1016    0.1242   -0.0233    0.0002   -0.0000
C        -3.0557   -5.7893    0.1313   -0.0039   -0.0026   -0.0000
C        -1.6188   -2.2708    0.1299   -0.0000    0.0001    0.0000
C        -1.9171   -3.6897    0.1307    0.0002    0.0002    0.0000
C         3.2639    2.9186    0.1308    0.0002    0.0002    0.0000
C         2.9656    1.4998    0.1315   -0.0000    0.0001    0.0000
C        -4.7303    3.3435    0.1239   -0.0120    0.0183   -0.0000
C         3.6232   -0.7123    0.1333    0.0000   -0.0003    0.0000
C         4.6484   -1.7374    0.1346    0.0012   -0.0004    0.0000
C         2.5587   -2.6777    0.1336    0.0002    0.0001    0.0000
C         3.9776   -2.9761    0.1348    0.0010   -0.0008    0.0000
C        -0.6784   -4.3606    0.1322    0.0001    0.0002    0.0000
C         0.3466   -3.3353    0.1323    0.0000   -0.0000    0.0000
C         1.9559    4.9872    0.1281    0.0046   -0.0024    0.0000
C         4.4720    3.6248    0.1315   -0.0070    0.0039   -0.0000
C         3.1605    5.6910    0.1287    0.0000   -0.0036    0.0000
C         4.4025    5.0182    0.1304   -0.0037   -0.0025   -0.0000
C         6.0461   -1.6681    0.1356   -0.0159   -0.0314    0.0000
C         4.6838   -4.1842    0.1359    0.0174    0.0307   -0.0000
C         6.7499   -2.8727    0.1368   -0.0234    0.0002   -0.0000
C         6.0771   -4.1146    0.1369   -0.0120    0.0183   -0.0000
H         6.5562   -0.7047    0.1355    0.1877    0.3501   -0.0000
H         4.1560   -5.1380    0.1360   -0.1907   -0.3498    0.0000
H         6.6624   -5.0353    0.1378    0.1274   -0.2005    0.0002
H        -5.2094   -0.0664    0.1257    0.1871    0.3491   -0.0001
H        -2.8092    4.3669    0.1248   -0.1903   -0.3490    0.0001
H        -5.3156    4.2642    0.1229    0.1271   -0.2001    0.0002
H        -6.4939    2.0893    0.1234    0.2530    0.0027    0.0002
H         0.3542   -6.2683    0.1345   -0.0561    0.0301   -0.0001
H        -4.0791   -3.8681    0.1290    0.0836   -0.0455    0.0001
H        -3.9763   -6.3745    0.1309    0.0429    0.0273    0.0000
H        -1.8014   -7.5529    0.1337   -0.0005    0.0423   -0.0000
H         0.9926    5.4972    0.1268   -0.0516    0.0277   -0.0001
H         5.4259    3.0971    0.1328    0.0796   -0.0433    0.0001
H         5.3231    5.6035    0.1309    0.0405    0.0257    0.0000
H         3.1482    6.7818    0.1279   -0.0005    0.0391   -0.0000
H         7.8407   -2.8603    0.1376    0.2536    0.0027    0.0002
    57
stable frequency at   3146.907 1/cm IR int. is 1.096 a.m.u.; force const. is 6.393 mDyne/Ang.
Fe        0.6734   -0.3855    0.1306   -0.0000    0.0000   -0.0000
N         3.9138    0.5779    0.1328   -0.0001   -0.0000   -0.0000
N         1.6368   -3.6259    0.1334   -0.0000    0.0001   -0.0000
N        -0.2395   -2.0709    0.1309   -0.0001   -0.0001    0.0000
N        -1.0120    0.5273    0.1286   -0.0001    0.0001   -0.0000
N         1.5863    1.2998    0.1304    0.0001    0.0001   -0.0000
N         2.3588   -1.2984    0.1326    0.0001   -0.0001    0.0000
N        -0.2900    2.8548    0.1277    0.0000   -0.0001    0.0000
N        -2.5670   -1.3489    0.1285    0.0001    0.0000    0.0000
C        -2.6308    2.2050    0.1263    0.0007   -0.0005    0.0000
C        -1.2119    1.9066    0.1276    0.0002    0.0001    0.0000
C         1.0001    2.5643    0.1290   -0.0002   -0.0000   -0.0000
C         2.0252    3.5895    0.1292   -0.0003   -0.0009    0.0000
C        -3.3016    0.9663    0.1265    0.0009   -0.0003    0.0000
C        -2.2764   -0.0588    0.1280    0.0000   -0.0002    0.0000
C        -0.6092   -5.7583    0.1333    0.0232   -0.0117    0.0000
C        -3.1252   -4.3959    0.1301   -0.0214    0.0121   -0.0000
C        -1.8137   -6.4621    0.1328   -0.0002   -0.0169    0.0000
C        -4.6993    0.8970    0.1255   -0.0117   -0.0232    0.0000
C        -3.3370    3.4131    0.1250    0.0121    0.0213   -0.0000
C        -5.4031    2.1016    0.1242   -0.0169    0.0002   -0.0000
C        -3.0557   -5.7893    0.1313   -0.0131   -0.0085   -0.0000
C        -1.6188   -2.2708    0.1299   -0.0001    0.0002   -0.0000
C        -1.9171   -3.6897    0.1307    0.0005    0.0007    0.0000
C         3.2639    2.9186    0.1308   -0.0005   -0.0007   -0.0000
C         2.9656    1.4998    0.1315    0.0001   -0.0002    0.0000
C        -4.7303    3.3435    0.1239   -0.0085    0.0130   -0.0000
C         3.6232   -0.7123    0.1333   -0.0000    0.0002   -0.0000
C         4.6484   -1.7374    0.1346   -0.0009    0.0003   -0.0000
C         2.5587   -2.6777    0.1336   -0.0002   -0.0001   -0.0000
C         3.9776   -2.9761    0.1348   -0.0007    0.0005   -0.0000
C        -0.6784   -4.3606    0.1322    0.0003    0.0009   -0.0000
C         0.3466   -3.3353    0.1323    0.0002    0.0000    0.0000
C         1.9559    4.9872    0.1281   -0.0233    0.0118   -0.0000
C         4.4720    3.6248    0.1315    0.0215   -0.0122    0.0000
C         3.1605    5.6910    0.1287    0.0002    0.0170   -0.0000
C         4.4025    5.0182    0.1304    0.0131    0.0086    0.0000
C         6.0461   -1.6681    0.1356    0.0118    0.0234   -0.0000
C         4.6838   -4.1842    0.1359   -0.0122   -0.0215    0.0000
C         6.7499   -2.8727    0.1368    0.0170   -0.0002    0.0000
C         6.0771   -4.1146    0.1369    0.0086   -0.0132    0.0000
H         6.5562   -0.7047    0.1355   -0.1397   -0.2606    0.0000
H         4.1560   -5.1380    0.1360    0.1337    0.2450   -0.0000
H         6.6624   -5.0353    0.1378   -0.0915    0.1441   -0.0001
H        -5.2094   -0.0664    0.1257    0.1385    0.2583   -0.0001
H        -2.8092    4.3669    0.1248   -0.1325   -0.2428    0.0000
H        -5.3156    4.2642    0.1229    0.0907   -0.1428    0.0002
H        -6.4939    2.0893    0.1234    0.1832    0.0019    0.0001
H         0.3542   -6.2683    0.1345   -0.2587    0.1387   -0.0003
H        -4.0791   -3.8681    0.1290    0.2432   -0.1327    0.0003
H        -3.9763   -6.3745    0.1309    0.1430    0.0908    0.0001
H        -1.8014   -7.5529    0.1337   -0.0019    0.1835   -0.0001
H         0.9926    5.4972    0.1268    0.2594   -0.1390    0.0003
H         5.4259    3.0971    0.1328   -0.2443    0.1333   -0.0003
H         5.3231    5.6035    0.1309   -0.1436   -0.0912   -0.0001
H         3.1482    6.7818    0.1279    0.0020   -0.1840    0.0001
H         7.8407   -2.8603    0.1376   -0.1848   -0.0020   -0.0001
