    57
unstable frequency at    -18.303 1/cm IR int. is 6.100 a.m.u.; force const. is 0.001 mDyne/Ang.
Fe        0.6742   -0.3860   -0.2512   -0.0003    0.0017    0.0082
N         3.9155    0.5774    0.0034   -0.0006    0.0078   -0.0127
N         1.6364   -3.6259    0.0222    0.0080    0.0021   -0.0361
N        -0.2400   -2.0716   -0.0762    0.0038   -0.0012   -0.0037
N        -1.0127    0.5279   -0.0841   -0.0014   -0.0015    0.0176
N         1.5882    1.2996   -0.0761   -0.0029    0.0035    0.0121
N         2.3604   -1.2995   -0.0741    0.0031    0.0049   -0.0151
N        -0.2889    2.8541    0.0151   -0.0056   -0.0001    0.0158
N        -2.5678   -1.3490   -0.0039    0.0029   -0.0055    0.0110
C        -2.6318    2.2074    0.0858   -0.0051   -0.0048    0.0094
C        -1.2138    1.9066   -0.0003   -0.0040   -0.0018    0.0161
C         1.0023    2.5641    0.0125   -0.0049    0.0024    0.0132
C         2.0253    3.5896    0.1094   -0.0059    0.0046    0.0032
C        -3.3042    0.9681    0.0767   -0.0026   -0.0063    0.0073
C        -2.2782   -0.0563   -0.0113   -0.0002   -0.0045    0.0136
C        -0.6084   -5.7574    0.2030    0.0124   -0.0045   -0.0399
C        -3.1245   -4.3989    0.1900    0.0098   -0.0091   -0.0114
C        -1.8131   -6.4652    0.2658    0.0140   -0.0076   -0.0433
C        -4.7020    0.9019    0.1386   -0.0031   -0.0087   -0.0042
C        -3.3382    3.4149    0.1551   -0.0080   -0.0060   -0.0001
C        -5.4086    2.1097    0.2138   -0.0060   -0.0098   -0.0133
C        -3.0555   -5.7944    0.2587    0.0127   -0.0099   -0.0294
C        -1.6195   -2.2729    0.0041    0.0045   -0.0040    0.0033
C        -1.9182   -3.6908    0.1037    0.0080   -0.0056   -0.0071
C         3.2652    2.9200    0.1027   -0.0047    0.0069   -0.0044
C         2.9671    1.5014    0.0066   -0.0027    0.0060    0.0005
C        -4.7364    3.3486    0.2202   -0.0084   -0.0084   -0.0115
C         3.6255   -0.7151   -0.0006    0.0025    0.0070   -0.0223
C         4.6513   -1.7396    0.0908    0.0058    0.0077   -0.0528
C         2.5611   -2.6780    0.0096    0.0064    0.0040   -0.0372
C         3.9791   -2.9786    0.0994    0.0087    0.0058   -0.0657
C        -0.6787   -4.3610    0.1117    0.0095   -0.0034   -0.0214
C         0.3451   -3.3358    0.0162    0.0071   -0.0006   -0.0192
C         1.9538    4.9862    0.1974   -0.0076    0.0050   -0.0047
C         4.4707    3.6292    0.1907   -0.0052    0.0096   -0.0200
C         3.1581    5.6948    0.2620   -0.0083    0.0077   -0.0201
C         4.4009    5.0247    0.2573   -0.0071    0.0100   -0.0275
C         6.0491   -1.6734    0.1498    0.0069    0.0096   -0.0790
C         4.6854   -4.1862    0.1668    0.0130    0.0058   -0.1094
C         6.7557   -2.8811    0.2249    0.0112    0.0096   -0.1204
C         6.0835   -4.1199    0.2324    0.0142    0.0078   -0.1375
H         6.5636   -0.7119    0.1505    0.0045    0.0109   -0.0714
H         4.1595   -5.1415    0.1810    0.0154    0.0042   -0.1256
H         6.6636   -5.0424    0.2843    0.0182    0.0083   -0.1792
H        -5.2165   -0.0595    0.1415   -0.0011   -0.0098   -0.0063
H        -2.8123    4.3701    0.1706   -0.0096   -0.0050    0.0004
H        -5.3164    4.2710    0.2739   -0.0108   -0.0093   -0.0204
H        -6.4984    2.0935    0.2595   -0.0064   -0.0118   -0.0232
H         0.3559   -6.2665    0.2241    0.0135   -0.0029   -0.0527
H        -4.0801   -3.8731    0.2016    0.0089   -0.0109   -0.0019
H        -3.9765   -6.3769    0.3099    0.0141   -0.0126   -0.0342
H        -1.7960   -7.5547    0.3185    0.0164   -0.0084   -0.0585
H         0.9891    5.4946    0.2174   -0.0084    0.0033   -0.0001
H         5.4267    3.1042    0.2032   -0.0042    0.0113   -0.0270
H         5.3215    5.6077    0.3106   -0.0077    0.0121   -0.0409
H         3.1404    6.7843    0.3129   -0.0098    0.0080   -0.0278
H         7.8456   -2.8649    0.2681    0.0123    0.0107   -0.1449
    57
unstable frequency at     -0.354 1/cm IR int. is 9.954 a.m.u.; force const. is 0.000 mDyne/Ang.
Fe        0.6742   -0.3860   -0.2512   -0.0228   -0.0347   -0.0054
N         3.9155    0.5774    0.0034   -0.0223   -0.0366   -0.0047
N         1.6364   -3.6259    0.0222   -0.0248   -0.0352   -0.0053
N        -0.2400   -2.0716   -0.0762   -0.0239   -0.0341   -0.0058
N        -1.0127    0.5279   -0.0841   -0.0223   -0.0336   -0.0057
N         1.5882    1.2996   -0.0761   -0.0218   -0.0352   -0.0050
N         2.3604   -1.2995   -0.0741   -0.0234   -0.0357   -0.0051
N        -0.2889    2.8541    0.0151   -0.0209   -0.0341   -0.0053
N        -2.5678   -1.3490   -0.0039   -0.0234   -0.0327   -0.0062
C        -2.6318    2.2074    0.0858   -0.0213   -0.0327   -0.0057
C        -1.2138    1.9066   -0.0003   -0.0215   -0.0335   -0.0055
C         1.0023    2.5641    0.0125   -0.0211   -0.0349   -0.0051
C         2.0253    3.5896    0.1094   -0.0205   -0.0355   -0.0050
C        -3.3042    0.9681    0.0767   -0.0220   -0.0322   -0.0061
C        -2.2782   -0.0563   -0.0113   -0.0227   -0.0328   -0.0060
C        -0.6084   -5.7574    0.2030   -0.0261   -0.0339   -0.0056
C        -3.1245   -4.3989    0.1900   -0.0253   -0.0324   -0.0061
C        -1.8131   -6.4652    0.2658   -0.0266   -0.0331   -0.0057
C        -4.7020    0.9019    0.1386   -0.0221   -0.0314   -0.0064
C        -3.3382    3.4149    0.1551   -0.0206   -0.0323   -0.0055
C        -5.4086    2.1097    0.2138   -0.0214   -0.0310   -0.0062
C        -3.0555   -5.7944    0.2587   -0.0261   -0.0324   -0.0059
C        -1.6195   -2.2729    0.0041   -0.0240   -0.0333   -0.0060
C        -1.9182   -3.6908    0.1037   -0.0249   -0.0331   -0.0060
C         3.2652    2.9200    0.1027   -0.0209   -0.0362   -0.0049
C         2.9671    1.5014    0.0066   -0.0217   -0.0360   -0.0049
C        -4.7364    3.3486    0.2202   -0.0206   -0.0314   -0.0057
C         3.6255   -0.7151   -0.0006   -0.0231   -0.0364   -0.0048
C         4.6513   -1.7396    0.0908   -0.0237   -0.0371   -0.0045
C         2.5611   -2.6780    0.0096   -0.0243   -0.0358   -0.0051
C         3.9791   -2.9786    0.0994   -0.0245   -0.0366   -0.0047
C        -0.6787   -4.3610    0.1117   -0.0253   -0.0338   -0.0057
C         0.3451   -3.3358    0.0162   -0.0247   -0.0345   -0.0056
C         1.9538    4.9862    0.1974   -0.0197   -0.0354   -0.0050
C         4.4707    3.6292    0.1907   -0.0205   -0.0369   -0.0047
C         3.1581    5.6948    0.2620   -0.0192   -0.0361   -0.0048
C         4.4009    5.0247    0.2573   -0.0197   -0.0369   -0.0046
C         6.0491   -1.6734    0.1498   -0.0237   -0.0379   -0.0041
C         4.6854   -4.1862    0.1668   -0.0252   -0.0371   -0.0045
C         6.7557   -2.8811    0.2249   -0.0244   -0.0383   -0.0039
C         6.0835   -4.1199    0.2324   -0.0252   -0.0379   -0.0041
H         6.5636   -0.7119    0.1505   -0.0231   -0.0382   -0.0039
H         4.1595   -5.1415    0.1810   -0.0257   -0.0368   -0.0047
H         6.6636   -5.0424    0.2843   -0.0258   -0.0383   -0.0038
H        -5.2165   -0.0595    0.1415   -0.0227   -0.0311   -0.0067
H        -2.8123    4.3701    0.1706   -0.0201   -0.0325   -0.0052
H        -5.3164    4.2710    0.2739   -0.0201   -0.0311   -0.0055
H        -6.4984    2.0935    0.2595   -0.0214   -0.0303   -0.0063
H         0.3559   -6.2665    0.2241   -0.0265   -0.0344   -0.0053
H        -4.0801   -3.8731    0.2016   -0.0250   -0.0319   -0.0063
H        -3.9765   -6.3769    0.3099   -0.0265   -0.0318   -0.0058
H        -1.7960   -7.5547    0.3185   -0.0273   -0.0331   -0.0055
H         0.9891    5.4946    0.2174   -0.0193   -0.0348   -0.0051
H         5.4267    3.1042    0.2032   -0.0208   -0.0374   -0.0045
H         5.3215    5.6077    0.3106   -0.0193   -0.0375   -0.0044
H         3.1404    6.7843    0.3129   -0.0186   -0.0361   -0.0047
H         7.8456   -2.8649    0.2681   -0.0244   -0.0390   -0.0036
    57
unstable frequency at     -0.200 1/cm IR int. is 9.971 a.m.u.; force const. is 0.000 mDyne/Ang.
Fe        0.6742   -0.3860   -0.2512    0.0348   -0.0234    0.0022
N         3.9155    0.5774    0.0034    0.0345   -0.0226    0.0025
N         1.6364   -3.6259    0.0222    0.0355   -0.0231    0.0024
N        -0.2400   -2.0716   -0.0762    0.0352   -0.0236    0.0022
N        -1.0127    0.5279   -0.0841    0.0345   -0.0238    0.0020
N         1.5882    1.2996   -0.0761    0.0344   -0.0231    0.0022
N         2.3604   -1.2995   -0.0741    0.0350   -0.0230    0.0025
N        -0.2889    2.8541    0.0151    0.0340   -0.0236    0.0020
N        -2.5678   -1.3490   -0.0039    0.0350   -0.0241    0.0020
C        -2.6318    2.2074    0.0858    0.0342   -0.0241    0.0019
C        -1.2138    1.9066   -0.0003    0.0342   -0.0238    0.0019
C         1.0023    2.5641    0.0125    0.0341   -0.0233    0.0021
C         2.0253    3.5896    0.1094    0.0338   -0.0230    0.0022
C        -3.3042    0.9681    0.0767    0.0344   -0.0243    0.0019
C        -2.2782   -0.0563   -0.0113    0.0347   -0.0241    0.0020
C        -0.6084   -5.7574    0.2030    0.0360   -0.0237    0.0022
C        -3.1245   -4.3989    0.1900    0.0357   -0.0242    0.0019
C        -1.8131   -6.4652    0.2658    0.0362   -0.0239    0.0021
C        -4.7020    0.9019    0.1386    0.0345   -0.0246    0.0018
C        -3.3382    3.4149    0.1551    0.0339   -0.0243    0.0018
C        -5.4086    2.1097    0.2138    0.0342   -0.0248    0.0018
C        -3.0555   -5.7944    0.2587    0.0360   -0.0242    0.0019
C        -1.6195   -2.2729    0.0041    0.0352   -0.0239    0.0021
C        -1.9182   -3.6908    0.1037    0.0355   -0.0240    0.0021
C         3.2652    2.9200    0.1027    0.0340   -0.0228    0.0024
C         2.9671    1.5014    0.0066    0.0343   -0.0228    0.0024
C        -4.7364    3.3486    0.2202    0.0339   -0.0246    0.0017
C         3.6255   -0.7151   -0.0006    0.0348   -0.0227    0.0025
C         4.6513   -1.7396    0.0908    0.0351   -0.0224    0.0026
C         2.5611   -2.6780    0.0096    0.0353   -0.0229    0.0025
C         3.9791   -2.9786    0.0994    0.0353   -0.0226    0.0025
C        -0.6787   -4.3610    0.1117    0.0357   -0.0237    0.0022
C         0.3451   -3.3358    0.0162    0.0355   -0.0234    0.0023
C         1.9538    4.9862    0.1974    0.0335   -0.0231    0.0021
C         4.4707    3.6292    0.1907    0.0338   -0.0225    0.0025
C         3.1581    5.6948    0.2620    0.0333   -0.0228    0.0022
C         4.4009    5.0247    0.2573    0.0335   -0.0225    0.0024
C         6.0491   -1.6734    0.1498    0.0350   -0.0221    0.0027
C         4.6854   -4.1862    0.1668    0.0356   -0.0224    0.0026
C         6.7557   -2.8811    0.2249    0.0353   -0.0219    0.0027
C         6.0835   -4.1199    0.2324    0.0356   -0.0221    0.0026
H         6.5636   -0.7119    0.1505    0.0348   -0.0220    0.0027
H         4.1595   -5.1415    0.1810    0.0358   -0.0225    0.0025
H         6.6636   -5.0424    0.2843    0.0358   -0.0220    0.0026
H        -5.2165   -0.0595    0.1415    0.0347   -0.0247    0.0019
H        -2.8123    4.3701    0.1706    0.0337   -0.0242    0.0017
H        -5.3164    4.2710    0.2739    0.0337   -0.0248    0.0016
H        -6.4984    2.0935    0.2595    0.0342   -0.0250    0.0017
H         0.3559   -6.2665    0.2241    0.0361   -0.0234    0.0023
H        -4.0801   -3.8731    0.2016    0.0356   -0.0244    0.0018
H        -3.9765   -6.3769    0.3099    0.0361   -0.0244    0.0018
H        -1.7960   -7.5547    0.3185    0.0364   -0.0239    0.0021
H         0.9891    5.4946    0.2174    0.0334   -0.0233    0.0019
H         5.4267    3.1042    0.2032    0.0339   -0.0223    0.0026
H         5.3215    5.6077    0.3106    0.0333   -0.0223    0.0024
H         3.1404    6.7843    0.3129    0.0330   -0.0228    0.0021
H         7.8456   -2.8649    0.2681    0.0353   -0.0217    0.0027
    57
stable frequency at      1.471 1/cm IR int. is 7.559 a.m.u.; force const. is 0.000 mDyne/Ang.
Fe        0.6742   -0.3860   -0.2512    0.0044    0.0029   -0.0195
N         3.9155    0.5774    0.0034    0.0125   -0.0240   -0.0194
N         1.6364   -3.6259    0.0222   -0.0227   -0.0050   -0.0183
N        -0.2400   -2.0716   -0.0762   -0.0099    0.0106   -0.0204
N        -1.0127    0.5279   -0.0841    0.0120    0.0172   -0.0202
N         1.5882    1.2996   -0.0761    0.0186   -0.0047   -0.0190
N         2.3604   -1.2995   -0.0741   -0.0032   -0.0112   -0.0189
N        -0.2889    2.8541    0.0151    0.0314    0.0110   -0.0190
N        -2.5678   -1.3490   -0.0039   -0.0038    0.0300   -0.0220
C        -2.6318    2.2074    0.0858    0.0258    0.0305   -0.0201
C        -1.2138    1.9066   -0.0003    0.0234    0.0188   -0.0196
C         1.0023    2.5641    0.0125    0.0290    0.0002   -0.0190
C         2.0253    3.5896    0.1094    0.0374   -0.0083   -0.0192
C        -3.3042    0.9681    0.0767    0.0155    0.0361   -0.0218
C        -2.2782   -0.0563   -0.0113    0.0070    0.0276   -0.0215
C        -0.6084   -5.7574    0.2030   -0.0402    0.0137   -0.0187
C        -3.1245   -4.3989    0.1900   -0.0291    0.0343   -0.0209
C        -1.8131   -6.4652    0.2658   -0.0460    0.0235   -0.0186
C        -4.7020    0.9019    0.1386    0.0149    0.0476   -0.0229
C        -3.3382    3.4149    0.1551    0.0356    0.0362   -0.0191
C        -5.4086    2.1097    0.2138    0.0247    0.0532   -0.0217
C        -3.0555   -5.7944    0.2587   -0.0404    0.0337   -0.0196
C        -1.6195   -2.2729    0.0041   -0.0115    0.0220   -0.0213
C        -1.9182   -3.6908    0.1037   -0.0233    0.0245   -0.0209
C         3.2652    2.9200    0.1027    0.0320   -0.0185   -0.0195
C         2.9671    1.5014    0.0066    0.0202   -0.0160   -0.0194
C        -4.7364    3.3486    0.2202    0.0351    0.0476   -0.0196
C         3.6255   -0.7151   -0.0006    0.0017   -0.0216   -0.0190
C         4.6513   -1.7396    0.0908   -0.0069   -0.0301   -0.0184
C         2.5611   -2.6780    0.0096   -0.0147   -0.0128   -0.0182
C         3.9791   -2.9786    0.0994   -0.0172   -0.0246   -0.0177
C        -0.6787   -4.3610    0.1117   -0.0288    0.0143   -0.0197
C         0.3451   -3.3358    0.0162   -0.0203    0.0057   -0.0194
C         1.9538    4.9862    0.1974    0.0488   -0.0077   -0.0187
C         4.4707    3.6292    0.1907    0.0376   -0.0282   -0.0190
C         3.1581    5.6948    0.2620    0.0545   -0.0175   -0.0182
C         4.4009    5.0247    0.2573    0.0489   -0.0277   -0.0183
C         6.0491   -1.6734    0.1498   -0.0063   -0.0417   -0.0182
C         4.6854   -4.1862    0.1668   -0.0272   -0.0303   -0.0162
C         6.7557   -2.8811    0.2249   -0.0163   -0.0474   -0.0167
C         6.0835   -4.1199    0.2324   -0.0266   -0.0417   -0.0155
H         6.5636   -0.7119    0.1505    0.0022   -0.0462   -0.0190
H         4.1595   -5.1415    0.1810   -0.0342   -0.0263   -0.0154
H         6.6636   -5.0424    0.2843   -0.0348   -0.0467   -0.0127
H        -5.2165   -0.0595    0.1415    0.0064    0.0521   -0.0245
H        -2.8123    4.3701    0.1706    0.0426    0.0323   -0.0176
H        -5.3164    4.2710    0.2739    0.0431    0.0525   -0.0172
H        -6.4984    2.0935    0.2595    0.0246    0.0627   -0.0221
H         0.3559   -6.2665    0.2241   -0.0445    0.0055   -0.0172
H        -4.0801   -3.8731    0.2016   -0.0252    0.0411   -0.0216
H        -3.9765   -6.3769    0.3099   -0.0454    0.0418   -0.0178
H        -1.7960   -7.5547    0.3185   -0.0555    0.0235   -0.0172
H         0.9891    5.4946    0.2174    0.0530    0.0005   -0.0179
H         5.4267    3.1042    0.2032    0.0338   -0.0351   -0.0190
H         5.3215    5.6077    0.3106    0.0539   -0.0356   -0.0163
H         3.1404    6.7843    0.3129    0.0639   -0.0173   -0.0173
H         7.8456   -2.8649    0.2681   -0.0161   -0.0569   -0.0161
    57
stable frequency at      5.882 1/cm IR int. is 8.721 a.m.u.; force const. is 0.000 mDyne/Ang.
Fe        0.6742   -0.3860   -0.2512    0.0045    0.0013   -0.0349
N         3.9155    0.5774    0.0034   -0.0009    0.0143   -0.0125
N         1.6364   -3.6259    0.0222    0.0153    0.0057   -0.0160
N        -0.2400   -2.0716   -0.0762    0.0101   -0.0017   -0.0356
N        -1.0127    0.5279   -0.0841    0.0001   -0.0050   -0.0484
N         1.5882    1.2996   -0.0761   -0.0031    0.0052   -0.0330
N         2.3604   -1.2995   -0.0741    0.0069    0.0082   -0.0182
N        -0.2889    2.8541    0.0151   -0.0096   -0.0020   -0.0479
N        -2.5678   -1.3490   -0.0039    0.0068   -0.0107   -0.0527
C        -2.6318    2.2074    0.0858   -0.0072   -0.0110   -0.0573
C        -1.2138    1.9066   -0.0003   -0.0057   -0.0056   -0.0511
C         1.0023    2.5641    0.0125   -0.0084    0.0031   -0.0397
C         2.0253    3.5896    0.1094   -0.0131    0.0072   -0.0344
C        -3.3042    0.9681    0.0767   -0.0024   -0.0136   -0.0586
C        -2.2782   -0.0563   -0.0113    0.0019   -0.0097   -0.0534
C        -0.6084   -5.7574    0.2030    0.0224   -0.0023   -0.0258
C        -3.1245   -4.3989    0.1900    0.0172   -0.0120   -0.0477
C        -1.8131   -6.4652    0.2658    0.0246   -0.0066   -0.0313
C        -4.7020    0.9019    0.1386   -0.0023   -0.0190   -0.0629
C        -3.3382    3.4149    0.1551   -0.0120   -0.0137   -0.0603
C        -5.4086    2.1097    0.2138   -0.0071   -0.0217   -0.0656
C        -3.0555   -5.7944    0.2587    0.0221   -0.0114   -0.0422
C        -1.6195   -2.2729    0.0041    0.0103   -0.0069   -0.0447
C        -1.9182   -3.6908    0.1037    0.0151   -0.0077   -0.0423
C         3.2652    2.9200    0.1027   -0.0105    0.0119   -0.0241
C         2.9671    1.5014    0.0066   -0.0044    0.0106   -0.0230
C        -4.7364    3.3486    0.2202   -0.0120   -0.0190   -0.0643
C         3.6255   -0.7151   -0.0006    0.0041    0.0132   -0.0100
C         4.6513   -1.7396    0.0908    0.0072    0.0175    0.0032
C         2.5611   -2.6780    0.0096    0.0116    0.0093   -0.0113
C         3.9791   -2.9786    0.0994    0.0119    0.0150    0.0027
C        -0.6787   -4.3610    0.1117    0.0176   -0.0029   -0.0315
C         0.3451   -3.3358    0.0162    0.0143    0.0008   -0.0273
C         1.9538    4.9862    0.1974   -0.0189    0.0071   -0.0372
C         4.4707    3.6292    0.1907   -0.0137    0.0165   -0.0166
C         3.1581    5.6948    0.2620   -0.0220    0.0117   -0.0299
C         4.4009    5.0247    0.2573   -0.0194    0.0164   -0.0197
C         6.0491   -1.6734    0.1498    0.0064    0.0229    0.0162
C         4.6854   -4.1862    0.1668    0.0156    0.0179    0.0152
C         6.7557   -2.8811    0.2249    0.0102    0.0259    0.0278
C         6.0835   -4.1199    0.2324    0.0148    0.0233    0.0275
H         6.5636   -0.7119    0.1505    0.0026    0.0250    0.0184
H         4.1595   -5.1415    0.1810    0.0186    0.0163    0.0165
H         6.6636   -5.0424    0.2843    0.0178    0.0256    0.0378
H        -5.2165   -0.0595    0.1415    0.0017   -0.0211   -0.0648
H        -2.8123    4.3701    0.1706   -0.0154   -0.0118   -0.0598
H        -5.3164    4.2710    0.2739   -0.0160   -0.0215   -0.0671
H        -6.4984    2.0935    0.2595   -0.0072   -0.0260   -0.0691
H         0.3559   -6.2665    0.2241    0.0242    0.0017   -0.0175
H        -4.0801   -3.8731    0.2016    0.0153   -0.0152   -0.0563
H        -3.9765   -6.3769    0.3099    0.0241   -0.0150   -0.0469
H        -1.7960   -7.5547    0.3185    0.0287   -0.0063   -0.0272
H         0.9891    5.4946    0.2174   -0.0210    0.0034   -0.0453
H         5.4267    3.1042    0.2032   -0.0121    0.0197   -0.0082
H         5.3215    5.6077    0.3106   -0.0220    0.0201   -0.0147
H         3.1404    6.7843    0.3129   -0.0268    0.0117   -0.0320
H         7.8456   -2.8649    0.2681    0.0096    0.0306    0.0386
    57
stable frequency at     10.001 1/cm IR int. is 7.206 a.m.u.; force const. is 0.000 mDyne/Ang.
Fe        0.6742   -0.3860   -0.2512   -0.0017   -0.0031   -0.0074
N         3.9155    0.5774    0.0034   -0.0004    0.0012   -0.0457
N         1.6364   -3.6259    0.0222    0.0019    0.0001    0.0240
N        -0.2400   -2.0716   -0.0762    0.0004   -0.0020    0.0217
N        -1.0127    0.5279   -0.0841   -0.0012   -0.0026   -0.0033
N         1.5882    1.2996   -0.0761   -0.0014   -0.0009   -0.0364
N         2.3604   -1.2995   -0.0741   -0.0000   -0.0005   -0.0102
N        -0.2889    2.8541    0.0151   -0.0018   -0.0011   -0.0361
N        -2.5678   -1.3490   -0.0039    0.0006   -0.0026    0.0315
C        -2.6318    2.2074    0.0858   -0.0008   -0.0017   -0.0078
C        -1.2138    1.9066   -0.0003   -0.0014   -0.0018   -0.0175
C         1.0023    2.5641    0.0125   -0.0017   -0.0004   -0.0441
C         2.0253    3.5896    0.1094   -0.0016    0.0011   -0.0615
C        -3.3042    0.9681    0.0767   -0.0000   -0.0022    0.0130
C        -2.2782   -0.0563   -0.0113   -0.0002   -0.0026    0.0151
C        -0.6084   -5.7574    0.2030    0.0040    0.0004    0.0591
C        -3.1245   -4.3989    0.1900    0.0034   -0.0009    0.0637
C        -1.8131   -6.4652    0.2658    0.0047    0.0003    0.0725
C        -4.7020    0.9019    0.1386    0.0006   -0.0024    0.0272
C        -3.3382    3.4149    0.1551   -0.0009   -0.0013   -0.0154
C        -5.4086    2.1097    0.2138    0.0005   -0.0020    0.0196
C        -3.0555   -5.7944    0.2587    0.0043   -0.0003    0.0749
C        -1.6195   -2.2729    0.0041    0.0011   -0.0020    0.0335
C        -1.9182   -3.6908    0.1037    0.0025   -0.0011    0.0491
C         3.2652    2.9200    0.1027   -0.0012    0.0019   -0.0643
C         2.9671    1.5014    0.0066   -0.0009    0.0007   -0.0486
C        -4.7364    3.3486    0.2202   -0.0003   -0.0015   -0.0018
C         3.6255   -0.7151   -0.0006    0.0003    0.0010   -0.0279
C         4.6513   -1.7396    0.0908    0.0015    0.0026   -0.0224
C         2.5611   -2.6780    0.0096    0.0012    0.0006    0.0061
C         3.9791   -2.9786    0.0994    0.0021    0.0024   -0.0004
C        -0.6787   -4.3610    0.1117    0.0029   -0.0005    0.0470
C         0.3451   -3.3358    0.0162    0.0017   -0.0008    0.0300
C         1.9538    4.9862    0.1974   -0.0020    0.0018   -0.0729
C         4.4707    3.6292    0.1907   -0.0011    0.0035   -0.0787
C         3.1581    5.6948    0.2620   -0.0021    0.0032   -0.0862
C         4.4009    5.0247    0.2573   -0.0017    0.0040   -0.0891
C         6.0491   -1.6734    0.1498    0.0019    0.0040   -0.0336
C         4.6854   -4.1862    0.1668    0.0031    0.0037    0.0119
C         6.7557   -2.8811    0.2249    0.0030    0.0054   -0.0217
C         6.0835   -4.1199    0.2324    0.0035    0.0052    0.0014
H         6.5636   -0.7119    0.1505    0.0015    0.0043   -0.0517
H         4.1595   -5.1415    0.1810    0.0035    0.0037    0.0297
H         6.6636   -5.0424    0.2843    0.0043    0.0062    0.0111
H        -5.2165   -0.0595    0.1415    0.0013   -0.0028    0.0445
H        -2.8123    4.3701    0.1706   -0.0014   -0.0008   -0.0317
H        -5.3164    4.2710    0.2739   -0.0004   -0.0012   -0.0074
H        -6.4984    2.0935    0.2595    0.0010   -0.0022    0.0305
H         0.3559   -6.2665    0.2241    0.0043    0.0010    0.0587
H        -4.0801   -3.8731    0.2016    0.0033   -0.0011    0.0674
H        -3.9765   -6.3769    0.3099    0.0045   -0.0001    0.0861
H        -1.7960   -7.5547    0.3185    0.0058    0.0009    0.0818
H         0.9891    5.4946    0.2174   -0.0024    0.0013   -0.0721
H         5.4267    3.1042    0.2032   -0.0006    0.0043   -0.0828
H         5.3215    5.6077    0.3106   -0.0022    0.0053   -0.1003
H         3.1404    6.7843    0.3129   -0.0024    0.0037   -0.0950
H         7.8456   -2.8649    0.2681    0.0033    0.0065   -0.0300
    57
stable frequency at     20.980 1/cm IR int. is 6.631 a.m.u.; force const. is 0.002 mDyne/Ang.
Fe        0.6742   -0.3860   -0.2512   -0.0008    0.0015   -0.0177
N         3.9155    0.5774    0.0034   -0.0004    0.0027   -0.0259
N         1.6364   -3.6259    0.0222    0.0019    0.0011   -0.0281
N        -0.2400   -2.0716   -0.0762    0.0009    0.0001   -0.0237
N        -1.0127    0.5279   -0.0841   -0.0004   -0.0006    0.0043
N         1.5882    1.2996   -0.0761   -0.0009    0.0015   -0.0198
N         2.3604   -1.2995   -0.0741    0.0001    0.0019   -0.0217
N        -0.2889    2.8541    0.0151   -0.0012   -0.0005    0.0084
N        -2.5678   -1.3490   -0.0039    0.0010   -0.0018   -0.0000
C        -2.6318    2.2074    0.0858    0.0012   -0.0032    0.0498
C        -1.2138    1.9066   -0.0003   -0.0002   -0.0015    0.0202
C         1.0023    2.5641    0.0125   -0.0010    0.0010   -0.0130
C         2.0253    3.5896    0.1094   -0.0009    0.0019   -0.0253
C        -3.3042    0.9681    0.0767    0.0018   -0.0034    0.0480
C        -2.2782   -0.0563   -0.0113    0.0008   -0.0017    0.0166
C        -0.6084   -5.7574    0.2030    0.0038   -0.0032   -0.0627
C        -3.1245   -4.3989    0.1900    0.0027   -0.0049   -0.0462
C        -1.8131   -6.4652    0.2658    0.0044   -0.0047   -0.0688
C        -4.7020    0.9019    0.1386    0.0031   -0.0048    0.0745
C        -3.3382    3.4149    0.1551    0.0020   -0.0044    0.0777
C        -5.4086    2.1097    0.2138    0.0038   -0.0060    0.1010
C        -3.0555   -5.7944    0.2587    0.0039   -0.0055   -0.0607
C        -1.6195   -2.2729    0.0041    0.0012   -0.0016   -0.0219
C        -1.9182   -3.6908    0.1037    0.0021   -0.0031   -0.0400
C         3.2652    2.9200    0.1027   -0.0005    0.0029   -0.0359
C         2.9671    1.5014    0.0066   -0.0005    0.0025   -0.0297
C        -4.7364    3.3486    0.2202    0.0032   -0.0057    0.1024
C         3.6255   -0.7151   -0.0006   -0.0005    0.0027   -0.0171
C         4.6513   -1.7396    0.0908   -0.0008    0.0039   -0.0008
C         2.5611   -2.6780    0.0096    0.0007    0.0023   -0.0167
C         3.9791   -2.9786    0.0994   -0.0001    0.0037    0.0008
C        -0.6787   -4.3610    0.1117    0.0026   -0.0023   -0.0482
C         0.3451   -3.3358    0.0162    0.0017   -0.0004   -0.0353
C         1.9538    4.9862    0.1974   -0.0013    0.0019   -0.0249
C         4.4707    3.6292    0.1907   -0.0002    0.0038   -0.0466
C         3.1581    5.6948    0.2620   -0.0013    0.0028   -0.0357
C         4.4009    5.0247    0.2573   -0.0008    0.0038   -0.0464
C         6.0491   -1.6734    0.1498   -0.0016    0.0051    0.0165
C         4.6854   -4.1862    0.1668   -0.0005    0.0046    0.0214
C         6.7557   -2.8811    0.2249   -0.0019    0.0061    0.0368
C         6.0835   -4.1199    0.2324   -0.0014    0.0058    0.0400
H         6.5636   -0.7119    0.1505   -0.0021    0.0054    0.0161
H         4.1595   -5.1415    0.1810   -0.0003    0.0046    0.0248
H         6.6636   -5.0424    0.2843   -0.0018    0.0065    0.0594
H        -5.2165   -0.0595    0.1415    0.0036   -0.0051    0.0762
H        -2.8123    4.3701    0.1706    0.0019   -0.0044    0.0814
H        -5.3164    4.2710    0.2739    0.0040   -0.0061    0.1245
H        -6.4984    2.0935    0.2595    0.0049   -0.0075    0.1227
H         0.3559   -6.2665    0.2241    0.0043   -0.0026   -0.0696
H        -4.0801   -3.8731    0.2016    0.0024   -0.0056   -0.0403
H        -3.9765   -6.3769    0.3099    0.0047   -0.0069   -0.0659
H        -1.7960   -7.5547    0.3185    0.0052   -0.0053   -0.0802
H         0.9891    5.4946    0.2174   -0.0016    0.0011   -0.0165
H         5.4267    3.1042    0.2032    0.0003    0.0045   -0.0553
H         5.3215    5.6077    0.3106   -0.0011    0.0046   -0.0547
H         3.1404    6.7843    0.3129   -0.0016    0.0028   -0.0356
H         7.8456   -2.8649    0.2681   -0.0026    0.0074    0.0524
    57
stable frequency at     37.945 1/cm IR int. is 6.941 a.m.u.; force const. is 0.006 mDyne/Ang.
Fe        0.6742   -0.3860   -0.2512    0.0010   -0.0012    0.0440
N         3.9155    0.5774    0.0034   -0.0009   -0.0030    0.0725
N         1.6364   -3.6259    0.0222   -0.0028   -0.0033    0.0117
N        -0.2400   -2.0716   -0.0762   -0.0013   -0.0005    0.0308
N        -1.0127    0.5279   -0.0841    0.0011    0.0010    0.0256
N         1.5882    1.2996   -0.0761    0.0011   -0.0008    0.0341
N         2.3604   -1.2995   -0.0741   -0.0011   -0.0019    0.0546
N        -0.2889    2.8541    0.0151    0.0018    0.0028   -0.0185
N        -2.5678   -1.3490   -0.0039   -0.0003    0.0022    0.0326
C        -2.6318    2.2074    0.0858    0.0013    0.0041   -0.0086
C        -1.2138    1.9066   -0.0003    0.0015    0.0024    0.0005
C         1.0023    2.5641    0.0125    0.0018    0.0020   -0.0048
C         2.0253    3.5896    0.1094    0.0025    0.0036   -0.0281
C        -3.3042    0.9681    0.0767    0.0011    0.0039    0.0126
C        -2.2782   -0.0563   -0.0113    0.0008    0.0021    0.0293
C        -0.6084   -5.7574    0.2030   -0.0065   -0.0049   -0.0402
C        -3.1245   -4.3989    0.1900   -0.0047   -0.0013   -0.0169
C        -1.8131   -6.4652    0.2658   -0.0076   -0.0048   -0.0596
C        -4.7020    0.9019    0.1386    0.0008    0.0056    0.0079
C        -3.3382    3.4149    0.1551    0.0013    0.0057   -0.0366
C        -5.4086    2.1097    0.2138    0.0008    0.0072   -0.0180
C        -3.0555   -5.7944    0.2587   -0.0067   -0.0029   -0.0478
C        -1.6195   -2.2729    0.0041   -0.0017    0.0006    0.0262
C        -1.9182   -3.6908    0.1037   -0.0036   -0.0008    0.0028
C         3.2652    2.9200    0.1027    0.0015    0.0012    0.0072
C         2.9671    1.5014    0.0066    0.0005   -0.0014    0.0452
C        -4.7364    3.3486    0.2202    0.0010    0.0072   -0.0407
C         3.6255   -0.7151   -0.0006   -0.0017   -0.0029    0.0719
C         4.6513   -1.7396    0.0908   -0.0026   -0.0046    0.0628
C         2.5611   -2.6780    0.0096   -0.0021   -0.0034    0.0321
C         3.9791   -2.9786    0.0994   -0.0023   -0.0052    0.0294
C        -0.6787   -4.3610    0.1117   -0.0044   -0.0027   -0.0084
C         0.3451   -3.3358    0.0162   -0.0027   -0.0023    0.0128
C         1.9538    4.9862    0.1974    0.0040    0.0071   -0.0815
C         4.4707    3.6292    0.1907    0.0018    0.0026   -0.0081
C         3.1581    5.6948    0.2620    0.0046    0.0076   -0.0974
C         4.4009    5.0247    0.2573    0.0034    0.0052   -0.0603
C         6.0491   -1.6734    0.1498   -0.0025   -0.0062    0.0638
C         4.6854   -4.1862    0.1668   -0.0018   -0.0072   -0.0133
C         6.7557   -2.8811    0.2249   -0.0020   -0.0084    0.0234
C         6.0835   -4.1199    0.2324   -0.0014   -0.0089   -0.0190
H         6.5636   -0.7119    0.1505   -0.0026   -0.0061    0.0928
H         4.1595   -5.1415    0.1810   -0.0013   -0.0080   -0.0457
H         6.6636   -5.0424    0.2843   -0.0006   -0.0107   -0.0616
H        -5.2165   -0.0595    0.1415    0.0004    0.0058    0.0240
H        -2.8123    4.3701    0.1706    0.0015    0.0059   -0.0556
H        -5.3164    4.2710    0.2739    0.0009    0.0083   -0.0623
H        -6.4984    2.0935    0.2595    0.0006    0.0086   -0.0220
H         0.3559   -6.2665    0.2241   -0.0072   -0.0067   -0.0507
H        -4.0801   -3.8731    0.2016   -0.0041   -0.0004   -0.0096
H        -3.9765   -6.3769    0.3099   -0.0074   -0.0030   -0.0642
H        -1.7960   -7.5547    0.3185   -0.0095   -0.0062   -0.0854
H         0.9891    5.4946    0.2174    0.0045    0.0093   -0.1123
H         5.4267    3.1042    0.2032    0.0009    0.0016    0.0184
H         5.3215    5.6077    0.3106    0.0036    0.0058   -0.0743
H         3.1404    6.7843    0.3129    0.0062    0.0098   -0.1406
H         7.8456   -2.8649    0.2681   -0.0018   -0.0096    0.0203
    57
stable frequency at     46.670 1/cm IR int. is 5.712 a.m.u.; force const. is 0.007 mDyne/Ang.
Fe        0.6742   -0.3860   -0.2512   -0.0006    0.0004   -0.0241
N         3.9155    0.5774    0.0034   -0.0028   -0.0006    0.0334
N         1.6364   -3.6259    0.0222    0.0014   -0.0032   -0.0772
N        -0.2400   -2.0716   -0.0762    0.0005   -0.0005   -0.0177
N        -1.0127    0.5279   -0.0841    0.0000    0.0009   -0.0139
N         1.5882    1.2996   -0.0761   -0.0006    0.0008   -0.0188
N         2.3604   -1.2995   -0.0741   -0.0001   -0.0005   -0.0286
N        -0.2889    2.8541    0.0151   -0.0008    0.0033   -0.0626
N        -2.5678   -1.3490   -0.0039    0.0032    0.0010    0.0539
C        -2.6318    2.2074    0.0858    0.0007    0.0030   -0.0273
C        -1.2138    1.9066   -0.0003   -0.0005    0.0025   -0.0429
C         1.0023    2.5641    0.0125   -0.0010    0.0022   -0.0406
C         2.0253    3.5896    0.1094   -0.0024    0.0015   -0.0189
C        -3.3042    0.9681    0.0767    0.0028    0.0016    0.0259
C        -2.2782   -0.0563   -0.0113    0.0022    0.0009    0.0267
C        -0.6084   -5.7574    0.2030    0.0046   -0.0032   -0.0447
C        -3.1245   -4.3989    0.1900    0.0067    0.0018    0.0761
C        -1.8131   -6.4652    0.2658    0.0060   -0.0016   -0.0009
C        -4.7020    0.9019    0.1386    0.0046    0.0009    0.0652
C        -3.3382    3.4149    0.1551    0.0004    0.0041   -0.0485
C        -5.4086    2.1097    0.2138    0.0044    0.0019    0.0461
C        -3.0555   -5.7944    0.2587    0.0070    0.0010    0.0606
C        -1.6195   -2.2729    0.0041    0.0028    0.0006    0.0272
C        -1.9182   -3.6908    0.1037    0.0044    0.0003    0.0298
C         3.2652    2.9200    0.1027   -0.0034   -0.0006    0.0251
C         2.9671    1.5014    0.0066   -0.0024   -0.0003    0.0166
C        -4.7364    3.3486    0.2202    0.0021    0.0035   -0.0126
C         3.6255   -0.7151   -0.0006   -0.0019   -0.0006    0.0063
C         4.6513   -1.7396    0.0908   -0.0024   -0.0011    0.0050
C         2.5611   -2.6780    0.0096    0.0007   -0.0021   -0.0577
C         3.9791   -2.9786    0.0994   -0.0004   -0.0025   -0.0426
C        -0.6787   -4.3610    0.1117    0.0033   -0.0021   -0.0275
C         0.3451   -3.3358    0.0162    0.0014   -0.0023   -0.0494
C         1.9538    4.9862    0.1974   -0.0032    0.0019   -0.0252
C         4.4707    3.6292    0.1907   -0.0053   -0.0024    0.0674
C         3.1581    5.6948    0.2620   -0.0043    0.0000    0.0153
C         4.4009    5.0247    0.2573   -0.0052   -0.0022    0.0623
C         6.0491   -1.6734    0.1498   -0.0042   -0.0002    0.0456
C         4.6854   -4.1862    0.1668   -0.0004   -0.0030   -0.0526
C         6.7557   -2.8811    0.2249   -0.0044   -0.0008    0.0377
C         6.0835   -4.1199    0.2324   -0.0024   -0.0022   -0.0116
H         6.5636   -0.7119    0.1505   -0.0059    0.0007    0.0852
H         4.1595   -5.1415    0.1810    0.0008   -0.0042   -0.0895
H         6.6636   -5.0424    0.2843   -0.0024   -0.0022   -0.0132
H        -5.2165   -0.0595    0.1415    0.0064    0.0000    0.1106
H        -2.8123    4.3701    0.1706   -0.0012    0.0056   -0.0923
H        -5.3164    4.2710    0.2739    0.0016    0.0040   -0.0285
H        -6.4984    2.0935    0.2595    0.0057    0.0013    0.0764
H         0.3559   -6.2665    0.2241    0.0046   -0.0051   -0.0910
H        -4.0801   -3.8731    0.2016    0.0083    0.0037    0.1241
H        -3.9765   -6.3769    0.3099    0.0078    0.0024    0.0961
H        -1.7960   -7.5547    0.3185    0.0064   -0.0022   -0.0132
H         0.9891    5.4946    0.2174   -0.0030    0.0035   -0.0602
H         5.4267    3.1042    0.2032   -0.0067   -0.0041    0.1046
H         5.3215    5.6077    0.3106   -0.0059   -0.0037    0.0952
H         3.1404    6.7843    0.3129   -0.0045    0.0002    0.0116
H         7.8456   -2.8649    0.2681   -0.0058    0.0001    0.0712
    57
stable frequency at     67.359 1/cm IR int. is 5.348 a.m.u.; force const. is 0.014 mDyne/Ang.
Fe        0.6742   -0.3860   -0.2512    0.0019    0.0035   -0.0080
N         3.9155    0.5774    0.0034   -0.0006   -0.0006    0.0430
N         1.6364   -3.6259    0.0222    0.0000   -0.0016   -0.0563
N        -0.2400   -2.0716   -0.0762    0.0003   -0.0001   -0.0423
N        -1.0127    0.5279   -0.0841    0.0002    0.0002   -0.0041
N         1.5882    1.2996   -0.0761    0.0003    0.0004    0.0294
N         2.3604   -1.2995   -0.0741    0.0005    0.0000   -0.0081
N        -0.2889    2.8541    0.0151   -0.0002   -0.0017    0.0510
N        -2.5678   -1.3490   -0.0039   -0.0005   -0.0010   -0.0525
C        -2.6318    2.2074    0.0858   -0.0007   -0.0040    0.0295
C        -1.2138    1.9066   -0.0003    0.0002   -0.0020    0.0336
C         1.0023    2.5641    0.0125   -0.0000   -0.0001    0.0360
C         2.0253    3.5896    0.1094    0.0006    0.0012    0.0172
C        -3.3042    0.9681    0.0767   -0.0021   -0.0028   -0.0272
C        -2.2782   -0.0563   -0.0113   -0.0012   -0.0009   -0.0372
C        -0.6084   -5.7574    0.2030    0.0020    0.0044    0.0272
C        -3.1245   -4.3989    0.1900    0.0024    0.0049    0.0313
C        -1.8131   -6.4652    0.2658    0.0029    0.0071    0.0757
C        -4.7020    0.9019    0.1386   -0.0035   -0.0038   -0.0603
C        -3.3382    3.4149    0.1551   -0.0008   -0.0062    0.0685
C        -5.4086    2.1097    0.2138   -0.0037   -0.0060   -0.0273
C        -3.0555   -5.7944    0.2587    0.0030    0.0072    0.0777
C        -1.6195   -2.2729    0.0041    0.0005   -0.0001   -0.0406
C        -1.9182   -3.6908    0.1037    0.0011    0.0017   -0.0150
C         3.2652    2.9200    0.1027    0.0008    0.0015    0.0129
C         2.9671    1.5014    0.0066    0.0004    0.0003    0.0306
C        -4.7364    3.3486    0.2202   -0.0020   -0.0072    0.0412
C         3.6255   -0.7151   -0.0006   -0.0012   -0.0006    0.0282
C         4.6513   -1.7396    0.0908   -0.0024   -0.0021    0.0266
C         2.5611   -2.6780    0.0096    0.0005   -0.0019   -0.0406
C         3.9791   -2.9786    0.0994   -0.0008   -0.0034   -0.0290
C        -0.6787   -4.3610    0.1117    0.0009    0.0015   -0.0169
C         0.3451   -3.3358    0.0162    0.0001   -0.0002   -0.0432
C         1.9538    4.9862    0.1974    0.0015    0.0033   -0.0151
C         4.4707    3.6292    0.1907    0.0020    0.0042   -0.0246
C         3.1581    5.6948    0.2620    0.0023    0.0056   -0.0546
C         4.4009    5.0247    0.2573    0.0025    0.0059   -0.0595
C         6.0491   -1.6734    0.1498   -0.0041   -0.0024    0.0691
C         4.6854   -4.1862    0.1668   -0.0009   -0.0051   -0.0580
C         6.7557   -2.8811    0.2249   -0.0045   -0.0040    0.0462
C         6.0835   -4.1199    0.2324   -0.0026   -0.0055   -0.0218
H         6.5636   -0.7119    0.1505   -0.0053   -0.0017    0.1199
H         4.1595   -5.1415    0.1810    0.0002   -0.0064   -0.1077
H         6.6636   -5.0424    0.2843   -0.0024   -0.0066   -0.0438
H        -5.2165   -0.0595    0.1415   -0.0045   -0.0034   -0.1115
H        -2.8123    4.3701    0.1706    0.0001   -0.0074    0.1191
H        -5.3164    4.2710    0.2739   -0.0018   -0.0086    0.0706
H        -6.4984    2.0935    0.2595   -0.0049   -0.0065   -0.0529
H         0.3559   -6.2665    0.2241    0.0021    0.0047    0.0292
H        -4.0801   -3.8731    0.2016    0.0030    0.0059    0.0366
H        -3.9765   -6.3769    0.3099    0.0035    0.0096    0.1185
H        -1.7960   -7.5547    0.3185    0.0040    0.0091    0.1151
H         0.9891    5.4946    0.2174    0.0016    0.0034   -0.0147
H         5.4267    3.1042    0.2032    0.0026    0.0050   -0.0317
H         5.3215    5.6077    0.3106    0.0029    0.0079   -0.0931
H         3.1404    6.7843    0.3129    0.0031    0.0071   -0.0846
H         7.8456   -2.8649    0.2681   -0.0059   -0.0040    0.0793
    57
stable frequency at     70.609 1/cm IR int. is 5.406 a.m.u.; force const. is 0.016 mDyne/Ang.
Fe        0.6742   -0.3860   -0.2512   -0.0040    0.0021    0.0097
N         3.9155    0.5774    0.0034    0.0007   -0.0004   -0.0488
N         1.6364   -3.6259    0.0222    0.0006   -0.0011   -0.0430
N        -0.2400   -2.0716   -0.0762   -0.0005    0.0006    0.0107
N        -1.0127    0.5279   -0.0841   -0.0008   -0.0001    0.0432
N         1.5882    1.2996   -0.0761   -0.0007   -0.0003    0.0051
N         2.3604   -1.2995   -0.0741   -0.0012    0.0001   -0.0273
N        -0.2889    2.8541    0.0151    0.0007   -0.0013    0.0563
N        -2.5678   -1.3490   -0.0039    0.0004    0.0001    0.0561
C        -2.6318    2.2074    0.0858   -0.0017    0.0013    0.0169
C        -1.2138    1.9066   -0.0003   -0.0002    0.0000    0.0432
C         1.0023    2.5641    0.0125    0.0006   -0.0020    0.0394
C         2.0253    3.5896    0.1094    0.0029   -0.0030    0.0284
C        -3.3042    0.9681    0.0767   -0.0020    0.0014    0.0178
C        -2.2782   -0.0563   -0.0113   -0.0008    0.0001    0.0436
C        -0.6084   -5.7574    0.2030    0.0040   -0.0054   -0.0671
C        -3.1245   -4.3989    0.1900    0.0053   -0.0018    0.0545
C        -1.8131   -6.4652    0.2658    0.0053   -0.0057   -0.0459
C        -4.7020    0.9019    0.1386   -0.0042    0.0033   -0.0280
C        -3.3382    3.4149    0.1551   -0.0034    0.0029   -0.0296
C        -5.4086    2.1097    0.2138   -0.0062    0.0052   -0.0761
C        -3.0555   -5.7944    0.2587    0.0061   -0.0036    0.0181
C        -1.6195   -2.2729    0.0041    0.0012    0.0005    0.0410
C        -1.9182   -3.6908    0.1037    0.0030   -0.0010    0.0279
C         3.2652    2.9200    0.1027    0.0036   -0.0012   -0.0295
C         2.9671    1.5014    0.0066    0.0014   -0.0001   -0.0327
C        -4.7364    3.3486    0.2202   -0.0057    0.0048   -0.0767
C         3.6255   -0.7151   -0.0006   -0.0009   -0.0002   -0.0329
C         4.6513   -1.7396    0.0908   -0.0017    0.0009   -0.0139
C         2.5611   -2.6780    0.0096   -0.0005    0.0001   -0.0299
C         3.9791   -2.9786    0.0994   -0.0015    0.0009   -0.0121
C        -0.6787   -4.3610    0.1117    0.0024   -0.0028   -0.0260
C         0.3451   -3.3358    0.0162    0.0005   -0.0015   -0.0267
C         1.9538    4.9862    0.1974    0.0050   -0.0048    0.0596
C         4.4707    3.6292    0.1907    0.0066   -0.0013   -0.0712
C         3.1581    5.6948    0.2620    0.0068   -0.0047    0.0238
C         4.4009    5.0247    0.2573    0.0077   -0.0026   -0.0452
C         6.0491   -1.6734    0.1498   -0.0034    0.0024    0.0210
C         4.6854   -4.1862    0.1668   -0.0028    0.0022    0.0227
C         6.7557   -2.8811    0.2249   -0.0049    0.0038    0.0576
C         6.0835   -4.1199    0.2324   -0.0045    0.0036    0.0575
H         6.5636   -0.7119    0.1505   -0.0038    0.0027    0.0244
H         4.1595   -5.1415    0.1810   -0.0028    0.0023    0.0269
H         6.6636   -5.0424    0.2843   -0.0056    0.0043    0.0865
H        -5.2165   -0.0595    0.1415   -0.0049    0.0037   -0.0315
H        -2.8123    4.3701    0.1706   -0.0035    0.0030   -0.0341
H        -5.3164    4.2710    0.2739   -0.0072    0.0059   -0.1170
H        -6.4984    2.0935    0.2595   -0.0080    0.0071   -0.1167
H         0.3559   -6.2665    0.2241    0.0043   -0.0069   -0.1147
H        -4.0801   -3.8731    0.2016    0.0063   -0.0009    0.1026
H        -3.9765   -6.3769    0.3099    0.0071   -0.0035    0.0379
H        -1.7960   -7.5547    0.3185    0.0058   -0.0073   -0.0778
H         0.9891    5.4946    0.2174    0.0053   -0.0061    0.1109
H         5.4267    3.1042    0.2032    0.0078   -0.0003   -0.1228
H         5.3215    5.6077    0.3106    0.0091   -0.0022   -0.0766
H         3.1404    6.7843    0.3129    0.0077   -0.0059    0.0479
H         7.8456   -2.8649    0.2681   -0.0062    0.0053    0.0892
    57
stable frequency at    111.139 1/cm IR int. is 3.859 a.m.u.; force const. is 0.028 mDyne/Ang.
Fe        0.6742   -0.3860   -0.2512   -0.0003   -0.0006   -0.0024
N         3.9155    0.5774    0.0034   -0.0012   -0.0004   -0.0039
N         1.6364   -3.6259    0.0222    0.0002   -0.0012    0.0020
N        -0.2400   -2.0716   -0.0762    0.0007   -0.0010   -0.0019
N        -1.0127    0.5279   -0.0841    0.0003    0.0009   -0.0015
N         1.5882    1.2996   -0.0761   -0.0012    0.0004   -0.0015
N         2.3604   -1.2995   -0.0741   -0.0003   -0.0009   -0.0029
N        -0.2889    2.8541    0.0151   -0.0002    0.0013   -0.0013
N        -2.5678   -1.3490   -0.0039    0.0010    0.0003   -0.0023
C        -2.6318    2.2074    0.0858   -0.0016    0.0016   -0.0263
C        -1.2138    1.9066   -0.0003   -0.0008    0.0019   -0.0175
C         1.0023    2.5641    0.0125   -0.0003   -0.0002    0.0151
C         2.0253    3.5896    0.1094    0.0010   -0.0019    0.0253
C        -3.3042    0.9681    0.0767    0.0022   -0.0009    0.0248
C        -2.2782   -0.0563   -0.0113    0.0018    0.0002    0.0144
C        -0.6084   -5.7574    0.2030   -0.0032    0.0048    0.0774
C        -3.1245   -4.3989    0.1900   -0.0052   -0.0003   -0.0740
C        -1.8131   -6.4652    0.2658   -0.0050    0.0049    0.0456
C        -4.7020    0.9019    0.1386    0.0047   -0.0051    0.0745
C        -3.3382    3.4149    0.1551   -0.0058    0.0018   -0.0721
C        -5.4086    2.1097    0.2138    0.0016   -0.0053    0.0463
C        -3.0555   -5.7944    0.2587   -0.0063    0.0014   -0.0418
C        -1.6195   -2.2729    0.0041   -0.0001   -0.0006   -0.0179
C        -1.9182   -3.6908    0.1037   -0.0020   -0.0003   -0.0253
C         3.2652    2.9200    0.1027    0.0017   -0.0001   -0.0270
C         2.9671    1.5014    0.0066   -0.0004    0.0002   -0.0188
C        -4.7364    3.3486    0.2202   -0.0042   -0.0017   -0.0398
C         3.6255   -0.7151   -0.0006   -0.0020   -0.0002    0.0130
C         4.6513   -1.7396    0.0908   -0.0022    0.0014    0.0244
C         2.5611   -2.6780    0.0096    0.0009   -0.0020   -0.0170
C         3.9791   -2.9786    0.0994    0.0020   -0.0013   -0.0266
C        -0.6787   -4.3610    0.1117   -0.0012    0.0018    0.0287
C         0.3451   -3.3358    0.0162    0.0001   -0.0000    0.0176
C         1.9538    4.9862    0.1974    0.0031   -0.0049    0.0751
C         4.4707    3.6292    0.1907    0.0050   -0.0007   -0.0719
C         3.1581    5.6948    0.2620    0.0050   -0.0054    0.0471
C         4.4009    5.0247    0.2573    0.0063   -0.0025   -0.0378
C         6.0491   -1.6734    0.1498   -0.0047    0.0067    0.0739
C         4.6854   -4.1862    0.1668    0.0071   -0.0009   -0.0727
C         6.7557   -2.8811    0.2249   -0.0009    0.0075    0.0455
C         6.0835   -4.1199    0.2324    0.0055    0.0035   -0.0405
H         6.5636   -0.7119    0.1505   -0.0102    0.0097    0.1315
H         4.1595   -5.1415    0.1810    0.0121   -0.0045   -0.1301
H         6.6636   -5.0424    0.2843    0.0093    0.0040   -0.0757
H        -5.2165   -0.0595    0.1415    0.0096   -0.0076    0.1324
H        -2.8123    4.3701    0.1706   -0.0101    0.0051   -0.1296
H        -5.3164    4.2710    0.2739   -0.0075   -0.0019   -0.0752
H        -6.4984    2.0935    0.2595    0.0033   -0.0084    0.0849
H         0.3559   -6.2665    0.2241   -0.0036    0.0065    0.1359
H        -4.0801   -3.8731    0.2016   -0.0065   -0.0013   -0.1341
H        -3.9765   -6.3769    0.3099   -0.0076    0.0005   -0.0794
H        -1.7960   -7.5547    0.3185   -0.0054    0.0067    0.0826
H         0.9891    5.4946    0.2174    0.0036   -0.0063    0.1322
H         5.4267    3.1042    0.2032    0.0061   -0.0000   -0.1299
H         5.3215    5.6077    0.3106    0.0077   -0.0019   -0.0717
H         3.1404    6.7843    0.3129    0.0056   -0.0073    0.0855
H         7.8456   -2.8649    0.2681   -0.0025    0.0112    0.0839
    57
stable frequency at    113.951 1/cm IR int. is 5.029 a.m.u.; force const. is 0.038 mDyne/Ang.
Fe        0.6742   -0.3860   -0.2512   -0.0000   -0.0002    0.0008
N         3.9155    0.5774    0.0034   -0.0173   -0.0052   -0.0004
N         1.6364   -3.6259    0.0222    0.0051   -0.0175    0.0002
N        -0.2400   -2.0716   -0.0762    0.0127   -0.0073   -0.0000
N        -1.0127    0.5279   -0.0841    0.0071    0.0126    0.0014
N         1.5882    1.2996   -0.0761   -0.0127    0.0070   -0.0013
N         2.3604   -1.2995   -0.0741   -0.0072   -0.0129    0.0014
N        -0.2889    2.8541    0.0151   -0.0050    0.0172   -0.0004
N        -2.5678   -1.3490   -0.0039    0.0172    0.0050    0.0001
C        -2.6318    2.2074    0.0858   -0.0131   -0.0027    0.0030
C        -1.2138    1.9066   -0.0003   -0.0045    0.0141    0.0024
C         1.0023    2.5641    0.0125   -0.0037    0.0149   -0.0036
C         2.0253    3.5896    0.1094    0.0127    0.0058   -0.0060
C        -3.3042    0.9681    0.0767    0.0054   -0.0126    0.0007
C        -2.2782   -0.0563   -0.0113    0.0147    0.0037    0.0004
C        -0.6084   -5.7574    0.2030   -0.0523   -0.0095   -0.0102
C        -3.1245   -4.3989    0.1900   -0.0212    0.0480    0.0080
C        -1.8131   -6.4652    0.2658   -0.0717    0.0211   -0.0056
C        -4.7020    0.9019    0.1386    0.0082   -0.0513   -0.0024
C        -3.3382    3.4149    0.1551   -0.0469   -0.0212    0.0036
C        -5.4086    2.1097    0.2138   -0.0215   -0.0704   -0.0025
C        -3.0555   -5.7944    0.2587   -0.0574    0.0475    0.0056
C        -1.6195   -2.2729    0.0041    0.0143    0.0046    0.0009
C        -1.9182   -3.6908    0.1037   -0.0025    0.0133    0.0013
C         3.2652    2.9200    0.1027    0.0025   -0.0134    0.0002
C         2.9671    1.5014    0.0066   -0.0143   -0.0047   -0.0003
C        -4.7364    3.3486    0.2202   -0.0468   -0.0566    0.0003
C         3.6255   -0.7151   -0.0006   -0.0149   -0.0038    0.0005
C         4.6513   -1.7396    0.0908   -0.0055    0.0128    0.0011
C         2.5611   -2.6780    0.0096    0.0046   -0.0144    0.0023
C         3.9791   -2.9786    0.0994    0.0134    0.0026    0.0027
C        -0.6787   -4.3610    0.1117   -0.0129   -0.0060   -0.0049
C         0.3451   -3.3358    0.0162    0.0037   -0.0152   -0.0023
C         1.9538    4.9862    0.1974    0.0519    0.0091   -0.0100
C         4.4707    3.6292    0.1907    0.0209   -0.0479    0.0080
C         3.1581    5.6948    0.2620    0.0711   -0.0212   -0.0042
C         4.4009    5.0247    0.2573    0.0569   -0.0475    0.0069
C         6.0491   -1.6734    0.1498   -0.0084    0.0522   -0.0012
C         4.6854   -4.1862    0.1668    0.0478    0.0215    0.0023
C         6.7557   -2.8811    0.2249    0.0219    0.0716   -0.0019
C         6.0835   -4.1199    0.2324    0.0478    0.0575   -0.0005
H         6.5636   -0.7119    0.1505   -0.0381    0.0681   -0.0033
H         4.1595   -5.1415    0.1810    0.0760    0.0058    0.0039
H         6.6636   -5.0424    0.2843    0.0692    0.0709   -0.0031
H        -5.2165   -0.0595    0.1415    0.0373   -0.0669   -0.0055
H        -2.8123    4.3701    0.1706   -0.0745   -0.0059    0.0062
H        -5.3164    4.2710    0.2739   -0.0678   -0.0697   -0.0016
H        -6.4984    2.0935    0.2595   -0.0212   -0.0951   -0.0054
H         0.3559   -6.2665    0.2241   -0.0680   -0.0396   -0.0157
H        -4.0801   -3.8731    0.2016   -0.0052    0.0766    0.0149
H        -3.9765   -6.3769    0.3099   -0.0707    0.0692    0.0133
H        -1.7960   -7.5547    0.3185   -0.0971    0.0204   -0.0089
H         0.9891    5.4946    0.2174    0.0674    0.0390   -0.0154
H         5.4267    3.1042    0.2032    0.0051   -0.0763    0.0149
H         5.3215    5.6077    0.3106    0.0701   -0.0690    0.0156
H         3.1404    6.7843    0.3129    0.0963   -0.0206   -0.0063
H         7.8456   -2.8649    0.2681    0.0216    0.0968   -0.0041
    57
stable frequency at    118.364 1/cm IR int. is 4.976 a.m.u.; force const. is 0.041 mDyne/Ang.
Fe        0.6742   -0.3860   -0.2512    0.0135    0.0079    0.0015
N         3.9155    0.5774    0.0034    0.0113    0.0037    0.0165
N         1.6364   -3.6259    0.0222    0.0027    0.0029   -0.0113
N        -0.2400   -2.0716   -0.0762    0.0096    0.0033   -0.0422
N        -1.0127    0.5279   -0.0841    0.0097    0.0056   -0.0088
N         1.5882    1.2996   -0.0761    0.0089    0.0032    0.0449
N         2.3604   -1.2995   -0.0741    0.0093    0.0055    0.0108
N        -0.2889    2.8541    0.0151    0.0024    0.0033    0.0125
N        -2.5678   -1.3490   -0.0039    0.0120    0.0039   -0.0149
C        -2.6318    2.2074    0.0858   -0.0040   -0.0015   -0.0299
C        -1.2138    1.9066   -0.0003    0.0013    0.0059   -0.0156
C         1.0023    2.5641    0.0125    0.0032    0.0002    0.0461
C         2.0253    3.5896    0.1094   -0.0014    0.0021    0.0501
C        -3.3042    0.9681    0.0767    0.0097   -0.0086    0.0111
C        -2.2782   -0.0563   -0.0113    0.0142    0.0019   -0.0011
C        -0.6084   -5.7574    0.2030   -0.0162    0.0029   -0.0233
C        -3.1245   -4.3989    0.1900   -0.0029    0.0285    0.0080
C        -1.8131   -6.4652    0.2658   -0.0236    0.0185    0.0246
C        -4.7020    0.9019    0.1386    0.0141   -0.0350    0.0606
C        -3.3382    3.4149    0.1551   -0.0258   -0.0118   -0.0651
C        -5.4086    2.1097    0.2138   -0.0047   -0.0461    0.0435
C        -3.0555   -5.7944    0.2587   -0.0174    0.0303    0.0433
C        -1.6195   -2.2729    0.0041    0.0112    0.0057   -0.0390
C        -1.9182   -3.6908    0.1037    0.0038    0.0100   -0.0384
C         3.2652    2.9200    0.1027    0.0035    0.0096    0.0380
C         2.9671    1.5014    0.0066    0.0105    0.0054    0.0403
C        -4.7364    3.3486    0.2202   -0.0241   -0.0352   -0.0324
C         3.6255   -0.7151   -0.0006    0.0136    0.0018    0.0031
C         4.6513   -1.7396    0.0908    0.0095   -0.0083   -0.0101
C         2.5611   -2.6780    0.0096    0.0013    0.0056    0.0163
C         3.9791   -2.9786    0.0994   -0.0037   -0.0015    0.0289
C        -0.6787   -4.3610    0.1117   -0.0014    0.0021   -0.0491
C         0.3451   -3.3358    0.0162    0.0036    0.0001   -0.0439
C         1.9538    4.9862    0.1974   -0.0152    0.0030    0.0237
C         4.4707    3.6292    0.1907   -0.0025    0.0273   -0.0118
C         3.1581    5.6948    0.2620   -0.0219    0.0178   -0.0274
C         4.4009    5.0247    0.2573   -0.0160    0.0290   -0.0484
C         6.0491   -1.6734    0.1498    0.0137   -0.0338   -0.0593
C         4.6854   -4.1862    0.1668   -0.0247   -0.0114    0.0610
C         6.7557   -2.8811    0.2249   -0.0044   -0.0446   -0.0449
C         6.0835   -4.1199    0.2324   -0.0229   -0.0340    0.0278
H         6.5636   -0.7119    0.1505    0.0337   -0.0445   -0.1070
H         4.1595   -5.1415    0.1810   -0.0433   -0.0004    0.1066
H         6.6636   -5.0424    0.2843   -0.0369   -0.0415    0.0521
H        -5.2165   -0.0595    0.1415    0.0350   -0.0460    0.1109
H        -2.8123    4.3701    0.1706   -0.0452   -0.0003   -0.1123
H        -5.3164    4.2710    0.2739   -0.0386   -0.0429   -0.0590
H        -6.4984    2.0935    0.2595   -0.0027   -0.0628    0.0838
H         0.3559   -6.2665    0.2241   -0.0226   -0.0097   -0.0299
H        -4.0801   -3.8731    0.2016    0.0049    0.0422    0.0249
H        -3.9765   -6.3769    0.3099   -0.0220    0.0413    0.0877
H        -1.7960   -7.5547    0.3185   -0.0335    0.0198    0.0534
H         0.9891    5.4946    0.2174   -0.0212   -0.0089    0.0323
H         5.4267    3.1042    0.2032    0.0050    0.0403   -0.0300
H         5.3215    5.6077    0.3106   -0.0202    0.0396   -0.0952
H         3.1404    6.7843    0.3129   -0.0312    0.0191   -0.0565
H         7.8456   -2.8649    0.2681   -0.0025   -0.0607   -0.0848
    57
stable frequency at    119.795 1/cm IR int. is 5.022 a.m.u.; force const. is 0.042 mDyne/Ang.
Fe        0.6742   -0.3860   -0.2512   -0.0105    0.0171    0.0018
N         3.9155    0.5774    0.0034   -0.0057    0.0031   -0.0056
N         1.6364   -3.6259    0.0222   -0.0056    0.0151   -0.0121
N        -0.2400   -2.0716   -0.0762   -0.0081    0.0128   -0.0075
N        -1.0127    0.5279   -0.0841   -0.0059    0.0119    0.0368
N         1.5882    1.2996   -0.0761   -0.0086    0.0123    0.0111
N         2.3604   -1.2995   -0.0741   -0.0063    0.0119   -0.0342
N        -0.2889    2.8541    0.0151   -0.0057    0.0151    0.0142
N        -2.5678   -1.3490   -0.0039   -0.0054    0.0034    0.0077
C        -2.6318    2.2074    0.0858   -0.0139    0.0052    0.0298
C        -1.2138    1.9066   -0.0003   -0.0085    0.0140    0.0332
C         1.0023    2.5641    0.0125   -0.0032    0.0182    0.0040
C         2.0253    3.5896    0.1094    0.0106    0.0121   -0.0075
C        -3.3042    0.9681    0.0767   -0.0049   -0.0009    0.0396
C        -2.2782   -0.0563   -0.0113   -0.0024    0.0047    0.0363
C        -0.6084   -5.7574    0.2030    0.0450    0.0182    0.0508
C        -3.1245   -4.3989    0.1900    0.0164   -0.0343   -0.0548
C        -1.8131   -6.4652    0.2658    0.0610   -0.0075    0.0379
C        -4.7020    0.9019    0.1386   -0.0049   -0.0188    0.0186
C        -3.3382    3.4149    0.1551   -0.0344   -0.0033   -0.0112
C        -5.4086    2.1097    0.2138   -0.0223   -0.0274   -0.0223
C        -3.0555   -5.7944    0.2587    0.0478   -0.0325   -0.0254
C        -1.6195   -2.2729    0.0041   -0.0082    0.0016   -0.0147
C        -1.9182   -3.6908    0.1037    0.0021   -0.0053   -0.0266
C         3.2652    2.9200    0.1027    0.0018   -0.0059    0.0274
C         2.9671    1.5014    0.0066   -0.0087    0.0011    0.0173
C        -4.7364    3.3486    0.2202   -0.0357   -0.0201   -0.0403
C         3.6255   -0.7151   -0.0006   -0.0028    0.0046   -0.0345
C         4.6513   -1.7396    0.0908   -0.0049   -0.0009   -0.0395
C         2.5611   -2.6780    0.0096   -0.0084    0.0140   -0.0312
C         3.9791   -2.9786    0.0994   -0.0136    0.0052   -0.0297
C        -0.6787   -4.3610    0.1117    0.0107    0.0125    0.0082
C         0.3451   -3.3358    0.0162   -0.0030    0.0185   -0.0013
C         1.9538    4.9862    0.1974    0.0455    0.0179   -0.0529
C         4.4707    3.6292    0.1907    0.0165   -0.0352    0.0529
C         3.1581    5.6948    0.2620    0.0618   -0.0080   -0.0431
C         4.4009    5.0247    0.2573    0.0484   -0.0333    0.0203
C         6.0491   -1.6734    0.1498   -0.0048   -0.0183   -0.0206
C         4.6854   -4.1862    0.1668   -0.0336   -0.0032    0.0090
C         6.7557   -2.8811    0.2249   -0.0218   -0.0268    0.0178
C         6.0835   -4.1199    0.2324   -0.0349   -0.0195    0.0356
H         6.5636   -0.7119    0.1505    0.0099   -0.0262   -0.0277
H         4.1595   -5.1415    0.1810   -0.0486    0.0055    0.0243
H         6.6636   -5.0424    0.2843   -0.0464   -0.0249    0.0718
H        -5.2165   -0.0595    0.1415    0.0102   -0.0268    0.0261
H        -2.8123    4.3701    0.1706   -0.0498    0.0056   -0.0261
H        -5.3164    4.2710    0.2739   -0.0475   -0.0255   -0.0781
H        -6.4984    2.0935    0.2595   -0.0231   -0.0392   -0.0452
H         0.3559   -6.2665    0.2241    0.0586    0.0457    0.0920
H        -4.0801   -3.8731    0.2016    0.0017   -0.0599   -0.0943
H        -3.9765   -6.3769    0.3099    0.0588   -0.0515   -0.0469
H        -1.7960   -7.5547    0.3185    0.0828   -0.0054    0.0726
H         0.9891    5.4946    0.2174    0.0594    0.0459   -0.0937
H         5.4267    3.1042    0.2032    0.0016   -0.0611    0.0930
H         5.3215    5.6077    0.3106    0.0594   -0.0524    0.0398
H         3.1404    6.7843    0.3129    0.0840   -0.0058   -0.0800
H         7.8456   -2.8649    0.2681   -0.0225   -0.0383    0.0393
    57
stable frequency at    123.266 1/cm IR int. is 5.354 a.m.u.; force const. is 0.048 mDyne/Ang.
Fe        0.6742   -0.3860   -0.2512    0.0143    0.0160   -0.0009
N         3.9155    0.5774    0.0034    0.0152    0.0091   -0.0114
N         1.6364   -3.6259    0.0222    0.0028    0.0124    0.0122
N        -0.2400   -2.0716   -0.0762    0.0119    0.0139    0.0312
N        -1.0127    0.5279   -0.0841    0.0120    0.0150   -0.0063
N         1.5882    1.2996   -0.0761    0.0122    0.0142   -0.0330
N         2.3604   -1.2995   -0.0741    0.0121    0.0150    0.0049
N        -0.2889    2.8541    0.0151    0.0029    0.0125   -0.0135
N        -2.5678   -1.3490   -0.0039    0.0151    0.0090    0.0104
C        -2.6318    2.2074    0.0858   -0.0094   -0.0005    0.0062
C        -1.2138    1.9066   -0.0003   -0.0004    0.0153   -0.0027
C         1.0023    2.5641    0.0125    0.0057    0.0122   -0.0306
C         2.0253    3.5896    0.1094    0.0047    0.0126   -0.0295
C        -3.3042    0.9681    0.0767    0.0102   -0.0105   -0.0162
C        -2.2782   -0.0563   -0.0113    0.0189    0.0067   -0.0084
C        -0.6084   -5.7574    0.2030   -0.0044    0.0100   -0.0043
C        -3.1245   -4.3989    0.1900    0.0026    0.0255    0.0153
C        -1.8131   -6.4652    0.2658   -0.0102    0.0167   -0.0322
C        -4.7020    0.9019    0.1386    0.0129   -0.0558   -0.0346
C        -3.3382    3.4149    0.1551   -0.0475   -0.0231    0.0351
C        -5.4086    2.1097    0.2138   -0.0207   -0.0789   -0.0148
C        -3.0555   -5.7944    0.2587   -0.0065    0.0237   -0.0204
C        -1.6195   -2.2729    0.0041    0.0144    0.0129    0.0324
C        -1.9182   -3.6908    0.1037    0.0084    0.0166    0.0359
C         3.2652    2.9200    0.1027    0.0086    0.0169   -0.0363
C         2.9671    1.5014    0.0066    0.0146    0.0131   -0.0337
C        -4.7364    3.3486    0.2202   -0.0478   -0.0643    0.0267
C         3.6255   -0.7151   -0.0006    0.0190    0.0068    0.0075
C         4.6513   -1.7396    0.0908    0.0101   -0.0105    0.0162
C         2.5611   -2.6780    0.0096   -0.0004    0.0152    0.0014
C         3.9791   -2.9786    0.0994   -0.0094   -0.0004   -0.0066
C        -0.6787   -4.3610    0.1117    0.0045    0.0124    0.0293
C         0.3451   -3.3358    0.0162    0.0055    0.0120    0.0294
C         1.9538    4.9862    0.1974   -0.0044    0.0101    0.0059
C         4.4707    3.6292    0.1907    0.0027    0.0258   -0.0147
C         3.1581    5.6948    0.2620   -0.0103    0.0168    0.0352
C         4.4009    5.0247    0.2573   -0.0065    0.0240    0.0229
C         6.0491   -1.6734    0.1498    0.0128   -0.0558    0.0363
C         4.6854   -4.1862    0.1668   -0.0476   -0.0230   -0.0349
C         6.7557   -2.8811    0.2249   -0.0208   -0.0788    0.0176
C         6.0835   -4.1199    0.2324   -0.0480   -0.0642   -0.0247
H         6.5636   -0.7119    0.1505    0.0461   -0.0735    0.0639
H         4.1595   -5.1415    0.1810   -0.0795   -0.0056   -0.0637
H         6.6636   -5.0424    0.2843   -0.0711   -0.0799   -0.0452
H        -5.2165   -0.0595    0.1415    0.0460   -0.0737   -0.0621
H        -2.8123    4.3701    0.1706   -0.0794   -0.0057    0.0631
H        -5.3164    4.2710    0.2739   -0.0709   -0.0799    0.0477
H        -6.4984    2.0935    0.2595   -0.0208   -0.1068   -0.0282
H         0.3559   -6.2665    0.2241   -0.0085    0.0018   -0.0152
H        -4.0801   -3.8731    0.2016    0.0069    0.0328    0.0192
H        -3.9765   -6.3769    0.3099   -0.0099    0.0271   -0.0435
H        -1.7960   -7.5547    0.3185   -0.0176    0.0149   -0.0644
H         0.9891    5.4946    0.2174   -0.0084    0.0018    0.0168
H         5.4267    3.1042    0.2032    0.0070    0.0331   -0.0192
H         5.3215    5.6077    0.3106   -0.0100    0.0273    0.0466
H         3.1404    6.7843    0.3129   -0.0177    0.0151    0.0686
H         7.8456   -2.8649    0.2681   -0.0210   -0.1067    0.0321
    57
stable frequency at    124.039 1/cm IR int. is 5.319 a.m.u.; force const. is 0.048 mDyne/Ang.
Fe        0.6742   -0.3860   -0.2512   -0.0146    0.0105   -0.0015
N         3.9155    0.5774    0.0034   -0.0118    0.0021    0.0137
N         1.6364   -3.6259    0.0222   -0.0082    0.0118    0.0128
N        -0.2400   -2.0716   -0.0762   -0.0139    0.0089   -0.0053
N        -1.0127    0.5279   -0.0841   -0.0132    0.0097   -0.0418
N         1.5882    1.2996   -0.0761   -0.0137    0.0096    0.0015
N         2.3604   -1.2995   -0.0741   -0.0132    0.0095    0.0405
N        -0.2889    2.8541    0.0151   -0.0081    0.0121   -0.0148
N        -2.5678   -1.3490   -0.0039   -0.0118    0.0020   -0.0155
C        -2.6318    2.2074    0.0858   -0.0136    0.0076   -0.0415
C        -1.2138    1.9066   -0.0003   -0.0112    0.0117   -0.0407
C         1.0023    2.5641    0.0125   -0.0063    0.0154    0.0055
C         2.0253    3.5896    0.1094    0.0085    0.0077    0.0163
C        -3.3042    0.9681    0.0767   -0.0118    0.0052   -0.0389
C        -2.2782   -0.0563   -0.0113   -0.0121    0.0046   -0.0394
C        -0.6084   -5.7574    0.2030    0.0478    0.0084   -0.0465
C        -3.1245   -4.3989    0.1900    0.0200   -0.0417    0.0483
C        -1.8131   -6.4652    0.2658    0.0679   -0.0204   -0.0232
C        -4.7020    0.9019    0.1386   -0.0102    0.0008   -0.0011
C        -3.3382    3.4149    0.1551   -0.0179    0.0039   -0.0088
C        -5.4086    2.1097    0.2138   -0.0125   -0.0031    0.0376
C        -3.0555   -5.7944    0.2587    0.0556   -0.0424    0.0330
C        -1.6195   -2.2729    0.0041   -0.0143   -0.0011    0.0005
C        -1.9182   -3.6908    0.1037   -0.0005   -0.0088    0.0125
C         3.2652    2.9200    0.1027   -0.0001   -0.0084   -0.0145
C         2.9671    1.5014    0.0066   -0.0140   -0.0006   -0.0038
C        -4.7364    3.3486    0.2202   -0.0160   -0.0012    0.0329
C         3.6255   -0.7151   -0.0006   -0.0122    0.0047    0.0390
C         4.6513   -1.7396    0.0908   -0.0119    0.0054    0.0403
C         2.5611   -2.6780    0.0096   -0.0112    0.0115    0.0398
C         3.9791   -2.9786    0.0994   -0.0137    0.0076    0.0424
C        -0.6787   -4.3610    0.1117    0.0082    0.0071   -0.0181
C         0.3451   -3.3358    0.0162   -0.0065    0.0148   -0.0086
C         1.9538    4.9862    0.1974    0.0482    0.0088    0.0485
C         4.4707    3.6292    0.1907    0.0204   -0.0416   -0.0474
C         3.1581    5.6948    0.2620    0.0683   -0.0203    0.0291
C         4.4009    5.0247    0.2573    0.0560   -0.0424   -0.0278
C         6.0491   -1.6734    0.1498   -0.0105    0.0012    0.0036
C         4.6854   -4.1862    0.1668   -0.0178    0.0040    0.0102
C         6.7557   -2.8811    0.2249   -0.0126   -0.0026   -0.0345
C         6.0835   -4.1199    0.2324   -0.0159   -0.0008   -0.0304
H         6.5636   -0.7119    0.1505   -0.0068   -0.0008   -0.0038
H         4.1595   -5.1415    0.1810   -0.0211    0.0060    0.0078
H         6.6636   -5.0424    0.2843   -0.0163   -0.0029   -0.0635
H        -5.2165   -0.0595    0.1415   -0.0063   -0.0013    0.0060
H        -2.8123    4.3701    0.1706   -0.0213    0.0059   -0.0075
H        -5.3164    4.2710    0.2739   -0.0165   -0.0034    0.0660
H        -6.4984    2.0935    0.2595   -0.0109   -0.0077    0.0742
H         0.3559   -6.2665    0.2241    0.0633    0.0363   -0.0841
H        -4.0801   -3.8731    0.2016    0.0053   -0.0689    0.0859
H        -3.9765   -6.3769    0.3099    0.0691   -0.0617    0.0591
H        -1.7960   -7.5547    0.3185    0.0920   -0.0211   -0.0449
H         0.9891    5.4946    0.2174    0.0636    0.0369    0.0864
H         5.4267    3.1042    0.2032    0.0057   -0.0689   -0.0856
H         5.3215    5.6077    0.3106    0.0696   -0.0619   -0.0513
H         3.1404    6.7843    0.3129    0.0923   -0.0210    0.0539
H         7.8456   -2.8649    0.2681   -0.0111   -0.0070   -0.0707
    57
stable frequency at    138.720 1/cm IR int. is 6.496 a.m.u.; force const. is 0.074 mDyne/Ang.
Fe        0.6742   -0.3860   -0.2512   -0.0000    0.0004    0.0001
N         3.9155    0.5774    0.0034   -0.0011   -0.0012    0.0023
N         1.6364   -3.6259    0.0222    0.0004   -0.0002    0.0007
N        -0.2400   -2.0716   -0.0762    0.0016    0.0030    0.0444
N        -1.0127    0.5279   -0.0841   -0.0016    0.0017   -0.0422
N         1.5882    1.2996   -0.0761   -0.0021   -0.0024    0.0419
N         2.3604   -1.2995   -0.0741    0.0012   -0.0019   -0.0402
N        -0.2889    2.8541    0.0151   -0.0008    0.0002    0.0014
N        -2.5678   -1.3490   -0.0039    0.0005    0.0011    0.0001
C        -2.6318    2.2074    0.0858   -0.0028    0.0018   -0.0624
C        -1.2138    1.9066   -0.0003   -0.0023    0.0020   -0.0460
C         1.0023    2.5641    0.0125   -0.0017   -0.0027    0.0479
C         2.0253    3.5896    0.1094   -0.0013   -0.0036    0.0645
C        -3.3042    0.9681    0.0767   -0.0024    0.0012   -0.0632
C        -2.2782   -0.0563   -0.0113   -0.0019    0.0016   -0.0471
C        -0.6084   -5.7574    0.2030   -0.0006    0.0008    0.0118
C        -3.1245   -4.3989    0.1900    0.0001    0.0019    0.0148
C        -1.8131   -6.4652    0.2658   -0.0025   -0.0022   -0.0491
C        -4.7020    0.9019    0.1386   -0.0004   -0.0012   -0.0150
C        -3.3382    3.4149    0.1551   -0.0018   -0.0001   -0.0128
C        -5.4086    2.1097    0.2138    0.0020   -0.0039    0.0434
C        -3.0555   -5.7944    0.2587   -0.0018   -0.0016   -0.0472
C        -1.6195   -2.2729    0.0041    0.0020    0.0036    0.0482
C        -1.9182   -3.6908    0.1037    0.0018    0.0042    0.0641
C         3.2652    2.9200    0.1027   -0.0021   -0.0043    0.0643
C         2.9671    1.5014    0.0066   -0.0025   -0.0034    0.0480
C        -4.7364    3.3486    0.2202    0.0013   -0.0030    0.0447
C         3.6255   -0.7151   -0.0006    0.0014   -0.0018   -0.0446
C         4.6513   -1.7396    0.0908    0.0021   -0.0014   -0.0617
C         2.5611   -2.6780    0.0096    0.0022   -0.0022   -0.0454
C         3.9791   -2.9786    0.0994    0.0027   -0.0020   -0.0620
C        -0.6787   -4.3610    0.1117    0.0011    0.0040    0.0633
C         0.3451   -3.3358    0.0162    0.0013    0.0033    0.0482
C         1.9538    4.9862    0.1974    0.0016   -0.0005    0.0134
C         4.4707    3.6292    0.1907    0.0002   -0.0027    0.0132
C         3.1581    5.6948    0.2620    0.0041    0.0018   -0.0491
C         4.4009    5.0247    0.2573    0.0031    0.0007   -0.0491
C         6.0491   -1.6734    0.1498    0.0001    0.0012   -0.0139
C         4.6854   -4.1862    0.1668    0.0020   -0.0002   -0.0147
C         6.7557   -2.8811    0.2249   -0.0020    0.0040    0.0425
C         6.0835   -4.1199    0.2324   -0.0011    0.0030    0.0420
H         6.5636   -0.7119    0.1505   -0.0014    0.0020   -0.0050
H         4.1595   -5.1415    0.1810    0.0024   -0.0003   -0.0065
H         6.6636   -5.0424    0.2843   -0.0025    0.0048    0.0926
H        -5.2165   -0.0595    0.1415    0.0010   -0.0019   -0.0072
H        -2.8123    4.3701    0.1706   -0.0020   -0.0002   -0.0032
H        -5.3164    4.2710    0.2739    0.0029   -0.0049    0.0968
H        -6.4984    2.0935    0.2595    0.0043   -0.0062    0.0947
H         0.3559   -6.2665    0.2241   -0.0012   -0.0007    0.0030
H        -4.0801   -3.8731    0.2016   -0.0003    0.0013    0.0084
H        -3.9765   -6.3769    0.3099   -0.0030   -0.0039   -0.0998
H        -1.7960   -7.5547    0.3185   -0.0042   -0.0049   -0.1036
H         0.9891    5.4946    0.2174    0.0026    0.0018    0.0056
H         5.4267    3.1042    0.2032    0.0002   -0.0029    0.0052
H         5.3215    5.6077    0.3106    0.0049    0.0025   -0.1033
H         3.1404    6.7843    0.3129    0.0065    0.0044   -0.1036
H         7.8456   -2.8649    0.2681   -0.0042    0.0064    0.0937
    57
stable frequency at    167.398 1/cm IR int. is 11.509 a.m.u.; force const. is 0.190 mDyne/Ang.
Fe        0.6742   -0.3860   -0.2512    0.0001   -0.0004   -0.0956
N         3.9155    0.5774    0.0034   -0.0015   -0.0009    0.0387
N         1.6364   -3.6259    0.0222   -0.0008    0.0021    0.0392
N        -0.2400   -2.0716   -0.0762   -0.0001    0.0003   -0.0212
N        -1.0127    0.5279   -0.0841    0.0006    0.0004   -0.0174
N         1.5882    1.2996   -0.0761   -0.0001   -0.0006   -0.0187
N         2.3604   -1.2995   -0.0741   -0.0002   -0.0001   -0.0181
N        -0.2889    2.8541    0.0151    0.0008   -0.0018    0.0379
N        -2.5678   -1.3490   -0.0039    0.0016    0.0011    0.0393
C        -2.6318    2.2074    0.0858    0.0029   -0.0016    0.0438
C        -1.2138    1.9066   -0.0003    0.0015   -0.0015    0.0219
C         1.0023    2.5641    0.0125    0.0000   -0.0028    0.0205
C         2.0253    3.5896    0.1094   -0.0012   -0.0039    0.0416
C        -3.3042    0.9681    0.0767    0.0033   -0.0012    0.0440
C        -2.2782   -0.0563   -0.0113    0.0025    0.0003    0.0226
C        -0.6084   -5.7574    0.2030    0.0008    0.0023    0.0156
C        -3.1245   -4.3989    0.1900    0.0006    0.0027    0.0159
C        -1.8131   -6.4652    0.2658   -0.0004    0.0001   -0.0309
C        -4.7020    0.9019    0.1386    0.0021   -0.0014    0.0155
C        -3.3382    3.4149    0.1551    0.0016   -0.0007    0.0150
C        -5.4086    2.1097    0.2138   -0.0004   -0.0001   -0.0315
C        -3.0555   -5.7944    0.2587   -0.0003    0.0004   -0.0308
C        -1.6195   -2.2729    0.0041    0.0017    0.0019    0.0204
C        -1.9182   -3.6908    0.1037    0.0017    0.0038    0.0430
C         3.2652    2.9200    0.1027   -0.0018   -0.0037    0.0415
C         2.9671    1.5014    0.0066   -0.0019   -0.0019    0.0206
C        -4.7364    3.3486    0.2202   -0.0006    0.0000   -0.0318
C         3.6255   -0.7151   -0.0006   -0.0022   -0.0001    0.0225
C         4.6513   -1.7396    0.0908   -0.0032    0.0014    0.0447
C         2.5611   -2.6780    0.0096   -0.0015    0.0018    0.0224
C         3.9791   -2.9786    0.0994   -0.0030    0.0019    0.0444
C        -0.6787   -4.3610    0.1117    0.0011    0.0040    0.0429
C         0.3451   -3.3358    0.0162   -0.0001    0.0027    0.0203
C         1.9538    4.9862    0.1974   -0.0008   -0.0023    0.0154
C         4.4707    3.6292    0.1907   -0.0006   -0.0027    0.0151
C         3.1581    5.6948    0.2620    0.0004   -0.0003   -0.0299
C         4.4009    5.0247    0.2573    0.0003   -0.0005   -0.0300
C         6.0491   -1.6734    0.1498   -0.0020    0.0014    0.0154
C         4.6854   -4.1862    0.1668   -0.0019    0.0009    0.0151
C         6.7557   -2.8811    0.2249    0.0004   -0.0001   -0.0325
C         6.0835   -4.1199    0.2324    0.0003   -0.0001   -0.0324
H         6.5636   -0.7119    0.1505   -0.0022    0.0015    0.0126
H         4.1595   -5.1415    0.1810   -0.0015    0.0006    0.0123
H         6.6636   -5.0424    0.2843    0.0023   -0.0010   -0.0728
H        -5.2165   -0.0595    0.1415    0.0024   -0.0016    0.0131
H        -2.8123    4.3701    0.1706    0.0010   -0.0003    0.0121
H        -5.3164    4.2710    0.2739   -0.0028    0.0009   -0.0722
H        -6.4984    2.0935    0.2595   -0.0022    0.0011   -0.0716
H         0.3559   -6.2665    0.2241    0.0006    0.0018    0.0131
H        -4.0801   -3.8731    0.2016    0.0004    0.0024    0.0137
H        -3.9765   -6.3769    0.3099   -0.0010   -0.0018   -0.0703
H        -1.7960   -7.5547    0.3185   -0.0016   -0.0018   -0.0705
H         0.9891    5.4946    0.2174   -0.0006   -0.0018    0.0133
H         5.4267    3.1042    0.2032   -0.0005   -0.0025    0.0129
H         5.3215    5.6077    0.3106    0.0011    0.0015   -0.0683
H         3.1404    6.7843    0.3129    0.0017    0.0016   -0.0683
H         7.8456   -2.8649    0.2681    0.0021   -0.0015   -0.0737
    57
stable frequency at    195.976 1/cm IR int. is 8.030 a.m.u.; force const. is 0.182 mDyne/Ang.
Fe        0.6742   -0.3860   -0.2512   -0.0001    0.0000   -0.0011
N         3.9155    0.5774    0.0034   -0.0041    0.0170   -0.0056
N         1.6364   -3.6259    0.0222   -0.0166   -0.0041    0.0045
N        -0.2400   -2.0716   -0.0762   -0.0170   -0.0307    0.0080
N        -1.0127    0.5279   -0.0841    0.0306   -0.0173   -0.0089
N         1.5882    1.2996   -0.0761    0.0171    0.0306    0.0084
N         2.3604   -1.2995   -0.0741   -0.0306    0.0173   -0.0092
N        -0.2889    2.8541    0.0151    0.0167    0.0040    0.0050
N        -2.5678   -1.3490   -0.0039    0.0043   -0.0170   -0.0041
C        -2.6318    2.2074    0.0858    0.0389   -0.0227   -0.0004
C        -1.2138    1.9066   -0.0003    0.0347   -0.0148   -0.0011
C         1.0023    2.5641    0.0125    0.0215    0.0302    0.0061
C         2.0253    3.5896    0.1094    0.0205    0.0397    0.0021
C        -3.3042    0.9681    0.0767    0.0396   -0.0206   -0.0013
C        -2.2782   -0.0563   -0.0113    0.0302   -0.0217   -0.0055
C        -0.6084   -5.7574    0.2030   -0.0263   -0.0441    0.0004
C        -3.1245   -4.3989    0.1900   -0.0224   -0.0463    0.0039
C        -1.8131   -6.4652    0.2658   -0.0251   -0.0473    0.0035
C        -4.7020    0.9019    0.1386    0.0438   -0.0262    0.0002
C        -3.3382    3.4149    0.1551    0.0466   -0.0225   -0.0037
C        -5.4086    2.1097    0.2138    0.0473   -0.0248   -0.0026
C        -3.0555   -5.7944    0.2587   -0.0254   -0.0470    0.0070
C        -1.6195   -2.2729    0.0041   -0.0146   -0.0348    0.0013
C        -1.9182   -3.6908    0.1037   -0.0224   -0.0390    0.0008
C         3.2652    2.9200    0.1027    0.0225    0.0389    0.0011
C         2.9671    1.5014    0.0066    0.0147    0.0347    0.0009
C        -4.7364    3.3486    0.2202    0.0474   -0.0251   -0.0064
C         3.6255   -0.7151   -0.0006   -0.0301    0.0217   -0.0066
C         4.6513   -1.7396    0.0908   -0.0396    0.0207   -0.0020
C         2.5611   -2.6780    0.0096   -0.0347    0.0149   -0.0013
C         3.9791   -2.9786    0.0994   -0.0389    0.0228   -0.0004
C        -0.6787   -4.3610    0.1117   -0.0204   -0.0398    0.0017
C         0.3451   -3.3358    0.0162   -0.0214   -0.0304    0.0054
C         1.9538    4.9862    0.1974    0.0262    0.0440    0.0001
C         4.4707    3.6292    0.1907    0.0224    0.0463    0.0045
C         3.1581    5.6948    0.2620    0.0250    0.0473    0.0030
C         4.4009    5.0247    0.2573    0.0253    0.0471    0.0071
C         6.0491   -1.6734    0.1498   -0.0438    0.0262    0.0001
C         4.6854   -4.1862    0.1668   -0.0467    0.0226   -0.0028
C         6.7557   -2.8811    0.2249   -0.0474    0.0248   -0.0018
C         6.0835   -4.1199    0.2324   -0.0475    0.0252   -0.0054
H         6.5636   -0.7119    0.1505   -0.0460    0.0274    0.0013
H         4.1595   -5.1415    0.1810   -0.0497    0.0246   -0.0045
H         6.6636   -5.0424    0.2843   -0.0449    0.0263   -0.0118
H        -5.2165   -0.0595    0.1415    0.0460   -0.0274    0.0017
H        -2.8123    4.3701    0.1706    0.0496   -0.0244   -0.0056
H        -5.3164    4.2710    0.2739    0.0448   -0.0263   -0.0124
H        -6.4984    2.0935    0.2595    0.0474   -0.0224   -0.0020
H         0.3559   -6.2665    0.2241   -0.0276   -0.0466   -0.0011
H        -4.0801   -3.8731    0.2016   -0.0242   -0.0489    0.0056
H        -3.9765   -6.3769    0.3099   -0.0267   -0.0442    0.0131
H        -1.7960   -7.5547    0.3185   -0.0230   -0.0473    0.0031
H         0.9891    5.4946    0.2174    0.0275    0.0465   -0.0016
H         5.4267    3.1042    0.2032    0.0242    0.0490    0.0065
H         5.3215    5.6077    0.3106    0.0266    0.0444    0.0133
H         3.1404    6.7843    0.3129    0.0228    0.0473    0.0021
H         7.8456   -2.8649    0.2681   -0.0475    0.0225   -0.0009
    57
stable frequency at    210.202 1/cm IR int. is 6.063 a.m.u.; force const. is 0.158 mDyne/Ang.
Fe        0.6742   -0.3860   -0.2512    0.0001    0.0003    0.0007
N         3.9155    0.5774    0.0034   -0.0166   -0.0082    0.0830
N         1.6364   -3.6259    0.0222    0.0005   -0.0194   -0.0829
N        -0.2400   -2.0716   -0.0762    0.0070   -0.0054    0.0026
N        -1.0127    0.5279   -0.0841    0.0092    0.0123   -0.0005
N         1.5882    1.2996   -0.0761   -0.0068    0.0057   -0.0003
N         2.3604   -1.2995   -0.0741   -0.0095   -0.0126    0.0003
N        -0.2889    2.8541    0.0151   -0.0003    0.0190   -0.0819
N        -2.5678   -1.3490   -0.0039    0.0162    0.0082    0.0823
C        -2.6318    2.2074    0.0858    0.0045    0.0101   -0.0042
C        -1.2138    1.9066   -0.0003    0.0032    0.0150   -0.0389
C         1.0023    2.5641    0.0125   -0.0020    0.0108   -0.0385
C         2.0253    3.5896    0.1094   -0.0015    0.0055   -0.0036
C        -3.3042    0.9681    0.0767    0.0108    0.0069    0.0049
C        -2.2782   -0.0563   -0.0113    0.0145    0.0083    0.0390
C        -0.6084   -5.7574    0.2030    0.0033   -0.0025    0.0429
C        -3.1245   -4.3989    0.1900    0.0020   -0.0059   -0.0440
C        -1.8131   -6.4652    0.2658    0.0037   -0.0030    0.0375
C        -4.7020    0.9019    0.1386    0.0099   -0.0003   -0.0430
C        -3.3382    3.4149    0.1551   -0.0003    0.0050    0.0427
C        -5.4086    2.1097    0.2138    0.0030   -0.0048   -0.0386
C        -3.0555   -5.7944    0.2587    0.0026   -0.0058   -0.0376
C        -1.6195   -2.2729    0.0041    0.0088    0.0008    0.0394
C        -1.9182   -3.6908    0.1037    0.0033   -0.0021    0.0036
C         3.2652    2.9200    0.1027   -0.0032    0.0020    0.0047
C         2.9671    1.5014    0.0066   -0.0087   -0.0007    0.0389
C        -4.7364    3.3486    0.2202   -0.0005   -0.0034    0.0363
C         3.6255   -0.7151   -0.0006   -0.0149   -0.0085    0.0394
C         4.6513   -1.7396    0.0908   -0.0110   -0.0071    0.0046
C         2.5611   -2.6780    0.0096   -0.0031   -0.0154   -0.0392
C         3.9791   -2.9786    0.0994   -0.0046   -0.0104   -0.0047
C        -0.6787   -4.3610    0.1117    0.0015   -0.0055   -0.0047
C         0.3451   -3.3358    0.0162    0.0021   -0.0108   -0.0380
C         1.9538    4.9862    0.1974   -0.0034    0.0026    0.0434
C         4.4707    3.6292    0.1907   -0.0018    0.0060   -0.0436
C         3.1581    5.6948    0.2620   -0.0037    0.0032    0.0367
C         4.4009    5.0247    0.2573   -0.0025    0.0060   -0.0385
C         6.0491   -1.6734    0.1498   -0.0102    0.0002   -0.0431
C         4.6854   -4.1862    0.1668    0.0004   -0.0053    0.0424
C         6.7557   -2.8811    0.2249   -0.0033    0.0049   -0.0382
C         6.0835   -4.1199    0.2324    0.0005    0.0033    0.0365
H         6.5636   -0.7119    0.1505   -0.0152    0.0028   -0.0763
H         4.1595   -5.1415    0.1810    0.0054   -0.0076    0.0760
H         6.6636   -5.0424    0.2843    0.0043    0.0077    0.0742
H        -5.2165   -0.0595    0.1415    0.0146   -0.0029   -0.0766
H        -2.8123    4.3701    0.1706   -0.0051    0.0071    0.0765
H        -5.3164    4.2710    0.2739   -0.0041   -0.0077    0.0738
H        -6.4984    2.0935    0.2595    0.0015   -0.0098   -0.0775
H         0.3559   -6.2665    0.2241    0.0043    0.0008    0.0769
H        -4.0801   -3.8731    0.2016   -0.0000   -0.0088   -0.0777
H        -3.9765   -6.3769    0.3099    0.0016   -0.0073   -0.0753
H        -1.7960   -7.5547    0.3185    0.0042   -0.0010    0.0765
H         0.9891    5.4946    0.2174   -0.0044   -0.0007    0.0773
H         5.4267    3.1042    0.2032    0.0002    0.0090   -0.0775
H         5.3215    5.6077    0.3106   -0.0014    0.0075   -0.0773
H         3.1404    6.7843    0.3129   -0.0043    0.0013    0.0747
H         7.8456   -2.8649    0.2681   -0.0018    0.0100   -0.0764
    57
stable frequency at    213.280 1/cm IR int. is 5.548 a.m.u.; force const. is 0.149 mDyne/Ang.
Fe        0.6742   -0.3860   -0.2512    0.0000    0.0000   -0.0004
N         3.9155    0.5774    0.0034   -0.0143    0.0415    0.0077
N         1.6364   -3.6259    0.0222    0.0425    0.0105   -0.0074
N        -0.2400   -2.0716   -0.0762    0.0336   -0.0184    0.0003
N        -1.0127    0.5279   -0.0841   -0.0172   -0.0314   -0.0002
N         1.5882    1.2996   -0.0761   -0.0337    0.0184    0.0001
N         2.3604   -1.2995   -0.0741    0.0172    0.0314   -0.0005
N        -0.2889    2.8541    0.0151   -0.0425   -0.0105   -0.0076
N        -2.5678   -1.3490   -0.0039    0.0142   -0.0415    0.0076
C        -2.6318    2.2074    0.0858   -0.0122   -0.0404   -0.0012
C        -1.2138    1.9066   -0.0003   -0.0196   -0.0358   -0.0044
C         1.0023    2.5641    0.0125   -0.0373    0.0219   -0.0027
C         2.0253    3.5896    0.1094   -0.0333    0.0288    0.0008
C        -3.3042    0.9681    0.0767   -0.0275   -0.0321    0.0010
C        -2.2782   -0.0563   -0.0113   -0.0195   -0.0360    0.0040
C        -0.6084   -5.7574    0.2030   -0.0189   -0.0348    0.0066
C        -3.1245   -4.3989    0.1900    0.0187    0.0339   -0.0064
C        -1.8131   -6.4652    0.2658   -0.0460    0.0045    0.0042
C        -4.7020    0.9019    0.1386   -0.0337    0.0197   -0.0015
C        -3.3382    3.4149    0.1551    0.0342   -0.0176    0.0016
C        -5.4086    2.1097    0.2138    0.0050    0.0462   -0.0023
C        -3.0555   -5.7944    0.2587   -0.0295    0.0349   -0.0049
C        -1.6195   -2.2729    0.0041    0.0384   -0.0195    0.0032
C        -1.9182   -3.6908    0.1037    0.0421   -0.0125    0.0003
C         3.2652    2.9200    0.1027   -0.0421    0.0125    0.0003
C         2.9671    1.5014    0.0066   -0.0385    0.0195    0.0032
C        -4.7364    3.3486    0.2202    0.0353    0.0297    0.0026
C         3.6255   -0.7151   -0.0006    0.0195    0.0359    0.0039
C         4.6513   -1.7396    0.0908    0.0274    0.0321    0.0010
C         2.5611   -2.6780    0.0096    0.0196    0.0357   -0.0044
C         3.9791   -2.9786    0.0994    0.0122    0.0404   -0.0012
C        -0.6787   -4.3610    0.1117    0.0333   -0.0288    0.0008
C         0.3451   -3.3358    0.0162    0.0373   -0.0219   -0.0025
C         1.9538    4.9862    0.1974    0.0189    0.0348    0.0067
C         4.4707    3.6292    0.1907   -0.0186   -0.0340   -0.0063
C         3.1581    5.6948    0.2620    0.0460   -0.0045    0.0042
C         4.4009    5.0247    0.2573    0.0296   -0.0349   -0.0049
C         6.0491   -1.6734    0.1498    0.0336   -0.0197   -0.0013
C         4.6854   -4.1862    0.1668   -0.0341    0.0176    0.0014
C         6.7557   -2.8811    0.2249   -0.0050   -0.0462   -0.0021
C         6.0835   -4.1199    0.2324   -0.0352   -0.0297    0.0024
H         6.5636   -0.7119    0.1505    0.0755   -0.0420   -0.0013
H         4.1595   -5.1415    0.1810   -0.0756    0.0408    0.0014
H         6.6636   -5.0424    0.2843   -0.0612   -0.0459    0.0055
H        -5.2165   -0.0595    0.1415   -0.0756    0.0421   -0.0018
H        -2.8123    4.3701    0.1706    0.0757   -0.0408    0.0018
H        -5.3164    4.2710    0.2739    0.0613    0.0459    0.0060
H        -6.4984    2.0935    0.2595    0.0043    0.0769   -0.0049
H         0.3559   -6.2665    0.2241   -0.0412   -0.0769    0.0129
H        -4.0801   -3.8731    0.2016    0.0418    0.0757   -0.0127
H        -3.9765   -6.3769    0.3099   -0.0462    0.0610   -0.0092
H        -1.7960   -7.5547    0.3185   -0.0772    0.0042    0.0083
H         0.9891    5.4946    0.2174    0.0412    0.0770    0.0130
H         5.4267    3.1042    0.2032   -0.0418   -0.0758   -0.0126
H         5.3215    5.6077    0.3106    0.0463   -0.0611   -0.0092
H         3.1404    6.7843    0.3129    0.0773   -0.0041    0.0083
H         7.8456   -2.8649    0.2681   -0.0043   -0.0768   -0.0047
    57
stable frequency at    236.686 1/cm IR int. is 11.302 a.m.u.; force const. is 0.373 mDyne/Ang.
Fe        0.6742   -0.3860   -0.2512    0.0000    0.0000    0.0006
N         3.9155    0.5774    0.0034    0.0686    0.0206    0.0246
N         1.6364   -3.6259    0.0222   -0.0203    0.0686   -0.0244
N        -0.2400   -2.0716   -0.0762   -0.0508    0.0275    0.0008
N        -1.0127    0.5279   -0.0841   -0.0274   -0.0511   -0.0002
N         1.5882    1.2996   -0.0761    0.0507   -0.0273    0.0001
N         2.3604   -1.2995   -0.0741    0.0274    0.0510   -0.0003
N        -0.2889    2.8541    0.0151    0.0203   -0.0686   -0.0246
N        -2.5678   -1.3490   -0.0039   -0.0688   -0.0205    0.0237
C        -2.6318    2.2074    0.0858   -0.0028   -0.0304   -0.0027
C        -1.2138    1.9066   -0.0003   -0.0007   -0.0507   -0.0111
C         1.0023    2.5641    0.0125    0.0282   -0.0415   -0.0108
C         2.0253    3.5896    0.1094    0.0188   -0.0233   -0.0024
C        -3.3042    0.9681    0.0767   -0.0234   -0.0192    0.0029
C        -2.2782   -0.0563   -0.0113   -0.0418   -0.0285    0.0105
C        -0.6084   -5.7574    0.2030   -0.0158    0.0250    0.0050
C        -3.1245   -4.3989    0.1900   -0.0296   -0.0006   -0.0058
C        -1.8131   -6.4652    0.2658   -0.0127    0.0173    0.0056
C        -4.7020    0.9019    0.1386   -0.0249   -0.0157   -0.0055
C        -3.3382    3.4149    0.1551    0.0010   -0.0299    0.0059
C        -5.4086    2.1097    0.2138   -0.0170   -0.0125   -0.0064
C        -3.0555   -5.7944    0.2587   -0.0213    0.0011   -0.0063
C        -1.6195   -2.2729    0.0041   -0.0504    0.0007    0.0110
C        -1.9182   -3.6908    0.1037   -0.0300    0.0029    0.0028
C         3.2652    2.9200    0.1027    0.0299   -0.0029    0.0034
C         2.9671    1.5014    0.0066    0.0503   -0.0007    0.0113
C        -4.7364    3.3486    0.2202   -0.0006   -0.0213    0.0060
C         3.6255   -0.7151   -0.0006    0.0417    0.0285    0.0107
C         4.6513   -1.7396    0.0908    0.0234    0.0192    0.0026
C         2.5611   -2.6780    0.0096    0.0007    0.0506   -0.0112
C         3.9791   -2.9786    0.0994    0.0029    0.0304   -0.0031
C        -0.6787   -4.3610    0.1117   -0.0189    0.0234   -0.0029
C         0.3451   -3.3358    0.0162   -0.0282    0.0416   -0.0104
C         1.9538    4.9862    0.1974    0.0158   -0.0250    0.0056
C         4.4707    3.6292    0.1907    0.0296    0.0006   -0.0056
C         3.1581    5.6948    0.2620    0.0127   -0.0173    0.0055
C         4.4009    5.0247    0.2573    0.0214   -0.0011   -0.0068
C         6.0491   -1.6734    0.1498    0.0249    0.0157   -0.0058
C         4.6854   -4.1862    0.1668   -0.0009    0.0298    0.0057
C         6.7557   -2.8811    0.2249    0.0170    0.0124   -0.0065
C         6.0835   -4.1199    0.2324    0.0007    0.0213    0.0062
H         6.5636   -0.7119    0.1505    0.0263    0.0148   -0.0107
H         4.1595   -5.1415    0.1810   -0.0033    0.0312    0.0109
H         6.6636   -5.0424    0.2843   -0.0092    0.0153    0.0124
H        -5.2165   -0.0595    0.1415   -0.0263   -0.0149   -0.0104
H        -2.8123    4.3701    0.1706    0.0034   -0.0313    0.0110
H        -5.3164    4.2710    0.2739    0.0093   -0.0153    0.0116
H        -6.4984    2.0935    0.2595   -0.0174   -0.0006   -0.0139
H         0.3559   -6.2665    0.2241   -0.0151    0.0263    0.0104
H        -4.0801   -3.8731    0.2016   -0.0309   -0.0027   -0.0106
H        -3.9765   -6.3769    0.3099   -0.0154   -0.0087   -0.0118
H        -1.7960   -7.5547    0.3185   -0.0011    0.0178    0.0128
H         0.9891    5.4946    0.2174    0.0151   -0.0262    0.0111
H         5.4267    3.1042    0.2032    0.0308    0.0027   -0.0106
H         5.3215    5.6077    0.3106    0.0154    0.0087   -0.0131
H         3.1404    6.7843    0.3129    0.0012   -0.0178    0.0124
H         7.8456   -2.8649    0.2681    0.0174    0.0006   -0.0137
    57
stable frequency at    248.543 1/cm IR int. is 6.531 a.m.u.; force const. is 0.238 mDyne/Ang.
Fe        0.6742   -0.3860   -0.2512   -0.0007   -0.0014   -0.0014
N         3.9155    0.5774    0.0034    0.0057    0.0046   -0.0625
N         1.6364   -3.6259    0.0222    0.0009    0.0068    0.0804
N        -0.2400   -2.0716   -0.0762   -0.0018   -0.0027    0.0194
N        -1.0127    0.5279   -0.0841    0.0008    0.0070   -0.0028
N         1.5882    1.2996   -0.0761    0.0005    0.0014   -0.0209
N         2.3604   -1.2995   -0.0741    0.0050    0.0045    0.0024
N        -0.2889    2.8541    0.0151    0.0005    0.0089   -0.0791
N        -2.5678   -1.3490   -0.0039    0.0036    0.0043    0.0630
C        -2.6318    2.2074    0.0858   -0.0009    0.0094   -0.0063
C        -1.2138    1.9066   -0.0003   -0.0019    0.0105   -0.0498
C         1.0023    2.5641    0.0125   -0.0003    0.0012   -0.0130
C         2.0253    3.5896    0.1094   -0.0024   -0.0046    0.0651
C        -3.3042    0.9681    0.0767    0.0035    0.0064    0.0219
C        -2.2782   -0.0563   -0.0113    0.0050    0.0048    0.0480
C        -0.6084   -5.7574    0.2030   -0.0064   -0.0099   -0.0452
C        -3.1245   -4.3989    0.1900   -0.0045   -0.0112   -0.0383
C        -1.8131   -6.4652    0.2658   -0.0041   -0.0076    0.0335
C        -4.7020    0.9019    0.1386    0.0018    0.0026   -0.0247
C        -3.3382    3.4149    0.1551   -0.0059    0.0053    0.0347
C        -5.4086    2.1097    0.2138   -0.0048   -0.0007   -0.0366
C        -3.0555   -5.7944    0.2587   -0.0040   -0.0077    0.0413
C        -1.6195   -2.2729    0.0041   -0.0030   -0.0033    0.0014
C        -1.9182   -3.6908    0.1037   -0.0060   -0.0102   -0.0684
C         3.2652    2.9200    0.1027   -0.0029   -0.0049    0.0681
C         2.9671    1.5014    0.0066    0.0001   -0.0003   -0.0019
C        -4.7364    3.3486    0.2202   -0.0064   -0.0002    0.0298
C         3.6255   -0.7151   -0.0006    0.0095    0.0036   -0.0479
C         4.6513   -1.7396    0.0908    0.0092    0.0036   -0.0222
C         2.5611   -2.6780    0.0096    0.0012    0.0071    0.0500
C         3.9791   -2.9786    0.0994    0.0045    0.0058    0.0058
C        -0.6787   -4.3610    0.1117   -0.0049   -0.0102   -0.0650
C         0.3451   -3.3358    0.0162   -0.0013   -0.0032    0.0130
C         1.9538    4.9862    0.1974   -0.0019   -0.0034    0.0456
C         4.4707    3.6292    0.1907   -0.0017   -0.0038    0.0385
C         3.1581    5.6948    0.2620    0.0001    0.0001   -0.0321
C         4.4009    5.0247    0.2573    0.0001    0.0000   -0.0396
C         6.0491   -1.6734    0.1498    0.0085   -0.0021    0.0249
C         4.6854   -4.1862    0.1668    0.0019    0.0022   -0.0353
C         6.7557   -2.8811    0.2249    0.0033   -0.0049    0.0382
C         6.0835   -4.1199    0.2324    0.0018   -0.0044   -0.0286
H         6.5636   -0.7119    0.1505    0.0127   -0.0043    0.0489
H         4.1595   -5.1415    0.1810   -0.0018    0.0038   -0.0595
H         6.6636   -5.0424    0.2843   -0.0010   -0.0076   -0.0560
H        -5.2165   -0.0595    0.1415    0.0054    0.0006   -0.0490
H        -2.8123    4.3701    0.1706   -0.0102    0.0074    0.0581
H        -5.3164    4.2710    0.2739   -0.0084   -0.0030    0.0587
H        -6.4984    2.0935    0.2595   -0.0067   -0.0041   -0.0801
H         0.3559   -6.2665    0.2241   -0.0063   -0.0101   -0.0479
H        -4.0801   -3.8731    0.2016   -0.0047   -0.0115   -0.0356
H        -3.9765   -6.3769    0.3099   -0.0031   -0.0034    0.1097
H        -1.7960   -7.5547    0.3185   -0.0013   -0.0046    0.0930
H         0.9891    5.4946    0.2174   -0.0017   -0.0031    0.0477
H         5.4267    3.1042    0.2032   -0.0015   -0.0035    0.0352
H         5.3215    5.6077    0.3106    0.0016    0.0035   -0.1073
H         3.1404    6.7843    0.3129    0.0022    0.0030   -0.0916
H         7.8456   -2.8649    0.2681    0.0016   -0.0074    0.0825
    57
stable frequency at    249.679 1/cm IR int. is 6.491 a.m.u.; force const. is 0.238 mDyne/Ang.
Fe        0.6742   -0.3860   -0.2512   -0.0017    0.0000   -0.0016
N         3.9155    0.5774    0.0034    0.0089    0.0009   -0.0791
N         1.6364   -3.6259    0.0222    0.0047   -0.0056   -0.0616
N        -0.2400   -2.0716   -0.0762    0.0028   -0.0062   -0.0017
N        -1.0127    0.5279   -0.0841   -0.0032    0.0031    0.0204
N         1.5882    1.2996   -0.0761    0.0064   -0.0004    0.0003
N         2.3604   -1.2995   -0.0741    0.0036   -0.0003   -0.0226
N        -0.2889    2.8541    0.0151    0.0037   -0.0028    0.0613
N        -2.5678   -1.3490   -0.0039    0.0052    0.0002    0.0796
C        -2.6318    2.2074    0.0858   -0.0101    0.0082   -0.0694
C        -1.2138    1.9066   -0.0003   -0.0036    0.0048    0.0008
C         1.0023    2.5641    0.0125    0.0044   -0.0045    0.0480
C         2.0253    3.5896    0.1094    0.0064   -0.0026    0.0200
C        -3.3042    0.9681    0.0767   -0.0097    0.0067   -0.0661
C        -2.2782   -0.0563   -0.0113   -0.0036    0.0023    0.0127
C        -0.6084   -5.7574    0.2030   -0.0039   -0.0092    0.0266
C        -3.1245   -4.3989    0.1900    0.0006   -0.0049   -0.0336
C        -1.8131   -6.4652    0.2658   -0.0064   -0.0051    0.0380
C        -4.7020    0.9019    0.1386   -0.0098    0.0075   -0.0450
C        -3.3382    3.4149    0.1551   -0.0130    0.0062   -0.0378
C        -5.4086    2.1097    0.2138   -0.0088    0.0038    0.0347
C        -3.0555   -5.7944    0.2587   -0.0057   -0.0049   -0.0286
C        -1.6195   -2.2729    0.0041    0.0049   -0.0017    0.0485
C        -1.9182   -3.6908    0.1037    0.0041   -0.0058    0.0078
C         3.2652    2.9200    0.1027    0.0091    0.0018   -0.0078
C         2.9671    1.5014    0.0066    0.0100    0.0027   -0.0487
C        -4.7364    3.3486    0.2202   -0.0098    0.0041    0.0425
C         3.6255   -0.7151   -0.0006    0.0035    0.0008   -0.0138
C         4.6513   -1.7396    0.0908   -0.0010    0.0028    0.0652
C         2.5611   -2.6780    0.0096    0.0014    0.0000   -0.0021
C         3.9791   -2.9786    0.0994   -0.0021    0.0033    0.0689
C        -0.6787   -4.3610    0.1117    0.0025   -0.0106   -0.0200
C         0.3451   -3.3358    0.0162    0.0031   -0.0107   -0.0486
C         1.9538    4.9862    0.1974    0.0029    0.0000   -0.0255
C         4.4707    3.6292    0.1907    0.0049    0.0061    0.0341
C         3.1581    5.6948    0.2620   -0.0001    0.0060   -0.0349
C         4.4009    5.0247    0.2573    0.0003    0.0066    0.0312
C         6.0491   -1.6734    0.1498    0.0003    0.0007    0.0454
C         4.6854   -4.1862    0.1668   -0.0016    0.0019    0.0394
C         6.7557   -2.8811    0.2249    0.0031   -0.0024   -0.0313
C         6.0835   -4.1199    0.2324    0.0021   -0.0019   -0.0386
H         6.5636   -0.7119    0.1505    0.0013    0.0002    0.0467
H         4.1595   -5.1415    0.1810   -0.0023    0.0022    0.0359
H         6.6636   -5.0424    0.2843    0.0042   -0.0044   -0.1077
H        -5.2165   -0.0595    0.1415   -0.0096    0.0074   -0.0477
H        -2.8123    4.3701    0.1706   -0.0144    0.0071   -0.0349
H        -5.3164    4.2710    0.2739   -0.0064    0.0024    0.1118
H        -6.4984    2.0935    0.2595   -0.0062   -0.0004    0.0952
H         0.3559   -6.2665    0.2241   -0.0063   -0.0127    0.0502
H        -4.0801   -3.8731    0.2016    0.0018   -0.0020   -0.0587
H        -3.9765   -6.3769    0.3099   -0.0087   -0.0027   -0.0587
H        -1.7960   -7.5547    0.3185   -0.0085   -0.0030    0.0802
H         0.9891    5.4946    0.2174    0.0009   -0.0028   -0.0500
H         5.4267    3.1042    0.2032    0.0068    0.0098    0.0579
H         5.3215    5.6077    0.3106   -0.0020    0.0076    0.0619
H         3.1404    6.7843    0.3129   -0.0034    0.0080   -0.0768
H         7.8456   -2.8649    0.2681    0.0056   -0.0054   -0.0916
    57
stable frequency at    256.456 1/cm IR int. is 7.575 a.m.u.; force const. is 0.294 mDyne/Ang.
Fe        0.6742   -0.3860   -0.2512   -0.0001   -0.0002    0.0102
N         3.9155    0.5774    0.0034   -0.0121   -0.0032   -0.0194
N         1.6364   -3.6259    0.0222   -0.0030    0.0131   -0.0065
N        -0.2400   -2.0716   -0.0762    0.0150    0.0258    0.0037
N        -1.0127    0.5279   -0.0841    0.0266   -0.0139    0.0056
N         1.5882    1.2996   -0.0761   -0.0141   -0.0265   -0.0004
N         2.3604   -1.2995   -0.0741   -0.0263    0.0152    0.0040
N        -0.2889    2.8541    0.0151    0.0041   -0.0129   -0.0039
N        -2.5678   -1.3490   -0.0039    0.0145    0.0041    0.0082
C        -2.6318    2.2074    0.0858    0.0339   -0.0205   -0.0051
C        -1.2138    1.9066   -0.0003    0.0202   -0.0197   -0.0032
C         1.0023    2.5641    0.0125   -0.0058   -0.0290    0.0033
C         2.0253    3.5896    0.1094   -0.0171   -0.0380    0.0092
C        -3.3042    0.9681    0.0767    0.0366   -0.0164   -0.0033
C        -2.2782   -0.0563   -0.0113    0.0287   -0.0056    0.0047
C        -0.6084   -5.7574    0.2030    0.0305    0.0423   -0.0012
C        -3.1245   -4.3989    0.1900    0.0196    0.0497   -0.0056
C        -1.8131   -6.4652    0.2658    0.0279    0.0518    0.0004
C        -4.7020    0.9019    0.1386    0.0432   -0.0303   -0.0067
C        -3.3382    3.4149    0.1551    0.0492   -0.0187   -0.0012
C        -5.4086    2.1097    0.2138    0.0517   -0.0284   -0.0045
C        -3.0555   -5.7944    0.2587    0.0270    0.0526   -0.0061
C        -1.6195   -2.2729    0.0041    0.0215    0.0202    0.0052
C        -1.9182   -3.6908    0.1037    0.0222    0.0337   -0.0016
C         3.2652    2.9200    0.1027   -0.0214   -0.0353    0.0066
C         2.9671    1.5014    0.0066   -0.0200   -0.0202   -0.0072
C        -4.7364    3.3486    0.2202    0.0522   -0.0273    0.0011
C         3.6255   -0.7151   -0.0006   -0.0278    0.0068   -0.0033
C         4.6513   -1.7396    0.0908   -0.0370    0.0184    0.0093
C         2.5611   -2.6780    0.0096   -0.0205    0.0217    0.0047
C         3.9791   -2.9786    0.0994   -0.0351    0.0230    0.0104
C        -0.6787   -4.3610    0.1117    0.0176    0.0353   -0.0058
C         0.3451   -3.3358    0.0162    0.0066    0.0271   -0.0057
C         1.9538    4.9862    0.1974   -0.0312   -0.0443   -0.0001
C         4.4707    3.6292    0.1907   -0.0194   -0.0508    0.0080
C         3.1581    5.6948    0.2620   -0.0288   -0.0522   -0.0137
C         4.4009    5.0247    0.2573   -0.0278   -0.0531   -0.0057
C         6.0491   -1.6734    0.1498   -0.0436    0.0315    0.0066
C         4.6854   -4.1862    0.1668   -0.0511    0.0201   -0.0019
C         6.7557   -2.8811    0.2249   -0.0525    0.0283   -0.0081
C         6.0835   -4.1199    0.2324   -0.0535    0.0273   -0.0147
H         6.5636   -0.7119    0.1505   -0.0472    0.0332    0.0092
H         4.1595   -5.1415    0.1810   -0.0556    0.0231   -0.0057
H         6.6636   -5.0424    0.2843   -0.0473    0.0305   -0.0254
H        -5.2165   -0.0595    0.1415    0.0472   -0.0323   -0.0087
H        -2.8123    4.3701    0.1706    0.0529   -0.0213    0.0008
H        -5.3164    4.2710    0.2739    0.0463   -0.0311    0.0044
H        -6.4984    2.0935    0.2595    0.0517   -0.0227   -0.0039
H         0.3559   -6.2665    0.2241    0.0320    0.0455    0.0010
H        -4.0801   -3.8731    0.2016    0.0226    0.0542   -0.0076
H        -3.9765   -6.3769    0.3099    0.0303    0.0469   -0.0106
H        -1.7960   -7.5547    0.3185    0.0214    0.0521    0.0064
H         0.9891    5.4946    0.2174   -0.0332   -0.0483   -0.0030
H         5.4267    3.1042    0.2032   -0.0220   -0.0545    0.0112
H         5.3215    5.6077    0.3106   -0.0314   -0.0465   -0.0137
H         3.1404    6.7843    0.3129   -0.0225   -0.0515   -0.0275
H         7.8456   -2.8649    0.2681   -0.0523    0.0213   -0.0141
    57
stable frequency at    297.951 1/cm IR int. is 6.878 a.m.u.; force const. is 0.360 mDyne/Ang.
Fe        0.6742   -0.3860   -0.2512   -0.0003   -0.0006   -0.0381
N         3.9155    0.5774    0.0034   -0.0047   -0.0001    0.0739
N         1.6364   -3.6259    0.0222   -0.0018    0.0047    0.0605
N        -0.2400   -2.0716   -0.0762    0.0008    0.0068    0.0429
N        -1.0127    0.5279   -0.0841    0.0047   -0.0024    0.0160
N         1.5882    1.2996   -0.0761   -0.0039   -0.0025    0.0082
N         2.3604   -1.2995   -0.0741   -0.0030    0.0024    0.0267
N        -0.2889    2.8541    0.0151   -0.0005   -0.0033    0.0796
N        -2.5678   -1.3490   -0.0039    0.0012    0.0019    0.0666
C        -2.6318    2.2074    0.0858    0.0014   -0.0010   -0.0412
C        -1.2138    1.9066   -0.0003    0.0026   -0.0034    0.0266
C         1.0023    2.5641    0.0125   -0.0018   -0.0024    0.0227
C         2.0253    3.5896    0.1094   -0.0018    0.0010   -0.0401
C        -3.3042    0.9681    0.0767    0.0020   -0.0000   -0.0453
C        -2.2782   -0.0563   -0.0113    0.0040   -0.0002    0.0189
C        -0.6084   -5.7574    0.2030    0.0012    0.0022   -0.0492
C        -3.1245   -4.3989    0.1900   -0.0017    0.0003   -0.0503
C        -1.8131   -6.4652    0.2658    0.0034    0.0065    0.0333
C        -4.7020    0.9019    0.1386    0.0035   -0.0029   -0.0402
C        -3.3382    3.4149    0.1551    0.0039   -0.0006   -0.0431
C        -5.4086    2.1097    0.2138    0.0082   -0.0049    0.0294
C        -3.0555   -5.7944    0.2587    0.0024    0.0048    0.0310
C        -1.6195   -2.2729    0.0041    0.0008    0.0033    0.0330
C        -1.9182   -3.6908    0.1037   -0.0016   -0.0003   -0.0469
C         3.2652    2.9200    0.1027   -0.0031    0.0006   -0.0415
C         2.9671    1.5014    0.0066   -0.0051   -0.0016    0.0194
C        -4.7364    3.3486    0.2202    0.0076   -0.0043    0.0240
C         3.6255   -0.7151   -0.0006   -0.0027    0.0007    0.0299
C         4.6513   -1.7396    0.0908    0.0011   -0.0007   -0.0416
C         2.5611   -2.6780    0.0096   -0.0015    0.0027    0.0219
C         3.9791   -2.9786    0.0994    0.0016   -0.0005   -0.0462
C        -0.6787   -4.3610    0.1117   -0.0015    0.0012   -0.0489
C         0.3451   -3.3358    0.0162   -0.0006    0.0058    0.0292
C         1.9538    4.9862    0.1974   -0.0023    0.0005   -0.0406
C         4.4707    3.6292    0.1907   -0.0022   -0.0030   -0.0392
C         3.1581    5.6948    0.2620   -0.0026   -0.0052    0.0239
C         4.4009    5.0247    0.2573   -0.0031   -0.0066    0.0260
C         6.0491   -1.6734    0.1498    0.0009   -0.0002   -0.0452
C         4.6854   -4.1862    0.1668    0.0006   -0.0005   -0.0431
C         6.7557   -2.8811    0.2249   -0.0029    0.0019    0.0254
C         6.0835   -4.1199    0.2324   -0.0030    0.0020    0.0306
H         6.5636   -0.7119    0.1505    0.0014   -0.0005   -0.0582
H         4.1595   -5.1415    0.1810    0.0007   -0.0007   -0.0535
H         6.6636   -5.0424    0.2843   -0.0053    0.0037    0.0881
H        -5.2165   -0.0595    0.1415    0.0040   -0.0031   -0.0491
H        -2.8123    4.3701    0.1706    0.0042   -0.0006   -0.0547
H        -5.3164    4.2710    0.2739    0.0085   -0.0064    0.0706
H        -6.4984    2.0935    0.2595    0.0106   -0.0058    0.0831
H         0.3559   -6.2665    0.2241    0.0019    0.0030   -0.0629
H        -4.0801   -3.8731    0.2016   -0.0023   -0.0006   -0.0655
H        -3.9765   -6.3769    0.3099    0.0046    0.0062    0.0880
H        -1.7960   -7.5547    0.3185    0.0055    0.0095    0.0935
H         0.9891    5.4946    0.2174   -0.0019    0.0017   -0.0510
H         5.4267    3.1042    0.2032   -0.0031   -0.0047   -0.0487
H         5.3215    5.6077    0.3106   -0.0040   -0.0095    0.0740
H         3.1404    6.7843    0.3129   -0.0018   -0.0074    0.0698
H         7.8456   -2.8649    0.2681   -0.0049    0.0032    0.0750
    57
stable frequency at    300.049 1/cm IR int. is 7.713 a.m.u.; force const. is 0.409 mDyne/Ang.
Fe        0.6742   -0.3860   -0.2512    0.0104   -0.0031   -0.0017
N         3.9155    0.5774    0.0034    0.0371   -0.0058    0.0284
N         1.6364   -3.6259    0.0222    0.0288   -0.0154    0.0198
N        -0.2400   -2.0716   -0.0762    0.0405   -0.0264    0.0031
N        -1.0127    0.5279   -0.0841   -0.0155    0.0184    0.0224
N         1.5882    1.2996   -0.0761    0.0404   -0.0268   -0.0013
N         2.3604   -1.2995   -0.0741   -0.0159    0.0187   -0.0201
N        -0.2889    2.8541    0.0151    0.0289   -0.0158   -0.0131
N        -2.5678   -1.3490   -0.0039    0.0374   -0.0058   -0.0217
C        -2.6318    2.2074    0.0858   -0.0283    0.0288    0.0002
C        -1.2138    1.9066   -0.0003   -0.0105    0.0195    0.0083
C         1.0023    2.5641    0.0125    0.0295   -0.0370   -0.0112
C         2.0253    3.5896    0.1094    0.0308   -0.0391   -0.0088
C        -3.3042    0.9681    0.0767   -0.0274    0.0199   -0.0011
C        -2.2782   -0.0563   -0.0113   -0.0095    0.0091    0.0036
C        -0.6084   -5.7574    0.2030    0.0011   -0.0472   -0.0022
C        -3.1245   -4.3989    0.1900    0.0341    0.0061    0.0009
C        -1.8131   -6.4652    0.2658   -0.0146   -0.0241   -0.0032
C        -4.7020    0.9019    0.1386   -0.0354    0.0352   -0.0010
C        -3.3382    3.4149    0.1551   -0.0548    0.0238   -0.0027
C        -5.4086    2.1097    0.2138   -0.0525    0.0291    0.0081
C        -3.0555   -5.7944    0.2587    0.0015    0.0051    0.0071
C        -1.6195   -2.2729    0.0041    0.0432   -0.0088   -0.0110
C        -1.9182   -3.6908    0.1037    0.0423   -0.0153   -0.0063
C         3.2652    2.9200    0.1027    0.0422   -0.0153    0.0025
C         2.9671    1.5014    0.0066    0.0429   -0.0089    0.0134
C        -4.7364    3.3486    0.2202   -0.0590    0.0302    0.0059
C         3.6255   -0.7151   -0.0006   -0.0098    0.0092   -0.0013
C         4.6513   -1.7396    0.0908   -0.0274    0.0199   -0.0036
C         2.5611   -2.6780    0.0096   -0.0107    0.0198   -0.0060
C         3.9791   -2.9786    0.0994   -0.0283    0.0288   -0.0049
C        -0.6787   -4.3610    0.1117    0.0308   -0.0390    0.0051
C         0.3451   -3.3358    0.0162    0.0295   -0.0366    0.0136
C         1.9538    4.9862    0.1974    0.0009   -0.0474   -0.0017
C         4.4707    3.6292    0.1907    0.0341    0.0059   -0.0047
C         3.1581    5.6948    0.2620   -0.0150   -0.0247    0.0057
C         4.4009    5.0247    0.2573    0.0012    0.0045   -0.0046
C         6.0491   -1.6734    0.1498   -0.0355    0.0353   -0.0037
C         4.6854   -4.1862    0.1668   -0.0550    0.0237   -0.0019
C         6.7557   -2.8811    0.2249   -0.0532    0.0295   -0.0049
C         6.0835   -4.1199    0.2324   -0.0596    0.0305   -0.0027
H         6.5636   -0.7119    0.1505   -0.0383    0.0364   -0.0033
H         4.1595   -5.1415    0.1810   -0.0655    0.0303   -0.0006
H         6.6636   -5.0424    0.2843   -0.0548    0.0336   -0.0034
H        -5.2165   -0.0595    0.1415   -0.0381    0.0363   -0.0030
H        -2.8123    4.3701    0.1706   -0.0653    0.0303   -0.0054
H        -5.3164    4.2710    0.2739   -0.0540    0.0330    0.0120
H        -6.4984    2.0935    0.2595   -0.0522    0.0149    0.0135
H         0.3559   -6.2665    0.2241   -0.0112   -0.0708   -0.0046
H        -4.0801   -3.8731    0.2016    0.0464    0.0283    0.0016
H        -3.9765   -6.3769    0.3099   -0.0129    0.0286    0.0144
H        -1.7960   -7.5547    0.3185   -0.0387   -0.0248   -0.0089
H         0.9891    5.4946    0.2174   -0.0115   -0.0710   -0.0004
H         5.4267    3.1042    0.2032    0.0463    0.0280   -0.0066
H         5.3215    5.6077    0.3106   -0.0134    0.0278   -0.0075
H         3.1404    6.7843    0.3129   -0.0391   -0.0257    0.0159
H         7.8456   -2.8649    0.2681   -0.0531    0.0154   -0.0049
    57
stable frequency at    300.114 1/cm IR int. is 7.766 a.m.u.; force const. is 0.412 mDyne/Ang.
Fe        0.6742   -0.3860   -0.2512    0.0025    0.0093    0.0019
N         3.9155    0.5774    0.0034    0.0152    0.0284    0.0200
N         1.6364   -3.6259    0.0222    0.0057    0.0359   -0.0317
N        -0.2400   -2.0716   -0.0762   -0.0181   -0.0145    0.0318
N        -1.0127    0.5279   -0.0841    0.0261    0.0399   -0.0024
N         1.5882    1.2996   -0.0761   -0.0179   -0.0141   -0.0339
N         2.3604   -1.2995   -0.0741    0.0265    0.0396    0.0002
N        -0.2889    2.8541    0.0151    0.0055    0.0364    0.0250
N        -2.5678   -1.3490   -0.0039    0.0150    0.0283   -0.0268
C        -2.6318    2.2074    0.0858    0.0151    0.0412    0.0090
C        -1.2138    1.9066   -0.0003    0.0087    0.0422    0.0142
C         1.0023    2.5641    0.0125   -0.0089   -0.0088   -0.0083
C         2.0253    3.5896    0.1094   -0.0196   -0.0265    0.0020
C        -3.3042    0.9681    0.0767    0.0383    0.0301   -0.0054
C        -2.2782   -0.0563   -0.0113    0.0361    0.0291   -0.0163
C        -0.6084   -5.7574    0.2030   -0.0346   -0.0348   -0.0003
C        -3.1245   -4.3989    0.1900   -0.0234   -0.0541   -0.0010
C        -1.8131   -6.4652    0.2658   -0.0286   -0.0518    0.0072
C        -4.7020    0.9019    0.1386    0.0463    0.0008    0.0046
C        -3.3382    3.4149    0.1551   -0.0059    0.0333   -0.0019
C        -5.4086    2.1097    0.2138    0.0238   -0.0145    0.0055
C        -3.0555   -5.7944    0.2587   -0.0297   -0.0582    0.0066
C        -1.6195   -2.2729    0.0041   -0.0196   -0.0100    0.0082
C        -1.9182   -3.6908    0.1037   -0.0284   -0.0276    0.0026
C         3.2652    2.9200    0.1027   -0.0283   -0.0275    0.0014
C         2.9671    1.5014    0.0066   -0.0193   -0.0097   -0.0108
C        -4.7364    3.3486    0.2202   -0.0050    0.0017   -0.0099
C         3.6255   -0.7151   -0.0006    0.0363    0.0291    0.0142
C         4.6513   -1.7396    0.0908    0.0384    0.0301    0.0100
C         2.5611   -2.6780    0.0096    0.0089    0.0418   -0.0166
C         3.9791   -2.9786    0.0994    0.0152    0.0412   -0.0047
C        -0.6787   -4.3610    0.1117   -0.0197   -0.0267    0.0022
C         0.3451   -3.3358    0.0162   -0.0089   -0.0093    0.0061
C         1.9538    4.9862    0.1974   -0.0344   -0.0345    0.0045
C         4.4707    3.6292    0.1907   -0.0233   -0.0538    0.0052
C         3.1581    5.6948    0.2620   -0.0282   -0.0510   -0.0102
C         4.4009    5.0247    0.2573   -0.0293   -0.0575   -0.0093
C         6.0491   -1.6734    0.1498    0.0464    0.0006   -0.0002
C         4.6854   -4.1862    0.1668   -0.0056    0.0332    0.0059
C         6.7557   -2.8811    0.2249    0.0245   -0.0149   -0.0088
C         6.0835   -4.1199    0.2324   -0.0043    0.0012    0.0067
H         6.5636   -0.7119    0.1505    0.0693   -0.0116   -0.0022
H         4.1595   -5.1415    0.1810   -0.0272    0.0453    0.0097
H         6.6636   -5.0424    0.2843   -0.0274   -0.0129    0.0134
H        -5.2165   -0.0595    0.1415    0.0691   -0.0114    0.0082
H        -2.8123    4.3701    0.1706   -0.0275    0.0454   -0.0042
H        -5.3164    4.2710    0.2739   -0.0282   -0.0123   -0.0212
H        -6.4984    2.0935    0.2595    0.0246   -0.0381    0.0133
H         0.3559   -6.2665    0.2241   -0.0355   -0.0374   -0.0031
H        -4.0801   -3.8731    0.2016   -0.0300   -0.0646   -0.0039
H        -3.9765   -6.3769    0.3099   -0.0324   -0.0533    0.0121
H        -1.7960   -7.5547    0.3185   -0.0146   -0.0515    0.0105
H         0.9891    5.4946    0.2174   -0.0352   -0.0371    0.0086
H         5.4267    3.1042    0.2032   -0.0299   -0.0642    0.0096
H         5.3215    5.6077    0.3106   -0.0318   -0.0525   -0.0196
H         3.1404    6.7843    0.3129   -0.0141   -0.0505   -0.0185
H         7.8456   -2.8649    0.2681    0.0254   -0.0386   -0.0220
    57
stable frequency at    306.077 1/cm IR int. is 8.041 a.m.u.; force const. is 0.444 mDyne/Ang.
Fe        0.6742   -0.3860   -0.2512    0.0024    0.0188   -0.0044
N         3.9155    0.5774    0.0034    0.0035    0.0042   -0.0150
N         1.6364   -3.6259    0.0222   -0.0022    0.0130    0.0638
N        -0.2400   -2.0716   -0.0762   -0.0083   -0.0080   -0.1026
N        -1.0127    0.5279   -0.0841    0.0081    0.0067    0.0327
N         1.5882    1.2996   -0.0761   -0.0105   -0.0116    0.1313
N         2.3604   -1.2995   -0.0741    0.0092    0.0059   -0.0515
N        -0.2889    2.8541    0.0151   -0.0018    0.0119   -0.0489
N        -2.5678   -1.3490   -0.0039    0.0043    0.0048    0.0330
C        -2.6318    2.2074    0.0858    0.0047    0.0078   -0.0242
C        -1.2138    1.9066   -0.0003    0.0018    0.0091   -0.0133
C         1.0023    2.5641    0.0125   -0.0063   -0.0035    0.0327
C         2.0253    3.5896    0.1094   -0.0063   -0.0057   -0.0396
C        -3.3042    0.9681    0.0767    0.0114    0.0044    0.0050
C        -2.2782   -0.0563   -0.0113    0.0105    0.0035    0.0358
C        -0.6084   -5.7574    0.2030   -0.0091   -0.0064    0.0249
C        -3.1245   -4.3989    0.1900   -0.0061   -0.0124    0.0336
C        -1.8131   -6.4652    0.2658   -0.0085   -0.0146   -0.0249
C        -4.7020    0.9019    0.1386    0.0123   -0.0019   -0.0242
C        -3.3382    3.4149    0.1551    0.0032    0.0059   -0.0033
C        -5.4086    2.1097    0.2138    0.0096   -0.0053   -0.0100
C        -3.0555   -5.7944    0.2587   -0.0085   -0.0162   -0.0105
C        -1.6195   -2.2729    0.0041   -0.0051   -0.0060   -0.0380
C        -1.9182   -3.6908    0.1037   -0.0081   -0.0072    0.0110
C         3.2652    2.9200    0.1027   -0.0088   -0.0077   -0.0268
C         2.9671    1.5014    0.0066   -0.0069   -0.0081    0.0546
C        -4.7364    3.3486    0.2202    0.0056   -0.0028    0.0287
C         3.6255   -0.7151   -0.0006    0.0107    0.0029   -0.0410
C         4.6513   -1.7396    0.0908    0.0110    0.0047   -0.0127
C         2.5611   -2.6780    0.0096    0.0020    0.0094    0.0098
C         3.9791   -2.9786    0.0994    0.0038    0.0083    0.0204
C        -0.6787   -4.3610    0.1117   -0.0062   -0.0049    0.0216
C         0.3451   -3.3358    0.0162   -0.0056   -0.0008   -0.0196
C         1.9538    4.9862    0.1974   -0.0102   -0.0079   -0.0453
C         4.4707    3.6292    0.1907   -0.0066   -0.0140   -0.0538
C         3.1581    5.6948    0.2620   -0.0103   -0.0181    0.0405
C         4.4009    5.0247    0.2573   -0.0104   -0.0193    0.0240
C         6.0491   -1.6734    0.1498    0.0117   -0.0007    0.0216
C         4.6854   -4.1862    0.1668    0.0015    0.0064    0.0072
C         6.7557   -2.8811    0.2249    0.0079   -0.0038    0.0148
C         6.0835   -4.1199    0.2324    0.0034   -0.0016   -0.0235
H         6.5636   -0.7119    0.1505    0.0159   -0.0029    0.0384
H         4.1595   -5.1415    0.1810   -0.0022    0.0084    0.0057
H         6.6636   -5.0424    0.2843    0.0003   -0.0061   -0.0697
H        -5.2165   -0.0595    0.1415    0.0164   -0.0041   -0.0422
H        -2.8123    4.3701    0.1706   -0.0004    0.0078    0.0001
H        -5.3164    4.2710    0.2739    0.0018   -0.0073    0.0675
H        -6.4984    2.0935    0.2595    0.0093   -0.0090   -0.0182
H         0.3559   -6.2665    0.2241   -0.0090   -0.0061    0.0363
H        -4.0801   -3.8731    0.2016   -0.0073   -0.0146    0.0540
H        -3.9765   -6.3769    0.3099   -0.0095   -0.0164   -0.0320
H        -1.7960   -7.5547    0.3185   -0.0051   -0.0166   -0.0652
H         0.9891    5.4946    0.2174   -0.0104   -0.0076   -0.0653
H         5.4267    3.1042    0.2032   -0.0076   -0.0161   -0.0829
H         5.3215    5.6077    0.3106   -0.0122   -0.0203    0.0677
H         3.1404    6.7843    0.3129   -0.0074   -0.0212    0.1055
H         7.8456   -2.8649    0.2681    0.0075   -0.0081    0.0255
    57
stable frequency at    309.437 1/cm IR int. is 8.080 a.m.u.; force const. is 0.456 mDyne/Ang.
Fe        0.6742   -0.3860   -0.2512   -0.0230    0.0032    0.0002
N         3.9155    0.5774    0.0034   -0.0086   -0.0044    0.0557
N         1.6364   -3.6259    0.0222   -0.0012    0.0019    0.0275
N        -0.2400   -2.0716   -0.0762   -0.0015    0.0079    0.0522
N        -1.0127    0.5279   -0.0841    0.0050   -0.0083    0.1089
N         1.5882    1.2996   -0.0761   -0.0025    0.0059   -0.0337
N         2.3604   -1.2995   -0.0741    0.0065   -0.0095   -0.1284
N        -0.2889    2.8541    0.0151   -0.0011    0.0023   -0.0297
N        -2.5678   -1.3490   -0.0039   -0.0084   -0.0043   -0.0585
C        -2.6318    2.2074    0.0858    0.0055   -0.0074   -0.0149
C        -1.2138    1.9066   -0.0003    0.0053   -0.0050    0.0417
C         1.0023    2.5641    0.0125    0.0004    0.0072   -0.0367
C         2.0253    3.5896    0.1094    0.0000    0.0076   -0.0087
C        -3.3042    0.9681    0.0767    0.0028   -0.0059   -0.0264
C        -2.2782   -0.0563   -0.0113   -0.0005   -0.0063    0.0235
C        -0.6084   -5.7574    0.2030    0.0033    0.0078   -0.0292
C        -3.1245   -4.3989    0.1900   -0.0009    0.0061   -0.0079
C        -1.8131   -6.4652    0.2658    0.0042    0.0090   -0.0086
C        -4.7020    0.9019    0.1386    0.0040   -0.0071   -0.0317
C        -3.3382    3.4149    0.1551    0.0103   -0.0057   -0.0384
C        -5.4086    2.1097    0.2138    0.0121   -0.0074    0.0307
C        -3.0555   -5.7944    0.2587    0.0037    0.0089    0.0326
C        -1.6195   -2.2729    0.0041   -0.0035    0.0014   -0.0094
C        -1.9182   -3.6908    0.1037   -0.0016    0.0033   -0.0272
C         3.2652    2.9200    0.1027   -0.0020    0.0029    0.0232
C         2.9671    1.5014    0.0066   -0.0042    0.0003    0.0155
C        -4.7364    3.3486    0.2202    0.0141   -0.0076    0.0165
C         3.6255   -0.7151   -0.0006   -0.0001   -0.0069   -0.0313
C         4.6513   -1.7396    0.0908    0.0020   -0.0055    0.0336
C         2.5611   -2.6780    0.0096    0.0059   -0.0056   -0.0492
C         3.9791   -2.9786    0.0994    0.0047   -0.0071    0.0219
C        -0.6787   -4.3610    0.1117    0.0002    0.0081    0.0046
C         0.3451   -3.3358    0.0162    0.0008    0.0083    0.0430
C         1.9538    4.9862    0.1974    0.0026    0.0071    0.0222
C         4.4707    3.6292    0.1907   -0.0013    0.0053    0.0014
C         3.1581    5.6948    0.2620    0.0034    0.0076    0.0136
C         4.4009    5.0247    0.2573    0.0028    0.0076   -0.0273
C         6.0491   -1.6734    0.1498    0.0031   -0.0064    0.0409
C         4.6854   -4.1862    0.1668    0.0092   -0.0055    0.0473
C         6.7557   -2.8811    0.2249    0.0116   -0.0071   -0.0365
C         6.0835   -4.1199    0.2324    0.0135   -0.0076   -0.0222
H         6.5636   -0.7119    0.1505    0.0019   -0.0056    0.0603
H         4.1595   -5.1415    0.1810    0.0111   -0.0063    0.0740
H         6.6636   -5.0424    0.2843    0.0152   -0.0087   -0.0613
H        -5.2165   -0.0595    0.1415    0.0028   -0.0064   -0.0478
H        -2.8123    4.3701    0.1706    0.0126   -0.0067   -0.0625
H        -5.3164    4.2710    0.2739    0.0152   -0.0086    0.0457
H        -6.4984    2.0935    0.2595    0.0142   -0.0046    0.0784
H         0.3559   -6.2665    0.2241    0.0041    0.0084   -0.0505
H        -4.0801   -3.8731    0.2016   -0.0009    0.0060   -0.0066
H        -3.9765   -6.3769    0.3099    0.0063    0.0085    0.0779
H        -1.7960   -7.5547    0.3185    0.0047    0.0087   -0.0139
H         0.9891    5.4946    0.2174    0.0032    0.0077    0.0390
H         5.4267    3.1042    0.2032   -0.0012    0.0053   -0.0043
H         5.3215    5.6077    0.3106    0.0054    0.0068   -0.0657
H         3.1404    6.7843    0.3129    0.0038    0.0071    0.0259
H         7.8456   -2.8649    0.2681    0.0140   -0.0049   -0.0951
    57
stable frequency at    313.541 1/cm IR int. is 7.048 a.m.u.; force const. is 0.408 mDyne/Ang.
Fe        0.6742   -0.3860   -0.2512   -0.0027    0.0044   -0.0007
N         3.9155    0.5774    0.0034   -0.0001   -0.0001    0.0063
N         1.6364   -3.6259    0.0222   -0.0004    0.0016    0.0117
N        -0.2400   -2.0716   -0.0762   -0.0063   -0.0103   -0.1019
N        -1.0127    0.5279   -0.0841    0.0100   -0.0055    0.1099
N         1.5882    1.2996   -0.0761    0.0040    0.0095   -0.0830
N         2.3604   -1.2995   -0.0741   -0.0074    0.0052    0.0768
N        -0.2889    2.8541    0.0151   -0.0003    0.0016   -0.0062
N        -2.5678   -1.3490   -0.0039   -0.0008   -0.0004    0.0004
C        -2.6318    2.2074    0.0858    0.0002   -0.0004   -0.0317
C        -1.2138    1.9066   -0.0003    0.0052   -0.0025    0.0399
C         1.0023    2.5641    0.0125    0.0019    0.0060   -0.0361
C         2.0253    3.5896    0.1094   -0.0012    0.0004    0.0190
C        -3.3042    0.9681    0.0767    0.0016    0.0007   -0.0292
C        -2.2782   -0.0563   -0.0113    0.0057   -0.0031    0.0438
C        -0.6084   -5.7574    0.2030   -0.0015   -0.0016    0.0413
C        -3.1245   -4.3989    0.1900   -0.0021   -0.0017    0.0439
C        -1.8131   -6.4652    0.2658   -0.0021   -0.0050   -0.0307
C        -4.7020    0.9019    0.1386    0.0028   -0.0005   -0.0486
C        -3.3382    3.4149    0.1551    0.0016   -0.0008   -0.0470
C        -5.4086    2.1097    0.2138    0.0056   -0.0024    0.0295
C        -3.0555   -5.7944    0.2587   -0.0034   -0.0041   -0.0249
C        -1.6195   -2.2729    0.0041   -0.0041   -0.0062   -0.0417
C        -1.9182   -3.6908    0.1037   -0.0021   -0.0004    0.0232
C         3.2652    2.9200    0.1027   -0.0002   -0.0013    0.0241
C         2.9671    1.5014    0.0066    0.0021    0.0041   -0.0277
C        -4.7364    3.3486    0.2202    0.0043   -0.0035    0.0327
C         3.6255   -0.7151   -0.0006   -0.0035    0.0019    0.0289
C         4.6513   -1.7396    0.0908    0.0019   -0.0016   -0.0264
C         2.5611   -2.6780    0.0096   -0.0037    0.0035    0.0331
C         3.9791   -2.9786    0.0994    0.0023    0.0001   -0.0227
C        -0.6787   -4.3610    0.1117   -0.0002   -0.0005    0.0279
C         0.3451   -3.3358    0.0162   -0.0031   -0.0049   -0.0346
C         1.9538    4.9862    0.1974   -0.0007    0.0009    0.0369
C         4.4707    3.6292    0.1907    0.0003   -0.0006    0.0335
C         3.1581    5.6948    0.2620    0.0001    0.0021   -0.0199
C         4.4009    5.0247    0.2573    0.0013    0.0011   -0.0266
C         6.0491   -1.6734    0.1498    0.0011   -0.0018   -0.0357
C         4.6854   -4.1862    0.1668    0.0020    0.0006   -0.0357
C         6.7557   -2.8811    0.2249   -0.0000   -0.0004    0.0262
C         6.0835   -4.1199    0.2324    0.0009    0.0010    0.0228
H         6.5636   -0.7119    0.1505    0.0020   -0.0022   -0.0527
H         4.1595   -5.1415    0.1810    0.0025    0.0000   -0.0536
H         6.6636   -5.0424    0.2843   -0.0018    0.0012    0.0579
H        -5.2165   -0.0595    0.1415    0.0024   -0.0004   -0.0739
H        -2.8123    4.3701    0.1706    0.0012   -0.0002   -0.0702
H        -5.3164    4.2710    0.2739    0.0066   -0.0050    0.0865
H        -6.4984    2.0935    0.2595    0.0078   -0.0048    0.0796
H         0.3559   -6.2665    0.2241   -0.0017   -0.0010    0.0625
H        -4.0801   -3.8731    0.2016   -0.0017   -0.0014    0.0686
H        -3.9765   -6.3769    0.3099   -0.0040   -0.0066   -0.0656
H        -1.7960   -7.5547    0.3185   -0.0033   -0.0074   -0.0792
H         0.9891    5.4946    0.2174   -0.0005    0.0002    0.0573
H         5.4267    3.1042    0.2032   -0.0002   -0.0011    0.0505
H         5.3215    5.6077    0.3106    0.0020    0.0036   -0.0677
H         3.1404    6.7843    0.3129    0.0022    0.0038   -0.0529
H         7.8456   -2.8649    0.2681   -0.0018    0.0019    0.0682
    57
stable frequency at    355.370 1/cm IR int. is 17.018 a.m.u.; force const. is 1.266 mDyne/Ang.
Fe        0.6742   -0.3860   -0.2512   -0.0458   -0.1034    0.0012
N         3.9155    0.5774    0.0034   -0.0016    0.0228    0.0051
N         1.6364   -3.6259    0.0222    0.0164    0.0114    0.0013
N        -0.2400   -2.0716   -0.0762   -0.0100   -0.0185   -0.0157
N        -1.0127    0.5279   -0.0841    0.0015   -0.0002   -0.0020
N         1.5882    1.2996   -0.0761   -0.0098   -0.0180    0.0089
N         2.3604   -1.2995   -0.0741    0.0015   -0.0003   -0.0013
N        -0.2889    2.8541    0.0151    0.0165    0.0112    0.0039
N        -2.5678   -1.3490   -0.0039   -0.0012    0.0230    0.0017
C        -2.6318    2.2074    0.0858    0.0146    0.0338   -0.0038
C        -1.2138    1.9066   -0.0003    0.0159    0.0150   -0.0032
C         1.0023    2.5641    0.0125    0.0106   -0.0046    0.0065
C         2.0253    3.5896    0.1094    0.0057    0.0116   -0.0003
C        -3.3042    0.9681    0.0767    0.0189    0.0318    0.0042
C        -2.2782   -0.0563   -0.0113    0.0047    0.0235    0.0039
C        -0.6084   -5.7574    0.2030    0.0131    0.0181    0.0101
C        -3.1245   -4.3989    0.1900    0.0041    0.0190    0.0110
C        -1.8131   -6.4652    0.2658    0.0124    0.0210   -0.0076
C        -4.7020    0.9019    0.1386    0.0253    0.0028   -0.0031
C        -3.3382    3.4149    0.1551   -0.0140    0.0238    0.0009
C        -5.4086    2.1097    0.2138    0.0012   -0.0147   -0.0040
C        -3.0555   -5.7944    0.2587    0.0119    0.0197   -0.0076
C        -1.6195   -2.2729    0.0041   -0.0121    0.0089   -0.0093
C        -1.9182   -3.6908    0.1037    0.0013    0.0137   -0.0011
C         3.2652    2.9200    0.1027    0.0012    0.0136    0.0016
C         2.9671    1.5014    0.0066   -0.0122    0.0089    0.0095
C        -4.7364    3.3486    0.2202   -0.0156   -0.0056    0.0055
C         3.6255   -0.7151   -0.0006    0.0046    0.0234   -0.0058
C         4.6513   -1.7396    0.0908    0.0190    0.0318   -0.0086
C         2.5611   -2.6780    0.0096    0.0158    0.0151    0.0040
C         3.9791   -2.9786    0.0994    0.0145    0.0340    0.0033
C        -0.6787   -4.3610    0.1117    0.0057    0.0116   -0.0014
C         0.3451   -3.3358    0.0162    0.0105   -0.0048   -0.0095
C         1.9538    4.9862    0.1974    0.0129    0.0179   -0.0096
C         4.4707    3.6292    0.1907    0.0041    0.0187   -0.0105
C         3.1581    5.6948    0.2620    0.0122    0.0207    0.0087
C         4.4009    5.0247    0.2573    0.0117    0.0195    0.0065
C         6.0491   -1.6734    0.1498    0.0253    0.0029    0.0006
C         4.6854   -4.1862    0.1668   -0.0144    0.0240    0.0002
C         6.7557   -2.8811    0.2249    0.0008   -0.0144    0.0078
C         6.0835   -4.1199    0.2324   -0.0160   -0.0053   -0.0035
H         6.5636   -0.7119    0.1505    0.0523   -0.0115    0.0043
H         4.1595   -5.1415    0.1810   -0.0415    0.0391   -0.0027
H         6.6636   -5.0424    0.2843   -0.0314   -0.0156   -0.0165
H        -5.2165   -0.0595    0.1415    0.0521   -0.0116   -0.0084
H        -2.8123    4.3701    0.1706   -0.0413    0.0389    0.0030
H        -5.3164    4.2710    0.2739   -0.0312   -0.0157    0.0123
H        -6.4984    2.0935    0.2595    0.0013   -0.0339   -0.0097
H         0.3559   -6.2665    0.2241    0.0152    0.0228    0.0215
H        -4.0801   -3.8731    0.2016    0.0045    0.0190    0.0233
H        -3.9765   -6.3769    0.3099    0.0150    0.0141   -0.0160
H        -1.7960   -7.5547    0.3185    0.0094    0.0207   -0.0156
H         0.9891    5.4946    0.2174    0.0150    0.0226   -0.0201
H         5.4267    3.1042    0.2032    0.0044    0.0187   -0.0220
H         5.3215    5.6077    0.3106    0.0148    0.0141    0.0138
H         3.1404    6.7843    0.3129    0.0092    0.0203    0.0180
H         7.8456   -2.8649    0.2681    0.0008   -0.0336    0.0165
    57
stable frequency at    355.900 1/cm IR int. is 16.502 a.m.u.; force const. is 1.232 mDyne/Ang.
Fe        0.6742   -0.3860   -0.2512    0.1025   -0.0458   -0.0017
N         3.9155    0.5774    0.0034   -0.0112    0.0163   -0.0023
N         1.6364   -3.6259    0.0222   -0.0228   -0.0016   -0.0025
N        -0.2400   -2.0716   -0.0762    0.0005    0.0016    0.0047
N        -1.0127    0.5279   -0.0841    0.0187   -0.0103    0.0222
N         1.5882    1.2996   -0.0761    0.0005    0.0015    0.0008
N         2.3604   -1.2995   -0.0741    0.0179   -0.0100   -0.0135
N        -0.2889    2.8541    0.0151   -0.0229   -0.0010   -0.0041
N        -2.5678   -1.3490   -0.0039   -0.0117    0.0164   -0.0043
C        -2.6318    2.2074    0.0858   -0.0136    0.0011    0.0011
C        -1.2138    1.9066   -0.0003   -0.0087   -0.0123    0.0122
C         1.0023    2.5641    0.0125   -0.0233    0.0049   -0.0064
C         2.0253    3.5896    0.1094   -0.0319    0.0191   -0.0052
C        -3.3042    0.9681    0.0767   -0.0116    0.0056    0.0000
C        -2.2782   -0.0563   -0.0113    0.0047    0.0103    0.0111
C        -0.6084   -5.7574    0.2030   -0.0028    0.0252   -0.0038
C        -3.1245   -4.3989    0.1900   -0.0238   -0.0140    0.0015
C        -1.8131   -6.4652    0.2658    0.0148    0.0011   -0.0053
C        -4.7020    0.9019    0.1386   -0.0177    0.0130   -0.0131
C        -3.3382    3.4149    0.1551   -0.0186    0.0040   -0.0136
C        -5.4086    2.1097    0.2138   -0.0205    0.0120    0.0102
C        -3.0555   -5.7944    0.2587    0.0057   -0.0153    0.0075
C        -1.6195   -2.2729    0.0041   -0.0151    0.0158   -0.0039
C        -1.9182   -3.6908    0.1037   -0.0339    0.0145   -0.0055
C         3.2652    2.9200    0.1027   -0.0338    0.0145    0.0060
C         2.9671    1.5014    0.0066   -0.0148    0.0159    0.0047
C        -4.7364    3.3486    0.2202   -0.0192    0.0114    0.0090
C         3.6255   -0.7151   -0.0006    0.0044    0.0104   -0.0091
C         4.6513   -1.7396    0.0908   -0.0116    0.0056   -0.0003
C         2.5611   -2.6780    0.0096   -0.0091   -0.0122   -0.0097
C         3.9791   -2.9786    0.0994   -0.0136    0.0012   -0.0008
C        -0.6787   -4.3610    0.1117   -0.0319    0.0190    0.0052
C         0.3451   -3.3358    0.0162   -0.0234    0.0046    0.0066
C         1.9538    4.9862    0.1974   -0.0028    0.0255    0.0043
C         4.4707    3.6292    0.1907   -0.0236   -0.0138   -0.0006
C         3.1581    5.6948    0.2620    0.0147    0.0013    0.0055
C         4.4009    5.0247    0.2573    0.0058   -0.0152   -0.0076
C         6.0491   -1.6734    0.1498   -0.0177    0.0130    0.0111
C         4.6854   -4.1862    0.1668   -0.0186    0.0041    0.0121
C         6.7557   -2.8811    0.2249   -0.0206    0.0120   -0.0085
C         6.0835   -4.1199    0.2324   -0.0192    0.0115   -0.0074
H         6.5636   -0.7119    0.1505   -0.0221    0.0152    0.0230
H         4.1595   -5.1415    0.1810   -0.0186    0.0044    0.0249
H         6.6636   -5.0424    0.2843   -0.0138    0.0144   -0.0175
H        -5.2165   -0.0595    0.1415   -0.0224    0.0154   -0.0275
H        -2.8123    4.3701    0.1706   -0.0185    0.0044   -0.0290
H        -5.3164    4.2710    0.2739   -0.0137    0.0144    0.0194
H        -6.4984    2.0935    0.2595   -0.0201    0.0089    0.0213
H         0.3559   -6.2665    0.2241    0.0114    0.0520   -0.0099
H        -4.0801   -3.8731    0.2016   -0.0389   -0.0411    0.0052
H        -3.9765   -6.3769    0.3099    0.0158   -0.0307    0.0171
H        -1.7960   -7.5547    0.3185    0.0339    0.0011   -0.0128
H         0.9891    5.4946    0.2174    0.0114    0.0522    0.0107
H         5.4267    3.1042    0.2032   -0.0387   -0.0408   -0.0039
H         5.3215    5.6077    0.3106    0.0160   -0.0306   -0.0179
H         3.1404    6.7843    0.3129    0.0339    0.0014    0.0129
H         7.8456   -2.8649    0.2681   -0.0203    0.0090   -0.0182
    57
stable frequency at    359.324 1/cm IR int. is 14.730 a.m.u.; force const. is 1.121 mDyne/Ang.
Fe        0.6742   -0.3860   -0.2512    0.0053    0.0013    0.0472
N         3.9155    0.5774    0.0034   -0.0049   -0.0015    0.0797
N         1.6364   -3.6259    0.0222   -0.0028    0.0048    0.0797
N        -0.2400   -2.0716   -0.0762   -0.0023   -0.0053   -0.0895
N        -1.0127    0.5279   -0.0841   -0.0043    0.0028   -0.0908
N         1.5882    1.2996   -0.0761    0.0032    0.0064   -0.0910
N         2.3604   -1.2995   -0.0741    0.0059   -0.0037   -0.0924
N        -0.2889    2.8541    0.0151   -0.0003   -0.0057    0.0797
N        -2.5678   -1.3490   -0.0039    0.0039    0.0018    0.0797
C        -2.6318    2.2074    0.0858   -0.0007   -0.0013   -0.0023
C        -1.2138    1.9066   -0.0003   -0.0021   -0.0011   -0.0195
C         1.0023    2.5641    0.0125    0.0000    0.0009   -0.0208
C         2.0253    3.5896    0.1094   -0.0014    0.0003   -0.0032
C        -3.3042    0.9681    0.0767   -0.0006   -0.0006   -0.0030
C        -2.2782   -0.0563   -0.0113   -0.0005    0.0011   -0.0202
C        -0.6084   -5.7574    0.2030    0.0006    0.0018    0.0059
C        -3.1245   -4.3989    0.1900   -0.0005    0.0006    0.0060
C        -1.8131   -6.4652    0.2658    0.0009    0.0006   -0.0048
C        -4.7020    0.9019    0.1386   -0.0002   -0.0008    0.0067
C        -3.3382    3.4149    0.1551    0.0014   -0.0010    0.0065
C        -5.4086    2.1097    0.2138    0.0003    0.0002   -0.0048
C        -3.0555   -5.7944    0.2587    0.0005    0.0001   -0.0046
C        -1.6195   -2.2729    0.0041    0.0002   -0.0011   -0.0193
C        -1.9182   -3.6908    0.1037   -0.0010    0.0002   -0.0028
C         3.2652    2.9200    0.1027   -0.0019    0.0003   -0.0024
C         2.9671    1.5014    0.0066   -0.0006    0.0020   -0.0198
C        -4.7364    3.3486    0.2202    0.0010    0.0000   -0.0055
C         3.6255   -0.7151   -0.0006    0.0006   -0.0017   -0.0206
C         4.6513   -1.7396    0.0908   -0.0015   -0.0009   -0.0022
C         2.5611   -2.6780    0.0096    0.0004   -0.0009   -0.0208
C         3.9791   -2.9786    0.0994   -0.0012   -0.0008   -0.0028
C        -0.6787   -4.3610    0.1117   -0.0015    0.0007   -0.0027
C         0.3451   -3.3358    0.0162   -0.0025   -0.0004   -0.0194
C         1.9538    4.9862    0.1974   -0.0015   -0.0007    0.0075
C         4.4707    3.6292    0.1907   -0.0017   -0.0029    0.0072
C         3.1581    5.6948    0.2620   -0.0003   -0.0016   -0.0052
C         4.4009    5.0247    0.2573   -0.0006   -0.0024   -0.0060
C         6.0491   -1.6734    0.1498   -0.0027    0.0016    0.0077
C         4.6854   -4.1862    0.1668   -0.0019   -0.0002    0.0076
C         6.7557   -2.8811    0.2249   -0.0019    0.0016   -0.0063
C         6.0835   -4.1199    0.2324   -0.0014    0.0012   -0.0058
H         6.5636   -0.7119    0.1505   -0.0045    0.0025    0.0160
H         4.1595   -5.1415    0.1810   -0.0015   -0.0003    0.0161
H         6.6636   -5.0424    0.2843   -0.0000    0.0017   -0.0118
H        -5.2165   -0.0595    0.1415   -0.0005   -0.0007    0.0143
H        -2.8123    4.3701    0.1706    0.0027   -0.0018    0.0137
H        -5.3164    4.2710    0.2739    0.0010    0.0004   -0.0120
H        -6.4984    2.0935    0.2595    0.0001    0.0013   -0.0102
H         0.3559   -6.2665    0.2241    0.0013    0.0034    0.0124
H        -4.0801   -3.8731    0.2016   -0.0007    0.0002    0.0129
H        -3.9765   -6.3769    0.3099    0.0009   -0.0010   -0.0099
H        -1.7960   -7.5547    0.3185    0.0012    0.0003   -0.0104
H         0.9891    5.4946    0.2174   -0.0012   -0.0004    0.0158
H         5.4267    3.1042    0.2032   -0.0028   -0.0047    0.0151
H         5.3215    5.6077    0.3106   -0.0003   -0.0023   -0.0130
H         3.1404    6.7843    0.3129    0.0012   -0.0014   -0.0109
H         7.8456   -2.8649    0.2681   -0.0016    0.0015   -0.0135
    57
stable frequency at    414.352 1/cm IR int. is 5.636 a.m.u.; force const. is 0.570 mDyne/Ang.
Fe        0.6742   -0.3860   -0.2512   -0.0001   -0.0002    0.0001
N         3.9155    0.5774    0.0034   -0.0005    0.0019    0.0014
N         1.6364   -3.6259    0.0222    0.0016    0.0010   -0.0009
N        -0.2400   -2.0716   -0.0762    0.0014    0.0001    0.0065
N        -1.0127    0.5279   -0.0841   -0.0004   -0.0017   -0.0010
N         1.5882    1.2996   -0.0761   -0.0010    0.0008   -0.0064
N         2.3604   -1.2995   -0.0741    0.0002    0.0016    0.0019
N        -0.2889    2.8541    0.0151   -0.0016   -0.0014    0.0025
N        -2.5678   -1.3490   -0.0039    0.0003   -0.0021   -0.0005
C        -2.6318    2.2074    0.0858   -0.0024    0.0037   -0.0539
C        -1.2138    1.9066   -0.0003   -0.0036    0.0024   -0.0659
C         1.0023    2.5641    0.0125   -0.0022   -0.0051    0.0648
C         2.0253    3.5896    0.1094   -0.0016   -0.0048    0.0607
C        -3.3042    0.9681    0.0767    0.0046   -0.0008    0.0558
C        -2.2782   -0.0563   -0.0113    0.0044   -0.0023    0.0672
C        -0.6084   -5.7574    0.2030   -0.0001    0.0020    0.0161
C        -3.1245   -4.3989    0.1900   -0.0005    0.0001    0.0071
C        -1.8131   -6.4652    0.2658   -0.0013   -0.0023   -0.0531
C        -4.7020    0.9019    0.1386    0.0025    0.0003    0.0028
C        -3.3382    3.4149    0.1551   -0.0012    0.0021   -0.0067
C        -5.4086    2.1097    0.2138   -0.0013    0.0013   -0.0473
C        -3.0555   -5.7944    0.2587    0.0003    0.0019    0.0413
C        -1.6195   -2.2729    0.0041   -0.0022   -0.0048   -0.0661
C        -1.9182   -3.6908    0.1037   -0.0027   -0.0041   -0.0641
C         3.2652    2.9200    0.1027    0.0020    0.0029   -0.0444
C         2.9671    1.5014    0.0066    0.0020    0.0044   -0.0621
C        -4.7364    3.3486    0.2202    0.0014   -0.0007    0.0488
C         3.6255   -0.7151   -0.0006   -0.0041    0.0024    0.0614
C         4.6513   -1.7396    0.0908   -0.0040    0.0008    0.0482
C         2.5611   -2.6780    0.0096    0.0035   -0.0022   -0.0617
C         3.9791   -2.9786    0.0994    0.0026   -0.0034   -0.0546
C        -0.6787   -4.3610    0.1117    0.0010    0.0038    0.0432
C         0.3451   -3.3358    0.0162    0.0021    0.0050    0.0635
C         1.9538    4.9862    0.1974    0.0005   -0.0005   -0.0058
C         4.4707    3.6292    0.1907    0.0012    0.0011   -0.0144
C         3.1581    5.6948    0.2620    0.0012    0.0019   -0.0417
C         4.4009    5.0247    0.2573   -0.0006   -0.0022    0.0510
C         6.0491   -1.6734    0.1498   -0.0025   -0.0002    0.0081
C         4.6854   -4.1862    0.1668    0.0009   -0.0017   -0.0012
C         6.7557   -2.8811    0.2249    0.0013   -0.0014   -0.0472
C         6.0835   -4.1199    0.2324   -0.0011    0.0004    0.0428
H         6.5636   -0.7119    0.1505   -0.0029    0.0000    0.0095
H         4.1595   -5.1415    0.1810    0.0006   -0.0014    0.0134
H         6.6636   -5.0424    0.2843   -0.0031    0.0026    0.1057
H        -5.2165   -0.0595    0.1415    0.0024    0.0004   -0.0074
H        -2.8123    4.3701    0.1706   -0.0015    0.0021   -0.0019
H        -5.3164    4.2710    0.2739    0.0034   -0.0032    0.1151
H        -6.4984    2.0935    0.2595   -0.0041    0.0017   -0.1123
H         0.3559   -6.2665    0.2241   -0.0001    0.0028    0.0323
H        -4.0801   -3.8731    0.2016    0.0011    0.0022    0.0393
H        -3.9765   -6.3769    0.3099    0.0019    0.0049    0.1064
H        -1.7960   -7.5547    0.3185   -0.0019   -0.0055   -0.1173
H         0.9891    5.4946    0.2174    0.0011    0.0017   -0.0328
H         5.4267    3.1042    0.2032    0.0015    0.0013   -0.0259
H         5.3215    5.6077    0.3106   -0.0022   -0.0053    0.1149
H         3.1404    6.7843    0.3129    0.0019    0.0049   -0.1045
H         7.8456   -2.8649    0.2681    0.0038   -0.0019   -0.1082
    57
stable frequency at    420.055 1/cm IR int. is 3.288 a.m.u.; force const. is 0.342 mDyne/Ang.
Fe        0.6742   -0.3860   -0.2512    0.0039    0.0020    0.0001
N         3.9155    0.5774    0.0034   -0.0003    0.0000    0.0104
N         1.6364   -3.6259    0.0222   -0.0030   -0.0010   -0.0013
N        -0.2400   -2.0716   -0.0762    0.0039    0.0066    0.0669
N        -1.0127    0.5279   -0.0841   -0.0003    0.0015   -0.0101
N         1.5882    1.2996   -0.0761    0.0008   -0.0002    0.0002
N         2.3604   -1.2995   -0.0741    0.0063   -0.0026   -0.0578
N        -0.2889    2.8541    0.0151   -0.0016   -0.0006    0.0017
N        -2.5678   -1.3490   -0.0039   -0.0002   -0.0011   -0.0110
C        -2.6318    2.2074    0.0858   -0.0011   -0.0022    0.0072
C        -1.2138    1.9066   -0.0003   -0.0025    0.0003   -0.0057
C         1.0023    2.5641    0.0125   -0.0018   -0.0011    0.0038
C         2.0253    3.5896    0.1094   -0.0020    0.0004    0.0047
C        -3.3042    0.9681    0.0767   -0.0010   -0.0029    0.0091
C        -2.2782   -0.0563   -0.0113    0.0002   -0.0007    0.0037
C        -0.6084   -5.7574    0.2030    0.0007    0.0070    0.0832
C        -3.1245   -4.3989    0.1900    0.0026    0.0037    0.0843
C        -1.8131   -6.4652    0.2658   -0.0005   -0.0020   -0.0349
C        -4.7020    0.9019    0.1386   -0.0031    0.0002   -0.0077
C        -3.3382    3.4149    0.1551   -0.0004   -0.0008   -0.0081
C        -5.4086    2.1097    0.2138   -0.0004    0.0009    0.0033
C        -3.0555   -5.7944    0.2587   -0.0006   -0.0037   -0.0461
C        -1.6195   -2.2729    0.0041    0.0010    0.0015    0.0071
C        -1.9182   -3.6908    0.1037   -0.0038   -0.0043   -0.0738
C         3.2652    2.9200    0.1027   -0.0023    0.0006    0.0058
C         2.9671    1.5014    0.0066   -0.0001    0.0001   -0.0004
C        -4.7364    3.3486    0.2202    0.0009    0.0009    0.0044
C         3.6255   -0.7151   -0.0006    0.0026   -0.0014   -0.0105
C         4.6513   -1.7396    0.0908   -0.0038   -0.0001    0.0607
C         2.5611   -2.6780    0.0096   -0.0017   -0.0006    0.0153
C         3.9791   -2.9786    0.0994   -0.0054   -0.0001    0.0751
C        -0.6787   -4.3610    0.1117   -0.0048   -0.0051   -0.0867
C         0.3451   -3.3358    0.0162   -0.0018   -0.0005   -0.0136
C         1.9538    4.9862    0.1974   -0.0004    0.0010   -0.0062
C         4.4707    3.6292    0.1907   -0.0019   -0.0010   -0.0061
C         3.1581    5.6948    0.2620    0.0008   -0.0005    0.0035
C         4.4009    5.0247    0.2573   -0.0002   -0.0010    0.0021
C         6.0491   -1.6734    0.1498    0.0017   -0.0028   -0.0699
C         4.6854   -4.1862    0.1668    0.0042   -0.0038   -0.0704
C         6.7557   -2.8811    0.2249   -0.0017    0.0026    0.0390
C         6.0835   -4.1199    0.2324   -0.0005    0.0014    0.0264
H         6.5636   -0.7119    0.1505    0.0069   -0.0057   -0.2191
H         4.1595   -5.1415    0.1810    0.0132   -0.0109   -0.2210
H         6.6636   -5.0424    0.2843    0.0012    0.0018    0.0166
H        -5.2165   -0.0595    0.1415   -0.0063    0.0019   -0.0258
H        -2.8123    4.3701    0.1706    0.0009   -0.0012   -0.0267
H        -5.3164    4.2710    0.2739    0.0017    0.0014    0.0039
H        -6.4984    2.0935    0.2595   -0.0005    0.0024    0.0017
H         0.3559   -6.2665    0.2241    0.0041    0.0207    0.2629
H        -4.0801   -3.8731    0.2016    0.0090    0.0116    0.2628
H        -3.9765   -6.3769    0.3099   -0.0001   -0.0041   -0.0457
H        -1.7960   -7.5547    0.3185    0.0014   -0.0013   -0.0194
H         0.9891    5.4946    0.2174    0.0006    0.0032   -0.0172
H         5.4267    3.1042    0.2032   -0.0024   -0.0022   -0.0179
H         5.3215    5.6077    0.3106    0.0006   -0.0022    0.0008
H         3.1404    6.7843    0.3129    0.0016   -0.0006    0.0046
H         7.8456   -2.8649    0.2681   -0.0019    0.0037    0.0419
    57
stable frequency at    420.274 1/cm IR int. is 3.285 a.m.u.; force const. is 0.342 mDyne/Ang.
Fe        0.6742   -0.3860   -0.2512    0.0032    0.0037    0.0003
N         3.9155    0.5774    0.0034    0.0004   -0.0024    0.0081
N         1.6364   -3.6259    0.0222   -0.0017   -0.0010   -0.0067
N        -0.2400   -2.0716   -0.0762    0.0008    0.0012    0.0106
N        -1.0127    0.5279   -0.0841    0.0044   -0.0009    0.0377
N         1.5882    1.2996   -0.0761    0.0045    0.0075   -0.0746
N         2.3604   -1.2995   -0.0741   -0.0017    0.0023    0.0230
N        -0.2889    2.8541    0.0151   -0.0025   -0.0011    0.0062
N        -2.5678   -1.3490   -0.0039    0.0000   -0.0008   -0.0099
C        -2.6318    2.2074    0.0858   -0.0042   -0.0021   -0.0424
C        -1.2138    1.9066   -0.0003   -0.0016   -0.0007   -0.0060
C         1.0023    2.5641    0.0125   -0.0010    0.0009   -0.0008
C         2.0253    3.5896    0.1094   -0.0040   -0.0052    0.0867
C        -3.3042    0.9681    0.0767   -0.0035   -0.0017   -0.0419
C        -2.2782   -0.0563   -0.0113    0.0020   -0.0017    0.0038
C        -0.6084   -5.7574    0.2030   -0.0001    0.0007    0.0193
C        -3.1245   -4.3989    0.1900   -0.0004   -0.0001    0.0201
C        -1.8131   -6.4652    0.2658    0.0002   -0.0009   -0.0044
C        -4.7020    0.9019    0.1386    0.0000   -0.0019    0.0441
C        -3.3382    3.4149    0.1551    0.0033   -0.0040    0.0438
C        -5.4086    2.1097    0.2138   -0.0010    0.0024   -0.0211
C        -3.0555   -5.7944    0.2587   -0.0007   -0.0014   -0.0146
C        -1.6195   -2.2729    0.0041    0.0003   -0.0002    0.0054
C        -1.9182   -3.6908    0.1037   -0.0014   -0.0005   -0.0119
C         3.2652    2.9200    0.1027   -0.0038   -0.0062    0.0960
C         2.9671    1.5014    0.0066    0.0008   -0.0002    0.0080
C        -4.7364    3.3486    0.2202    0.0001    0.0013   -0.0214
C         3.6255   -0.7151   -0.0006    0.0012   -0.0019   -0.0176
C         4.6513   -1.7396    0.0908    0.0001   -0.0044   -0.0339
C         2.5611   -2.6780    0.0096   -0.0035    0.0008    0.0169
C         3.9791   -2.9786    0.0994   -0.0012   -0.0030   -0.0144
C        -0.6787   -4.3610    0.1117   -0.0015   -0.0016   -0.0237
C         0.3451   -3.3358    0.0162   -0.0016   -0.0014   -0.0105
C         1.9538    4.9862    0.1974    0.0012    0.0071   -0.0954
C         4.4707    3.6292    0.1907    0.0037    0.0043   -0.0940
C         3.1581    5.6948    0.2620   -0.0013   -0.0027    0.0496
C         4.4009    5.0247    0.2573   -0.0009   -0.0031    0.0418
C         6.0491   -1.6734    0.1498   -0.0039    0.0007    0.0265
C         4.6854   -4.1862    0.1668   -0.0009   -0.0007    0.0263
C         6.7557   -2.8811    0.2249    0.0000    0.0010   -0.0060
C         6.0835   -4.1199    0.2324    0.0021    0.0004   -0.0227
H         6.5636   -0.7119    0.1505   -0.0099    0.0039    0.0857
H         4.1595   -5.1415    0.1810   -0.0007   -0.0001    0.0828
H         6.6636   -5.0424    0.2843    0.0034    0.0010   -0.0266
H        -5.2165   -0.0595    0.1415    0.0021   -0.0028    0.1395
H        -2.8123    4.3701    0.1706    0.0107   -0.0096    0.1382
H        -5.3164    4.2710    0.2739    0.0019    0.0022   -0.0181
H        -6.4984    2.0935    0.2595   -0.0009    0.0037   -0.0171
H         0.3559   -6.2665    0.2241    0.0007    0.0040    0.0599
H        -4.0801   -3.8731    0.2016    0.0006    0.0011    0.0591
H        -3.9765   -6.3769    0.3099   -0.0005   -0.0022   -0.0207
H        -1.7960   -7.5547    0.3185    0.0006   -0.0006    0.0033
H         0.9891    5.4946    0.2174    0.0045    0.0211   -0.2975
H         5.4267    3.1042    0.2032    0.0118    0.0145   -0.2980
H         5.3215    5.6077    0.3106   -0.0002   -0.0025    0.0264
H         3.1404    6.7843    0.3129   -0.0000   -0.0025    0.0457
H         7.8456   -2.8649    0.2681   -0.0005    0.0032    0.0071
    57
stable frequency at    421.118 1/cm IR int. is 3.285 a.m.u.; force const. is 0.343 mDyne/Ang.
Fe        0.6742   -0.3860   -0.2512    0.0042   -0.0052   -0.0001
N         3.9155    0.5774    0.0034   -0.0013    0.0030    0.0078
N         1.6364   -3.6259    0.0222   -0.0011    0.0003    0.0137
N        -0.2400   -2.0716   -0.0762   -0.0001   -0.0043   -0.0305
N        -1.0127    0.5279   -0.0841    0.0065   -0.0047    0.0655
N         1.5882    1.2996   -0.0761    0.0008   -0.0019    0.0088
N         2.3604   -1.2995   -0.0741    0.0040   -0.0032   -0.0420
N        -0.2889    2.8541    0.0151   -0.0018    0.0001   -0.0136
N        -2.5678   -1.3490   -0.0039   -0.0012    0.0034   -0.0068
C        -2.6318    2.2074    0.0858   -0.0036    0.0042   -0.0825
C        -1.2138    1.9066   -0.0003    0.0007   -0.0011   -0.0031
C         1.0023    2.5641    0.0125   -0.0022   -0.0021    0.0171
C         2.0253    3.5896    0.1094   -0.0041    0.0024   -0.0037
C        -3.3042    0.9681    0.0767   -0.0031    0.0047   -0.0784
C        -2.2782   -0.0563   -0.0113    0.0006    0.0018   -0.0033
C        -0.6084   -5.7574    0.2030   -0.0011    0.0006   -0.0390
C        -3.1245   -4.3989    0.1900   -0.0048   -0.0033   -0.0377
C        -1.8131   -6.4652    0.2658    0.0025    0.0012    0.0197
C        -4.7020    0.9019    0.1386    0.0046   -0.0021    0.0836
C        -3.3382    3.4149    0.1551    0.0027   -0.0011    0.0834
C        -5.4086    2.1097    0.2138   -0.0027    0.0012   -0.0428
C        -3.0555   -5.7944    0.2587    0.0013   -0.0006    0.0173
C        -1.6195   -2.2729    0.0041   -0.0006    0.0031    0.0100
C        -1.9182   -3.6908    0.1037   -0.0031    0.0054    0.0392
C         3.2652    2.9200    0.1027   -0.0031    0.0041   -0.0245
C         2.9671    1.5014    0.0066    0.0002    0.0040   -0.0196
C        -4.7364    3.3486    0.2202   -0.0033    0.0015   -0.0382
C         3.6255   -0.7151   -0.0006   -0.0009    0.0022    0.0131
C         4.6513   -1.7396    0.0908   -0.0024    0.0038    0.0594
C         2.5611   -2.6780    0.0096    0.0007   -0.0009   -0.0066
C         3.9791   -2.9786    0.0994   -0.0018    0.0031    0.0486
C        -0.6787   -4.3610    0.1117   -0.0031    0.0045    0.0349
C         0.3451   -3.3358    0.0162   -0.0019   -0.0020   -0.0072
C         1.9538    4.9862    0.1974   -0.0005    0.0027    0.0160
C         4.4707    3.6292    0.1907   -0.0032   -0.0013    0.0135
C         3.1581    5.6948    0.2620    0.0023    0.0015   -0.0156
C         4.4009    5.0247    0.2573    0.0013   -0.0012    0.0013
C         6.0491   -1.6734    0.1498    0.0027   -0.0016   -0.0583
C         4.6854   -4.1862    0.1668    0.0015    0.0002   -0.0572
C         6.7557   -2.8811    0.2249   -0.0018    0.0002    0.0246
C         6.0835   -4.1199    0.2324   -0.0026    0.0013    0.0339
H         6.5636   -0.7119    0.1505    0.0104   -0.0058   -0.1828
H         4.1595   -5.1415    0.1810    0.0052   -0.0036   -0.1796
H         6.6636   -5.0424    0.2843   -0.0033    0.0005    0.0305
H        -5.2165   -0.0595    0.1415    0.0153   -0.0075    0.2631
H        -2.8123    4.3701    0.1706    0.0092   -0.0074    0.2631
H        -5.3164    4.2710    0.2739   -0.0034    0.0007   -0.0274
H        -6.4984    2.0935    0.2595   -0.0025   -0.0002   -0.0385
H         0.3559   -6.2665    0.2241   -0.0002   -0.0011   -0.1216
H        -4.0801   -3.8731    0.2016   -0.0104   -0.0117   -0.1192
H        -3.9765   -6.3769    0.3099    0.0024   -0.0029    0.0125
H        -1.7960   -7.5547    0.3185    0.0045    0.0011    0.0174
H         0.9891    5.4946    0.2174    0.0012    0.0047    0.0464
H         5.4267    3.1042    0.2032   -0.0066   -0.0068    0.0453
H         5.3215    5.6077    0.3106    0.0022   -0.0038    0.0141
H         3.1404    6.7843    0.3129    0.0047    0.0020   -0.0255
H         7.8456   -2.8649    0.2681   -0.0014   -0.0009    0.0141
    57
stable frequency at    428.181 1/cm IR int. is 3.209 a.m.u.; force const. is 0.347 mDyne/Ang.
Fe        0.6742   -0.3860   -0.2512    0.0001    0.0001   -0.0108
N         3.9155    0.5774    0.0034   -0.0001   -0.0001    0.0155
N         1.6364   -3.6259    0.0222   -0.0002    0.0002    0.0166
N        -0.2400   -2.0716   -0.0762    0.0010    0.0021    0.0253
N        -1.0127    0.5279   -0.0841    0.0022   -0.0012    0.0248
N         1.5882    1.2996   -0.0761   -0.0009   -0.0019    0.0233
N         2.3604   -1.2995   -0.0741   -0.0023    0.0013    0.0249
N        -0.2889    2.8541    0.0151    0.0000   -0.0002    0.0161
N        -2.5678   -1.3490   -0.0039    0.0002    0.0001    0.0162
C        -2.6318    2.2074    0.0858   -0.0029    0.0016   -0.0597
C        -1.2138    1.9066   -0.0003    0.0003   -0.0002    0.0034
C         1.0023    2.5641    0.0125    0.0001    0.0002    0.0004
C         2.0253    3.5896    0.1094    0.0017    0.0038   -0.0599
C        -3.3042    0.9681    0.0767   -0.0031    0.0018   -0.0624
C        -2.2782   -0.0563   -0.0113    0.0002   -0.0001    0.0007
C        -0.6084   -5.7574    0.2030    0.0011    0.0037    0.0539
C        -3.1245   -4.3989    0.1900    0.0024    0.0032    0.0541
C        -1.8131   -6.4652    0.2658   -0.0003   -0.0009   -0.0244
C        -4.7020    0.9019    0.1386    0.0023   -0.0020    0.0531
C        -3.3382    3.4149    0.1551    0.0028   -0.0017    0.0535
C        -5.4086    2.1097    0.2138   -0.0009    0.0008   -0.0243
C        -3.0555   -5.7944    0.2587   -0.0004   -0.0010   -0.0268
C        -1.6195   -2.2729    0.0041    0.0001    0.0000    0.0035
C        -1.9182   -3.6908    0.1037   -0.0017   -0.0039   -0.0608
C         3.2652    2.9200    0.1027    0.0018    0.0035   -0.0570
C         2.9671    1.5014    0.0066    0.0000    0.0000    0.0035
C        -4.7364    3.3486    0.2202   -0.0010    0.0009   -0.0265
C         3.6255   -0.7151   -0.0006   -0.0003    0.0001    0.0005
C         4.6513   -1.7396    0.0908    0.0028   -0.0020   -0.0617
C         2.5611   -2.6780    0.0096   -0.0006    0.0002    0.0034
C         3.9791   -2.9786    0.0994    0.0028   -0.0019   -0.0611
C        -0.6787   -4.3610    0.1117   -0.0017   -0.0042   -0.0633
C         0.3451   -3.3358    0.0162   -0.0002   -0.0002    0.0007
C         1.9538    4.9862    0.1974   -0.0011   -0.0035    0.0507
C         4.4707    3.6292    0.1907   -0.0023   -0.0029    0.0510
C         3.1581    5.6948    0.2620    0.0003    0.0007   -0.0227
C         4.4009    5.0247    0.2573    0.0004    0.0009   -0.0254
C         6.0491   -1.6734    0.1498   -0.0025    0.0022    0.0553
C         4.6854   -4.1862    0.1668   -0.0028    0.0013    0.0535
C         6.7557   -2.8811    0.2249    0.0009   -0.0007   -0.0267
C         6.0835   -4.1199    0.2324    0.0010   -0.0009   -0.0273
H         6.5636   -0.7119    0.1505   -0.0088    0.0056    0.1817
H         4.1595   -5.1415    0.1810   -0.0083    0.0061    0.1789
H         6.6636   -5.0424    0.2843    0.0006   -0.0002   -0.0141
H        -5.2165   -0.0595    0.1415    0.0085   -0.0051    0.1766
H        -2.8123    4.3701    0.1706    0.0083   -0.0067    0.1765
H        -5.3164    4.2710    0.2739   -0.0006    0.0005   -0.0183
H        -6.4984    2.0935    0.2595   -0.0005    0.0007   -0.0132
H         0.3559   -6.2665    0.2241    0.0028    0.0121    0.1786
H        -4.0801   -3.8731    0.2016    0.0075    0.0099    0.1784
H        -3.9765   -6.3769    0.3099    0.0001   -0.0007   -0.0176
H        -1.7960   -7.5547    0.3185   -0.0001   -0.0003   -0.0118
H         0.9891    5.4946    0.2174   -0.0028   -0.0113    0.1680
H         5.4267    3.1042    0.2032   -0.0072   -0.0091    0.1679
H         5.3215    5.6077    0.3106   -0.0001    0.0007   -0.0172
H         3.1404    6.7843    0.3129    0.0001    0.0002   -0.0107
H         7.8456   -2.8649    0.2681    0.0006   -0.0005   -0.0168
    57
stable frequency at    480.436 1/cm IR int. is 5.688 a.m.u.; force const. is 0.774 mDyne/Ang.
Fe        0.6742   -0.3860   -0.2512   -0.0000    0.0000    0.0000
N         3.9155    0.5774    0.0034    0.0437    0.0127   -0.0033
N         1.6364   -3.6259    0.0222   -0.0128    0.0437    0.0013
N        -0.2400   -2.0716   -0.0762   -0.0254    0.0139   -0.0000
N        -1.0127    0.5279   -0.0841   -0.0140   -0.0253   -0.0004
N         1.5882    1.2996   -0.0761    0.0254   -0.0140    0.0001
N         2.3604   -1.2995   -0.0741    0.0139    0.0251    0.0001
N        -0.2889    2.8541    0.0151    0.0129   -0.0439    0.0026
N        -2.5678   -1.3490   -0.0039   -0.0438   -0.0128   -0.0025
C        -2.6318    2.2074    0.0858    0.0195    0.0564   -0.0001
C        -1.2138    1.9066   -0.0003    0.0030   -0.0157    0.0006
C         1.0023    2.5641    0.0125    0.0059   -0.0150   -0.0004
C         2.0253    3.5896    0.1094   -0.0471    0.0362   -0.0015
C        -3.3042    0.9681    0.0767    0.0362    0.0472    0.0002
C        -2.2782   -0.0563   -0.0113   -0.0151   -0.0057   -0.0006
C        -0.6084   -5.7574    0.2030    0.0121   -0.0553    0.0026
C        -3.1245   -4.3989    0.1900    0.0535    0.0197   -0.0025
C        -1.8131   -6.4652    0.2658   -0.0165   -0.0182    0.0029
C        -4.7020    0.9019    0.1386    0.0553    0.0119   -0.0017
C        -3.3382    3.4149    0.1551   -0.0197    0.0536    0.0026
C        -5.4086    2.1097    0.2138    0.0183   -0.0166   -0.0024
C        -3.0555   -5.7944    0.2587    0.0059    0.0232   -0.0025
C        -1.6195   -2.2729    0.0041   -0.0158   -0.0030   -0.0009
C        -1.9182   -3.6908    0.1037    0.0563   -0.0194    0.0005
C         3.2652    2.9200    0.1027   -0.0563    0.0193    0.0014
C         2.9671    1.5014    0.0066    0.0157    0.0029    0.0003
C        -4.7364    3.3486    0.2202   -0.0234    0.0061    0.0017
C         3.6255   -0.7151   -0.0006    0.0150    0.0056   -0.0012
C         4.6513   -1.7396    0.0908   -0.0361   -0.0470    0.0004
C         2.5611   -2.6780    0.0096   -0.0030    0.0156    0.0006
C         3.9791   -2.9786    0.0994   -0.0194   -0.0562    0.0010
C        -0.6787   -4.3610    0.1117    0.0471   -0.0361    0.0005
C         0.3451   -3.3358    0.0162   -0.0058    0.0151    0.0005
C         1.9538    4.9862    0.1974   -0.0121    0.0554    0.0021
C         4.4707    3.6292    0.1907   -0.0535   -0.0198   -0.0018
C         3.1581    5.6948    0.2620    0.0165    0.0182    0.0043
C         4.4009    5.0247    0.2573   -0.0059   -0.0231   -0.0040
C         6.0491   -1.6734    0.1498   -0.0551   -0.0119   -0.0020
C         4.6854   -4.1862    0.1668    0.0196   -0.0534    0.0025
C         6.7557   -2.8811    0.2249   -0.0183    0.0165   -0.0018
C         6.0835   -4.1199    0.2324    0.0233   -0.0060    0.0013
H         6.5636   -0.7119    0.1505   -0.0940    0.0086   -0.0050
H         4.1595   -5.1415    0.1810    0.0595   -0.0760    0.0055
H         6.6636   -5.0424    0.2843    0.0583    0.0159    0.0037
H        -5.2165   -0.0595    0.1415    0.0944   -0.0087   -0.0036
H        -2.8123    4.3701    0.1706   -0.0597    0.0762    0.0065
H        -5.3164    4.2710    0.2739   -0.0585   -0.0160    0.0050
H        -6.4984    2.0935    0.2595    0.0191   -0.0579   -0.0038
H         0.3559   -6.2665    0.2241   -0.0085   -0.0945    0.0048
H        -4.0801   -3.8731    0.2016    0.0760    0.0597   -0.0067
H        -3.9765   -6.3769    0.3099   -0.0161    0.0580   -0.0070
H        -1.7960   -7.5547    0.3185   -0.0577   -0.0190    0.0047
H         0.9891    5.4946    0.2174    0.0084    0.0945    0.0051
H         5.4267    3.1042    0.2032   -0.0760   -0.0597   -0.0052
H         5.3215    5.6077    0.3106    0.0162   -0.0578   -0.0101
H         3.1404    6.7843    0.3129    0.0576    0.0189    0.0086
H         7.8456   -2.8649    0.2681   -0.0191    0.0577   -0.0031
    57
stable frequency at    485.350 1/cm IR int. is 5.099 a.m.u.; force const. is 0.708 mDyne/Ang.
Fe        0.6742   -0.3860   -0.2512    0.0015   -0.0005    0.0000
N         3.9155    0.5774    0.0034    0.0020    0.0038    0.0594
N         1.6364   -3.6259    0.0222   -0.0033   -0.0022    0.0504
N        -0.2400   -2.0716   -0.0762    0.0028   -0.0019    0.0023
N        -1.0127    0.5279   -0.0841    0.0025   -0.0013    0.0288
N         1.5882    1.2996   -0.0761    0.0036   -0.0019   -0.0028
N         2.3604   -1.2995   -0.0741    0.0025   -0.0007   -0.0282
N        -0.2889    2.8541    0.0151   -0.0029   -0.0029   -0.0505
N        -2.5678   -1.3490   -0.0039    0.0012    0.0034   -0.0591
C        -2.6318    2.2074    0.0858    0.0002   -0.0004    0.0212
C        -1.2138    1.9066   -0.0003   -0.0024   -0.0012   -0.0170
C         1.0023    2.5641    0.0125   -0.0034   -0.0083    0.0492
C         2.0253    3.5896    0.1094   -0.0091   -0.0026    0.0686
C        -3.3042    0.9681    0.0767    0.0017   -0.0005    0.0322
C        -2.2782   -0.0563   -0.0113    0.0011    0.0021   -0.0094
C        -0.6084   -5.7574    0.2030   -0.0012    0.0005   -0.0299
C        -3.1245   -4.3989    0.1900   -0.0023    0.0008    0.0287
C        -1.8131   -6.4652    0.2658    0.0042    0.0026    0.0688
C        -4.7020    0.9019    0.1386    0.0002   -0.0001   -0.0045
C        -3.3382    3.4149    0.1551   -0.0002    0.0011   -0.0090
C        -5.4086    2.1097    0.2138    0.0007   -0.0001   -0.0009
C        -3.0555   -5.7944    0.2587    0.0010   -0.0048   -0.0681
C        -1.6195   -2.2729    0.0041    0.0044    0.0068    0.0471
C        -1.9182   -3.6908    0.1037   -0.0025    0.0087    0.0726
C         3.2652    2.9200    0.1027   -0.0035    0.0089   -0.0729
C         2.9671    1.5014    0.0066    0.0050    0.0069   -0.0478
C        -4.7364    3.3486    0.2202    0.0008   -0.0000    0.0099
C         3.6255   -0.7151   -0.0006    0.0011    0.0023    0.0099
C         4.6513   -1.7396    0.0908    0.0009   -0.0016   -0.0328
C         2.5611   -2.6780    0.0096   -0.0027   -0.0008    0.0168
C         3.9791   -2.9786    0.0994   -0.0002   -0.0015   -0.0218
C        -0.6787   -4.3610    0.1117   -0.0080   -0.0035   -0.0680
C         0.3451   -3.3358    0.0162   -0.0036   -0.0083   -0.0491
C         1.9538    4.9862    0.1974   -0.0015    0.0019    0.0300
C         4.4707    3.6292    0.1907   -0.0033    0.0004   -0.0289
C         3.1581    5.6948    0.2620    0.0045    0.0030   -0.0690
C         4.4009    5.0247    0.2573    0.0007   -0.0054    0.0685
C         6.0491   -1.6734    0.1498   -0.0010   -0.0005    0.0044
C         4.6854   -4.1862    0.1668    0.0002    0.0002    0.0097
C         6.7557   -2.8811    0.2249    0.0004    0.0001    0.0011
C         6.0835   -4.1199    0.2324    0.0014   -0.0001   -0.0096
H         6.5636   -0.7119    0.1505   -0.0038    0.0010    0.0477
H         4.1595   -5.1415    0.1810   -0.0006    0.0012    0.0533
H         6.6636   -5.0424    0.2843    0.0008    0.0000   -0.0012
H        -5.2165   -0.0595    0.1415   -0.0021    0.0010   -0.0475
H        -2.8123    4.3701    0.1706   -0.0017    0.0026   -0.0524
H        -5.3164    4.2710    0.2739   -0.0004   -0.0002   -0.0001
H        -6.4984    2.0935    0.2595   -0.0004    0.0008   -0.0260
H         0.3559   -6.2665    0.2241    0.0021    0.0066   -0.0329
H        -4.0801   -3.8731    0.2016   -0.0062   -0.0061    0.0248
H        -3.9765   -6.3769    0.3099    0.0001   -0.0117   -0.1663
H        -1.7960   -7.5547    0.3185    0.0075    0.0075    0.1644
H         0.9891    5.4946    0.2174    0.0022    0.0089    0.0325
H         5.4267    3.1042    0.2032   -0.0076   -0.0072   -0.0253
H         5.3215    5.6077    0.3106   -0.0000   -0.0130    0.1669
H         3.1404    6.7843    0.3129    0.0091    0.0078   -0.1655
H         7.8456   -2.8649    0.2681   -0.0006    0.0020    0.0261
    57
stable frequency at    486.860 1/cm IR int. is 5.185 a.m.u.; force const. is 0.724 mDyne/Ang.
Fe        0.6742   -0.3860   -0.2512   -0.0004   -0.0020    0.0003
N         3.9155    0.5774    0.0034   -0.0039    0.0034   -0.0494
N         1.6364   -3.6259    0.0222    0.0039   -0.0000    0.0585
N        -0.2400   -2.0716   -0.0762   -0.0012   -0.0027   -0.0295
N        -1.0127    0.5279   -0.0841   -0.0015   -0.0040    0.0030
N         1.5882    1.2996   -0.0761   -0.0015   -0.0032    0.0290
N         2.3604   -1.2995   -0.0741   -0.0024   -0.0032   -0.0022
N        -0.2889    2.8541    0.0151    0.0041   -0.0011   -0.0607
N        -2.5678   -1.3490   -0.0039   -0.0036    0.0039    0.0515
C        -2.6318    2.2074    0.0858    0.0083    0.0031    0.0733
C        -1.2138    1.9066   -0.0003    0.0066   -0.0055    0.0480
C         1.0023    2.5641    0.0125    0.0023   -0.0013   -0.0084
C         2.0253    3.5896    0.1094   -0.0008   -0.0018    0.0339
C        -3.3042    0.9681    0.0767   -0.0020    0.0098   -0.0692
C        -2.2782   -0.0563   -0.0113   -0.0078    0.0036   -0.0491
C        -0.6084   -5.7574    0.2030   -0.0009   -0.0001    0.0039
C        -3.1245   -4.3989    0.1900    0.0016   -0.0003    0.0078
C        -1.8131   -6.4652    0.2658   -0.0005   -0.0014    0.0000
C        -4.7020    0.9019    0.1386    0.0016    0.0026   -0.0309
C        -3.3382    3.4149    0.1551    0.0001    0.0027    0.0296
C        -5.4086    2.1097    0.2138    0.0018   -0.0048    0.0692
C        -3.0555   -5.7944    0.2587   -0.0002   -0.0014   -0.0084
C        -1.6195   -2.2729    0.0041   -0.0014    0.0029    0.0160
C        -1.9182   -3.6908    0.1037   -0.0002   -0.0004   -0.0214
C         3.2652    2.9200    0.1027   -0.0007   -0.0002    0.0197
C         2.9671    1.5014    0.0066   -0.0016    0.0027   -0.0179
C        -4.7364    3.3486    0.2202   -0.0055   -0.0003   -0.0695
C         3.6255   -0.7151   -0.0006   -0.0084    0.0037    0.0503
C         4.6513   -1.7396    0.0908   -0.0023    0.0092    0.0680
C         2.5611   -2.6780    0.0096    0.0063   -0.0046   -0.0485
C         3.9791   -2.9786    0.0994    0.0082    0.0028   -0.0716
C        -0.6787   -4.3610    0.1117   -0.0001   -0.0019   -0.0297
C         0.3451   -3.3358    0.0162    0.0023   -0.0006    0.0105
C         1.9538    4.9862    0.1974   -0.0002    0.0009   -0.0042
C         4.4707    3.6292    0.1907    0.0012    0.0006   -0.0103
C         3.1581    5.6948    0.2620    0.0002    0.0000   -0.0028
C         4.4009    5.0247    0.2573    0.0002   -0.0007    0.0111
C         6.0491   -1.6734    0.1498    0.0014    0.0015    0.0273
C         4.6854   -4.1862    0.1668    0.0011    0.0026   -0.0285
C         6.7557   -2.8811    0.2249    0.0023   -0.0052   -0.0662
C         6.0835   -4.1199    0.2324   -0.0042   -0.0008    0.0695
H         6.5636   -0.7119    0.1505    0.0084   -0.0022    0.0276
H         4.1595   -5.1415    0.1810   -0.0057    0.0064   -0.0292
H         6.6636   -5.0424    0.2843   -0.0106    0.0000    0.1581
H        -5.2165   -0.0595    0.1415    0.0084   -0.0010   -0.0339
H        -2.8123    4.3701    0.1706   -0.0076    0.0069    0.0283
H        -5.3164    4.2710    0.2739   -0.0120    0.0011   -0.1672
H        -6.4984    2.0935    0.2595    0.0062   -0.0105    0.1669
H         0.3559   -6.2665    0.2241   -0.0004    0.0025    0.0454
H        -4.0801   -3.8731    0.2016    0.0032    0.0016    0.0496
H        -3.9765   -6.3769    0.3099   -0.0006    0.0005    0.0042
H        -1.7960   -7.5547    0.3185    0.0006   -0.0001    0.0241
H         0.9891    5.4946    0.2174    0.0007    0.0042   -0.0467
H         5.4267    3.1042    0.2032    0.0027    0.0024   -0.0524
H         5.3215    5.6077    0.3106    0.0001   -0.0000    0.0045
H         3.1404    6.7843    0.3129    0.0011    0.0013   -0.0291
H         7.8456   -2.8649    0.2681    0.0062   -0.0098   -0.1611
    57
stable frequency at    509.349 1/cm IR int. is 4.363 a.m.u.; force const. is 0.667 mDyne/Ang.
Fe        0.6742   -0.3860   -0.2512   -0.0006   -0.0013   -0.0002
N         3.9155    0.5774    0.0034    0.0038    0.0003    0.0502
N         1.6364   -3.6259    0.0222   -0.0007    0.0026   -0.0505
N        -0.2400   -2.0716   -0.0762    0.0001    0.0005    0.0013
N        -1.0127    0.5279   -0.0841    0.0009    0.0042   -0.0002
N         1.5882    1.2996   -0.0761   -0.0003    0.0001   -0.0014
N         2.3604   -1.2995   -0.0741    0.0028    0.0027    0.0002
N        -0.2889    2.8541    0.0151   -0.0020    0.0059   -0.0472
N        -2.5678   -1.3490   -0.0039    0.0039    0.0017    0.0481
C        -2.6318    2.2074    0.0858    0.0011   -0.0036    0.0518
C        -1.2138    1.9066   -0.0003   -0.0004    0.0021    0.0151
C         1.0023    2.5641    0.0125   -0.0021   -0.0006    0.0157
C         2.0253    3.5896    0.1094   -0.0032   -0.0029    0.0523
C        -3.3042    0.9681    0.0767   -0.0042   -0.0002   -0.0524
C        -2.2782   -0.0563   -0.0113    0.0003    0.0017   -0.0155
C        -0.6084   -5.7574    0.2030    0.0009    0.0003    0.0311
C        -3.1245   -4.3989    0.1900    0.0012   -0.0010   -0.0298
C        -1.8131   -6.4652    0.2658   -0.0020   -0.0037   -0.0571
C        -4.7020    0.9019    0.1386   -0.0036   -0.0004   -0.0291
C        -3.3382    3.4149    0.1551    0.0029   -0.0024    0.0301
C        -5.4086    2.1097    0.2138    0.0032   -0.0015    0.0559
C        -3.0555   -5.7944    0.2587    0.0012    0.0036    0.0574
C        -1.6195   -2.2729    0.0041    0.0002   -0.0014   -0.0161
C        -1.9182   -3.6908    0.1037    0.0007   -0.0042   -0.0540
C         3.2652    2.9200    0.1027   -0.0002    0.0035   -0.0532
C         2.9671    1.5014    0.0066    0.0023    0.0007   -0.0159
C        -4.7364    3.3486    0.2202   -0.0007    0.0013   -0.0560
C         3.6255   -0.7151   -0.0006    0.0049   -0.0005   -0.0173
C         4.6513   -1.7396    0.0908    0.0005   -0.0073   -0.0545
C         2.5611   -2.6780    0.0096   -0.0013    0.0031    0.0171
C         3.9791   -2.9786    0.0994   -0.0052   -0.0037    0.0539
C        -0.6787   -4.3610    0.1117    0.0034    0.0025    0.0526
C         0.3451   -3.3358    0.0162    0.0001    0.0031    0.0161
C         1.9538    4.9862    0.1974   -0.0011   -0.0010    0.0305
C         4.4707    3.6292    0.1907   -0.0010    0.0006   -0.0298
C         3.1581    5.6948    0.2620    0.0016    0.0030   -0.0564
C         4.4009    5.0247    0.2573   -0.0016   -0.0039    0.0570
C         6.0491   -1.6734    0.1498   -0.0029   -0.0013   -0.0305
C         4.6854   -4.1862    0.1668   -0.0009   -0.0043    0.0316
C         6.7557   -2.8811    0.2249   -0.0045    0.0043    0.0579
C         6.0835   -4.1199    0.2324    0.0037   -0.0009   -0.0580
H         6.5636   -0.7119    0.1505   -0.0079    0.0013   -0.0323
H         4.1595   -5.1415    0.1810    0.0039   -0.0070    0.0337
H         6.6636   -5.0424    0.2843    0.0113   -0.0007   -0.1407
H        -5.2165   -0.0595    0.1415   -0.0051    0.0004   -0.0303
H        -2.8123    4.3701    0.1706    0.0047   -0.0034    0.0311
H        -5.3164    4.2710    0.2739   -0.0039    0.0038   -0.1360
H        -6.4984    2.0935    0.2595    0.0065   -0.0016    0.1347
H         0.3559   -6.2665    0.2241   -0.0002   -0.0019    0.0319
H        -4.0801   -3.8731    0.2016    0.0025    0.0014   -0.0300
H        -3.9765   -6.3769    0.3099    0.0020    0.0091    0.1385
H        -1.7960   -7.5547    0.3185   -0.0049   -0.0079   -0.1392
H         0.9891    5.4946    0.2174   -0.0002    0.0006    0.0304
H         5.4267    3.1042    0.2032   -0.0021   -0.0013   -0.0307
H         5.3215    5.6077    0.3106   -0.0028   -0.0089    0.1366
H         3.1404    6.7843    0.3129    0.0045    0.0071   -0.1384
H         7.8456   -2.8649    0.2681   -0.0079    0.0095    0.1396
    57
stable frequency at    515.567 1/cm IR int. is 7.772 a.m.u.; force const. is 1.217 mDyne/Ang.
Fe        0.6742   -0.3860   -0.2512    0.0234   -0.0221    0.0001
N         3.9155    0.5774    0.0034   -0.0501   -0.0128    0.0017
N         1.6364   -3.6259    0.0222   -0.0264    0.0849    0.0036
N        -0.2400   -2.0716   -0.0762   -0.0524    0.0278   -0.0013
N        -1.0127    0.5279   -0.0841    0.0090    0.0129    0.0045
N         1.5882    1.2996   -0.0761   -0.0522    0.0280    0.0008
N         2.3604   -1.2995   -0.0741    0.0087    0.0131   -0.0043
N        -0.2889    2.8541    0.0151   -0.0263    0.0848   -0.0017
N        -2.5678   -1.3490   -0.0039   -0.0502   -0.0127   -0.0034
C        -2.6318    2.2074    0.0858   -0.0055   -0.0149   -0.0018
C        -1.2138    1.9066   -0.0003    0.0004    0.0318    0.0018
C         1.0023    2.5641    0.0125   -0.0192    0.0434    0.0032
C         2.0253    3.5896    0.1094    0.0515   -0.0307    0.0029
C        -3.3042    0.9681    0.0767   -0.0069   -0.0150   -0.0011
C        -2.2782   -0.0563   -0.0113   -0.0058   -0.0093    0.0008
C        -0.6084   -5.7574    0.2030    0.0125   -0.0526   -0.0003
C        -3.1245   -4.3989    0.1900    0.0508    0.0163    0.0006
C        -1.8131   -6.4652    0.2658   -0.0196   -0.0135    0.0078
C        -4.7020    0.9019    0.1386   -0.0110   -0.0059    0.0011
C        -3.3382    3.4149    0.1551    0.0081   -0.0147   -0.0005
C        -5.4086    2.1097    0.2138    0.0015    0.0024   -0.0007
C        -3.0555   -5.7944    0.2587   -0.0009    0.0209   -0.0072
C        -1.6195   -2.2729    0.0041   -0.0358   -0.0086    0.0029
C        -1.9182   -3.6908    0.1037    0.0541   -0.0267    0.0053
C         3.2652    2.9200    0.1027    0.0540   -0.0269   -0.0031
C         2.9671    1.5014    0.0066   -0.0356   -0.0085   -0.0031
C        -4.7364    3.3486    0.2202    0.0111   -0.0028   -0.0004
C         3.6255   -0.7151   -0.0006   -0.0061   -0.0093    0.0004
C         4.6513   -1.7396    0.0908   -0.0070   -0.0150    0.0029
C         2.5611   -2.6780    0.0096    0.0002    0.0318   -0.0029
C         3.9791   -2.9786    0.0994   -0.0054   -0.0150   -0.0009
C        -0.6787   -4.3610    0.1117    0.0515   -0.0309   -0.0043
C         0.3451   -3.3358    0.0162   -0.0194    0.0432   -0.0037
C         1.9538    4.9862    0.1974    0.0124   -0.0522   -0.0009
C         4.4707    3.6292    0.1907    0.0507    0.0162    0.0008
C         3.1581    5.6948    0.2620   -0.0197   -0.0136   -0.0055
C         4.4009    5.0247    0.2573   -0.0010    0.0209    0.0051
C         6.0491   -1.6734    0.1498   -0.0112   -0.0061   -0.0002
C         4.6854   -4.1862    0.1668    0.0082   -0.0145   -0.0001
C         6.7557   -2.8811    0.2249    0.0018    0.0022   -0.0011
C         6.0835   -4.1199    0.2324    0.0112   -0.0027    0.0032
H         6.5636   -0.7119    0.1505   -0.0217   -0.0004   -0.0036
H         4.1595   -5.1415    0.1810    0.0223   -0.0226   -0.0017
H         6.6636   -5.0424    0.2843    0.0186    0.0018    0.0022
H        -5.2165   -0.0595    0.1415   -0.0217   -0.0002    0.0041
H        -2.8123    4.3701    0.1706    0.0222   -0.0228    0.0006
H        -5.3164    4.2710    0.2739    0.0188    0.0018    0.0009
H        -6.4984    2.0935    0.2595    0.0014    0.0146    0.0005
H         0.3559   -6.2665    0.2241   -0.0119   -0.0993    0.0018
H        -4.0801   -3.8731    0.2016    0.0771    0.0629   -0.0030
H        -3.9765   -6.3769    0.3099   -0.0222    0.0543   -0.0177
H        -1.7960   -7.5547    0.3185   -0.0585   -0.0141    0.0164
H         0.9891    5.4946    0.2174   -0.0119   -0.0990   -0.0037
H         5.4267    3.1042    0.2032    0.0770    0.0629    0.0039
H         5.3215    5.6077    0.3106   -0.0223    0.0543    0.0123
H         3.1404    6.7843    0.3129   -0.0584   -0.0143   -0.0113
H         7.8456   -2.8649    0.2681    0.0018    0.0144   -0.0059
    57
stable frequency at    515.641 1/cm IR int. is 7.772 a.m.u.; force const. is 1.218 mDyne/Ang.
Fe        0.6742   -0.3860   -0.2512    0.0221    0.0233    0.0000
N         3.9155    0.5774    0.0034   -0.0848   -0.0263    0.0070
N         1.6364   -3.6259    0.0222    0.0127   -0.0503   -0.0052
N        -0.2400   -2.0716   -0.0762   -0.0129    0.0090    0.0051
N        -1.0127    0.5279   -0.0841   -0.0281   -0.0520    0.0007
N         1.5882    1.2996   -0.0761   -0.0130    0.0091   -0.0050
N         2.3604   -1.2995   -0.0741   -0.0280   -0.0522   -0.0012
N        -0.2889    2.8541    0.0151    0.0126   -0.0498   -0.0003
N        -2.5678   -1.3490   -0.0039   -0.0847   -0.0263   -0.0016
C        -2.6318    2.2074    0.0858    0.0270    0.0540   -0.0011
C        -1.2138    1.9066   -0.0003    0.0085   -0.0354   -0.0028
C         1.0023    2.5641    0.0125    0.0093   -0.0060    0.0003
C         2.0253    3.5896    0.1094    0.0149   -0.0071    0.0043
C        -3.3042    0.9681    0.0767    0.0306    0.0515    0.0014
C        -2.2782   -0.0563   -0.0113   -0.0434   -0.0191    0.0028
C        -0.6084   -5.7574    0.2030    0.0060   -0.0110    0.0022
C        -3.1245   -4.3989    0.1900    0.0147    0.0081   -0.0018
C        -1.8131   -6.4652    0.2658   -0.0024    0.0014   -0.0022
C        -4.7020    0.9019    0.1386    0.0521    0.0120   -0.0014
C        -3.3382    3.4149    0.1551   -0.0158    0.0509    0.0021
C        -5.4086    2.1097    0.2138    0.0140   -0.0200   -0.0028
C        -3.0555   -5.7944    0.2587    0.0028    0.0112    0.0011
C        -1.6195   -2.2729    0.0041   -0.0319    0.0004    0.0008
C        -1.9182   -3.6908    0.1037    0.0149   -0.0055   -0.0024
C         3.2652    2.9200    0.1027    0.0150   -0.0050   -0.0033
C         2.9671    1.5014    0.0066   -0.0318    0.0005   -0.0020
C        -4.7364    3.3486    0.2202   -0.0210   -0.0009    0.0021
C         3.6255   -0.7151   -0.0006   -0.0432   -0.0192   -0.0056
C         4.6513   -1.7396    0.0908    0.0309    0.0513   -0.0076
C         2.5611   -2.6780    0.0096    0.0084   -0.0355    0.0058
C         3.9791   -2.9786    0.0994    0.0266    0.0542    0.0081
C        -0.6787   -4.3610    0.1117    0.0151   -0.0067    0.0014
C         0.3451   -3.3358    0.0162    0.0094   -0.0059    0.0006
C         1.9538    4.9862    0.1974    0.0058   -0.0113    0.0017
C         4.4707    3.6292    0.1907    0.0148    0.0082   -0.0017
C         3.1581    5.6948    0.2620   -0.0023    0.0017   -0.0044
C         4.4009    5.0247    0.2573    0.0027    0.0107    0.0054
C         6.0491   -1.6734    0.1498    0.0522    0.0120   -0.0012
C         4.6854   -4.1862    0.1668   -0.0160    0.0509    0.0007
C         6.7557   -2.8811    0.2249    0.0136   -0.0197    0.0085
C         6.0835   -4.1199    0.2324   -0.0207   -0.0012   -0.0103
H         6.5636   -0.7119    0.1505    0.0984   -0.0123    0.0028
H         4.1595   -5.1415    0.1810   -0.0628    0.0772   -0.0010
H         6.6636   -5.0424    0.2843   -0.0544   -0.0224   -0.0165
H        -5.2165   -0.0595    0.1415    0.0986   -0.0125   -0.0035
H        -2.8123    4.3701    0.1706   -0.0624    0.0771    0.0054
H        -5.3164    4.2710    0.2739   -0.0550   -0.0222    0.0055
H        -6.4984    2.0935    0.2595    0.0149   -0.0586   -0.0049
H         0.3559   -6.2665    0.2241    0.0002   -0.0219    0.0038
H        -4.0801   -3.8731    0.2016    0.0227    0.0221   -0.0022
H        -3.9765   -6.3769    0.3099   -0.0018    0.0188    0.0034
H        -1.7960   -7.5547    0.3185   -0.0147    0.0011   -0.0043
H         0.9891    5.4946    0.2174    0.0001   -0.0221    0.0003
H         5.4267    3.1042    0.2032    0.0227    0.0220   -0.0019
H         5.3215    5.6077    0.3106   -0.0021    0.0180    0.0115
H         3.1404    6.7843    0.3129   -0.0143    0.0018   -0.0120
H         7.8456   -2.8649    0.2681    0.0140   -0.0579    0.0214
    57
stable frequency at    556.412 1/cm IR int. is 8.202 a.m.u.; force const. is 1.496 mDyne/Ang.
Fe        0.6742   -0.3860   -0.2512   -0.0001    0.0000   -0.0000
N         3.9155    0.5774    0.0034   -0.0096    0.0329    0.0007
N         1.6364   -3.6259    0.0222   -0.0325   -0.0092   -0.0007
N        -0.2400   -2.0716   -0.0762   -0.0188   -0.0345    0.0057
N        -1.0127    0.5279   -0.0841    0.0348   -0.0191   -0.0055
N         1.5882    1.2996   -0.0761    0.0188    0.0345    0.0057
N         2.3604   -1.2995   -0.0741   -0.0347    0.0190   -0.0053
N        -0.2889    2.8541    0.0151    0.0326    0.0090   -0.0003
N        -2.5678   -1.3490   -0.0039    0.0098   -0.0329    0.0010
C        -2.6318    2.2074    0.0858    0.0236   -0.0152   -0.0006
C        -1.2138    1.9066   -0.0003    0.0423   -0.0052   -0.0019
C         1.0023    2.5641    0.0125    0.0329    0.0270    0.0026
C         2.0253    3.5896    0.1094    0.0112    0.0263    0.0018
C        -3.3042    0.9681    0.0767    0.0266   -0.0115   -0.0020
C        -2.2782   -0.0563   -0.0113    0.0277   -0.0332   -0.0025
C        -0.6084   -5.7574    0.2030    0.0526   -0.0109   -0.0005
C        -3.1245   -4.3989    0.1900   -0.0378    0.0384   -0.0015
C        -1.8131   -6.4652    0.2658    0.0281    0.0441   -0.0039
C        -4.7020    0.9019    0.1386    0.0116    0.0527    0.0009
C        -3.3382    3.4149    0.1551   -0.0389   -0.0373    0.0010
C        -5.4086    2.1097    0.2138   -0.0438    0.0283    0.0039
C        -3.0555   -5.7944    0.2587    0.0215    0.0484   -0.0021
C        -1.6195   -2.2729    0.0041   -0.0048   -0.0426    0.0019
C        -1.9182   -3.6908    0.1037   -0.0154   -0.0239    0.0006
C         3.2652    2.9200    0.1027    0.0153    0.0238    0.0007
C         2.9671    1.5014    0.0066    0.0049    0.0425    0.0021
C        -4.7364    3.3486    0.2202   -0.0489    0.0223    0.0017
C         3.6255   -0.7151   -0.0006   -0.0276    0.0331   -0.0027
C         4.6513   -1.7396    0.0908   -0.0266    0.0114   -0.0019
C         2.5611   -2.6780    0.0096   -0.0422    0.0052   -0.0018
C         3.9791   -2.9786    0.0994   -0.0236    0.0152   -0.0004
C        -0.6787   -4.3610    0.1117   -0.0113   -0.0262    0.0020
C         0.3451   -3.3358    0.0162   -0.0328   -0.0271    0.0027
C         1.9538    4.9862    0.1974   -0.0526    0.0111   -0.0007
C         4.4707    3.6292    0.1907    0.0376   -0.0385   -0.0013
C         3.1581    5.6948    0.2620   -0.0281   -0.0440   -0.0037
C         4.4009    5.0247    0.2573   -0.0216   -0.0485   -0.0022
C         6.0491   -1.6734    0.1498   -0.0116   -0.0525    0.0010
C         4.6854   -4.1862    0.1668    0.0388    0.0372    0.0010
C         6.7557   -2.8811    0.2249    0.0437   -0.0282    0.0038
C         6.0835   -4.1199    0.2324    0.0488   -0.0222    0.0016
H         6.5636   -0.7119    0.1505   -0.0023   -0.0568    0.0010
H         4.1595   -5.1415    0.1810    0.0454    0.0327    0.0017
H         6.6636   -5.0424    0.2843    0.0079   -0.0480    0.0017
H        -5.2165   -0.0595    0.1415    0.0023    0.0570    0.0008
H        -2.8123    4.3701    0.1706   -0.0455   -0.0328    0.0017
H        -5.3164    4.2710    0.2739   -0.0080    0.0481    0.0014
H        -6.4984    2.0935    0.2595   -0.0434   -0.0208    0.0023
H         0.3559   -6.2665    0.2241    0.0566   -0.0020   -0.0027
H        -4.0801   -3.8731    0.2016   -0.0334    0.0451   -0.0036
H        -3.9765   -6.3769    0.3099    0.0477    0.0069   -0.0030
H        -1.7960   -7.5547    0.3185   -0.0204    0.0435   -0.0040
H         0.9891    5.4946    0.2174   -0.0566    0.0022   -0.0028
H         5.4267    3.1042    0.2032    0.0332   -0.0451   -0.0032
H         5.3215    5.6077    0.3106   -0.0477   -0.0072   -0.0035
H         3.1404    6.7843    0.3129    0.0206   -0.0434   -0.0034
H         7.8456   -2.8649    0.2681    0.0433    0.0207    0.0022
    57
stable frequency at    565.572 1/cm IR int. is 8.480 a.m.u.; force const. is 1.598 mDyne/Ang.
Fe        0.6742   -0.3860   -0.2512    0.0011    0.0082   -0.0000
N         3.9155    0.5774    0.0034    0.0202   -0.0417   -0.0008
N         1.6364   -3.6259    0.0222   -0.0253    0.0106    0.0006
N        -0.2400   -2.0716   -0.0762   -0.0232   -0.0318    0.0032
N        -1.0127    0.5279   -0.0841    0.0192    0.0052   -0.0015
N         1.5882    1.2996   -0.0761   -0.0233   -0.0320   -0.0033
N         2.3604   -1.2995   -0.0741    0.0191    0.0052    0.0017
N        -0.2889    2.8541    0.0151   -0.0252    0.0105   -0.0004
N        -2.5678   -1.3490   -0.0039    0.0202   -0.0414    0.0008
C        -2.6318    2.2074    0.0858   -0.0250   -0.0003    0.0038
C        -1.2138    1.9066   -0.0003   -0.0257    0.0129    0.0016
C         1.0023    2.5641    0.0125   -0.0253   -0.0119   -0.0012
C         2.0253    3.5896    0.1094   -0.0030   -0.0204   -0.0007
C        -3.3042    0.9681    0.0767    0.0350   -0.0302   -0.0054
C        -2.2782   -0.0563   -0.0113    0.0428   -0.0405   -0.0020
C        -0.6084   -5.7574    0.2030    0.0542   -0.0021   -0.0028
C        -3.1245   -4.3989    0.1900   -0.0515    0.0298    0.0010
C        -1.8131   -6.4652    0.2658    0.0250    0.0581   -0.0023
C        -4.7020    0.9019    0.1386    0.0414    0.0182   -0.0044
C        -3.3382    3.4149    0.1551   -0.0348    0.0133    0.0051
C        -5.4086    2.1097    0.2138    0.0284    0.0176    0.0033
C        -3.0555   -5.7944    0.2587    0.0061    0.0408   -0.0036
C        -1.6195   -2.2729    0.0041   -0.0060   -0.0577    0.0016
C        -1.9182   -3.6908    0.1037   -0.0193   -0.0384    0.0037
C         3.2652    2.9200    0.1027   -0.0194   -0.0387   -0.0036
C         2.9671    1.5014    0.0066   -0.0061   -0.0581   -0.0018
C        -4.7364    3.3486    0.2202   -0.0354    0.0486   -0.0021
C         3.6255   -0.7151   -0.0006    0.0427   -0.0407    0.0027
C         4.6513   -1.7396    0.0908    0.0351   -0.0303    0.0056
C         2.5611   -2.6780    0.0096   -0.0259    0.0130   -0.0023
C         3.9791   -2.9786    0.0994   -0.0251   -0.0001   -0.0043
C        -0.6787   -4.3610    0.1117   -0.0030   -0.0204    0.0006
C         0.3451   -3.3358    0.0162   -0.0254   -0.0119    0.0014
C         1.9538    4.9862    0.1974    0.0544   -0.0019    0.0026
C         4.4707    3.6292    0.1907   -0.0518    0.0298   -0.0009
C         3.1581    5.6948    0.2620    0.0250    0.0585    0.0027
C         4.4009    5.0247    0.2573    0.0060    0.0409    0.0033
C         6.0491   -1.6734    0.1498    0.0416    0.0182    0.0040
C         4.6854   -4.1862    0.1668   -0.0349    0.0135   -0.0048
C         6.7557   -2.8811    0.2249    0.0286    0.0176   -0.0031
C         6.0835   -4.1199    0.2324   -0.0354    0.0488    0.0028
H         6.5636   -0.7119    0.1505    0.0087    0.0356    0.0006
H         4.1595   -5.1415    0.1810   -0.0078   -0.0008   -0.0071
H         6.6636   -5.0424    0.2843   -0.0493    0.0397    0.0006
H        -5.2165   -0.0595    0.1415    0.0085    0.0357   -0.0017
H        -2.8123    4.3701    0.1706   -0.0078   -0.0010    0.0066
H        -5.3164    4.2710    0.2739   -0.0491    0.0397   -0.0025
H        -6.4984    2.0935    0.2595    0.0293   -0.0379    0.0104
H         0.3559   -6.2665    0.2241    0.0522   -0.0046   -0.0054
H        -4.0801   -3.8731    0.2016   -0.0421    0.0460   -0.0019
H        -3.9765   -6.3769    0.3099    0.0401   -0.0132   -0.0064
H        -1.7960   -7.5547    0.3185   -0.0133    0.0578    0.0004
H         0.9891    5.4946    0.2174    0.0523   -0.0044    0.0051
H         5.4267    3.1042    0.2032   -0.0423    0.0461    0.0023
H         5.3215    5.6077    0.3106    0.0402   -0.0133    0.0060
H         3.1404    6.7843    0.3129   -0.0132    0.0581    0.0003
H         7.8456   -2.8649    0.2681    0.0296   -0.0381   -0.0112
    57
stable frequency at    565.868 1/cm IR int. is 8.493 a.m.u.; force const. is 1.602 mDyne/Ang.
Fe        0.6742   -0.3860   -0.2512    0.0081   -0.0011    0.0000
N         3.9155    0.5774    0.0034    0.0108    0.0256   -0.0008
N         1.6364   -3.6259    0.0222   -0.0412   -0.0203   -0.0006
N        -0.2400   -2.0716   -0.0762    0.0054   -0.0192    0.0017
N        -1.0127    0.5279   -0.0841   -0.0320    0.0234    0.0026
N         1.5882    1.2996   -0.0761    0.0053   -0.0192   -0.0015
N         2.3604   -1.2995   -0.0741   -0.0320    0.0235   -0.0026
N        -0.2889    2.8541    0.0151   -0.0415   -0.0204    0.0005
N        -2.5678   -1.3490   -0.0039    0.0110    0.0251    0.0006
C        -2.6318    2.2074    0.0858   -0.0388    0.0194    0.0038
C        -1.2138    1.9066   -0.0003   -0.0581    0.0062    0.0013
C         1.0023    2.5641    0.0125   -0.0406   -0.0430   -0.0027
C         2.0253    3.5896    0.1094   -0.0303   -0.0352   -0.0056
C        -3.3042    0.9681    0.0767   -0.0204    0.0028    0.0007
C        -2.2782   -0.0563   -0.0113   -0.0119    0.0252    0.0015
C        -0.6084   -5.7574    0.2030    0.0184   -0.0410    0.0047
C        -3.1245   -4.3989    0.1900    0.0129    0.0347   -0.0049
C        -1.8131   -6.4652    0.2658    0.0177   -0.0281   -0.0022
C        -4.7020    0.9019    0.1386   -0.0021   -0.0543   -0.0033
C        -3.3382    3.4149    0.1551    0.0298    0.0518    0.0014
C        -5.4086    2.1097    0.2138    0.0587   -0.0251   -0.0020
C        -3.0555   -5.7944    0.2587    0.0482    0.0352    0.0014
C        -1.6195   -2.2729    0.0041    0.0131    0.0255   -0.0026
C        -1.9182   -3.6908    0.1037   -0.0004    0.0248   -0.0041
C         3.2652    2.9200    0.1027   -0.0003    0.0252    0.0041
C         2.9671    1.5014    0.0066    0.0130    0.0260    0.0027
C        -4.7364    3.3486    0.2202    0.0408   -0.0059   -0.0035
C         3.6255   -0.7151   -0.0006   -0.0121    0.0256   -0.0016
C         4.6513   -1.7396    0.0908   -0.0207    0.0031   -0.0005
C         2.5611   -2.6780    0.0096   -0.0578    0.0062   -0.0015
C         3.9791   -2.9786    0.0994   -0.0386    0.0193   -0.0036
C        -0.6787   -4.3610    0.1117   -0.0302   -0.0349    0.0055
C         0.3451   -3.3358    0.0162   -0.0403   -0.0428    0.0028
C         1.9538    4.9862    0.1974    0.0182   -0.0415   -0.0046
C         4.4707    3.6292    0.1907    0.0134    0.0349    0.0049
C         3.1581    5.6948    0.2620    0.0177   -0.0287    0.0022
C         4.4009    5.0247    0.2573    0.0486    0.0354   -0.0014
C         6.0491   -1.6734    0.1498   -0.0025   -0.0543    0.0033
C         4.6854   -4.1862    0.1668    0.0301    0.0513   -0.0014
C         6.7557   -2.8811    0.2249    0.0583   -0.0251    0.0020
C         6.0835   -4.1199    0.2324    0.0411   -0.0064    0.0035
H         6.5636   -0.7119    0.1505   -0.0048   -0.0524    0.0036
H         4.1595   -5.1415    0.1810    0.0465    0.0418    0.0001
H         6.6636   -5.0424    0.2843   -0.0128   -0.0403    0.0053
H        -5.2165   -0.0595    0.1415   -0.0046   -0.0522   -0.0039
H        -2.8123    4.3701    0.1706    0.0463    0.0422   -0.0002
H        -5.3164    4.2710    0.2739   -0.0135   -0.0400   -0.0055
H        -6.4984    2.0935    0.2595    0.0584    0.0128    0.0026
H         0.3559   -6.2665    0.2241    0.0356   -0.0083    0.0006
H        -4.0801   -3.8731    0.2016   -0.0013    0.0078   -0.0069
H        -3.9765   -6.3769    0.3099    0.0395    0.0485   -0.0003
H        -1.7960   -7.5547    0.3185   -0.0374   -0.0291   -0.0096
H         0.9891    5.4946    0.2174    0.0355   -0.0086   -0.0005
H         5.4267    3.1042    0.2032   -0.0009    0.0076    0.0070
H         5.3215    5.6077    0.3106    0.0395    0.0492    0.0006
H         3.1404    6.7843    0.3129   -0.0378   -0.0298    0.0097
H         7.8456   -2.8649    0.2681    0.0581    0.0133   -0.0030
    57
stable frequency at    570.713 1/cm IR int. is 7.741 a.m.u.; force const. is 1.486 mDyne/Ang.
Fe        0.6742   -0.3860   -0.2512   -0.0000   -0.0000    0.0001
N         3.9155    0.5774    0.0034   -0.0128    0.0408   -0.0002
N         1.6364   -3.6259    0.0222    0.0412    0.0131    0.0001
N        -0.2400   -2.0716   -0.0762    0.0109   -0.0051   -0.0002
N        -1.0127    0.5279   -0.0841   -0.0053   -0.0108   -0.0003
N         1.5882    1.2996   -0.0761   -0.0111    0.0052   -0.0001
N         2.3604   -1.2995   -0.0741    0.0058    0.0106   -0.0004
N        -0.2889    2.8541    0.0151   -0.0410   -0.0127   -0.0002
N        -2.5678   -1.3490   -0.0039    0.0127   -0.0412   -0.0002
C        -2.6318    2.2074    0.0858   -0.0303    0.0196    0.0041
C        -1.2138    1.9066   -0.0003   -0.0421   -0.0032    0.0011
C         1.0023    2.5641    0.0125   -0.0371   -0.0211   -0.0015
C         2.0253    3.5896    0.1094   -0.0144   -0.0337   -0.0039
C        -3.3042    0.9681    0.0767    0.0337   -0.0148   -0.0035
C        -2.2782   -0.0563   -0.0113    0.0212   -0.0372   -0.0011
C        -0.6084   -5.7574    0.2030   -0.0030    0.0534   -0.0055
C        -3.1245   -4.3989    0.1900   -0.0447   -0.0281    0.0050
C        -1.8131   -6.4652    0.2658   -0.0035    0.0515   -0.0006
C        -4.7020    0.9019    0.1386    0.0532    0.0026   -0.0049
C        -3.3382    3.4149    0.1551   -0.0278    0.0447    0.0051
C        -5.4086    2.1097    0.2138    0.0517    0.0033    0.0005
C        -3.0555   -5.7944    0.2587   -0.0456   -0.0269   -0.0008
C        -1.6195   -2.2729    0.0041    0.0033   -0.0421    0.0020
C        -1.9182   -3.6908    0.1037   -0.0196   -0.0301    0.0048
C         3.2652    2.9200    0.1027    0.0196    0.0298    0.0047
C         2.9671    1.5014    0.0066   -0.0035    0.0417    0.0017
C        -4.7364    3.3486    0.2202   -0.0266    0.0456   -0.0014
C         3.6255   -0.7151   -0.0006   -0.0209    0.0368   -0.0012
C         4.6513   -1.7396    0.0908   -0.0334    0.0146   -0.0035
C         2.5611   -2.6780    0.0096    0.0426    0.0032    0.0011
C         3.9791   -2.9786    0.0994    0.0305   -0.0199    0.0041
C        -0.6787   -4.3610    0.1117    0.0148    0.0339   -0.0041
C         0.3451   -3.3358    0.0162    0.0373    0.0216   -0.0017
C         1.9538    4.9862    0.1974    0.0031   -0.0531   -0.0053
C         4.4707    3.6292    0.1907    0.0444    0.0280    0.0049
C         3.1581    5.6948    0.2620    0.0035   -0.0511   -0.0006
C         4.4009    5.0247    0.2573    0.0452    0.0268   -0.0007
C         6.0491   -1.6734    0.1498   -0.0530   -0.0020   -0.0048
C         4.6854   -4.1862    0.1668    0.0274   -0.0452    0.0050
C         6.7557   -2.8811    0.2249   -0.0522   -0.0029    0.0006
C         6.0835   -4.1199    0.2324    0.0261   -0.0453   -0.0016
H         6.5636   -0.7119    0.1505   -0.0330   -0.0130   -0.0033
H         4.1595   -5.1415    0.1810    0.0085   -0.0354    0.0064
H         6.6636   -5.0424    0.2843    0.0686   -0.0184    0.0001
H        -5.2165   -0.0595    0.1415    0.0329    0.0137   -0.0032
H        -2.8123    4.3701    0.1706   -0.0088    0.0348    0.0064
H        -5.3164    4.2710    0.2739   -0.0686    0.0189    0.0003
H        -6.4984    2.0935    0.2595    0.0528   -0.0492    0.0067
H         0.3559   -6.2665    0.2241   -0.0139    0.0333   -0.0032
H        -4.0801   -3.8731    0.2016   -0.0349   -0.0093    0.0060
H        -3.9765   -6.3769    0.3099   -0.0190   -0.0685    0.0023
H        -1.7960   -7.5547    0.3185    0.0490    0.0527    0.0056
H         0.9891    5.4946    0.2174    0.0138   -0.0333   -0.0031
H         5.4267    3.1042    0.2032    0.0348    0.0094    0.0059
H         5.3215    5.6077    0.3106    0.0187    0.0681    0.0024
H         3.1404    6.7843    0.3129   -0.0488   -0.0522    0.0053
H         7.8456   -2.8649    0.2681   -0.0533    0.0489    0.0069
    57
stable frequency at    585.466 1/cm IR int. is 9.255 a.m.u.; force const. is 1.869 mDyne/Ang.
Fe        0.6742   -0.3860   -0.2512   -0.0000   -0.0000    0.0019
N         3.9155    0.5774    0.0034   -0.0601   -0.0189   -0.0002
N         1.6364   -3.6259    0.0222   -0.0186    0.0601   -0.0034
N        -0.2400   -2.0716   -0.0762    0.0209    0.0407   -0.0019
N        -1.0127    0.5279   -0.0841    0.0406   -0.0209   -0.0009
N         1.5882    1.2996   -0.0761   -0.0208   -0.0405   -0.0028
N         2.3604   -1.2995   -0.0741   -0.0406    0.0208   -0.0018
N        -0.2889    2.8541    0.0151    0.0186   -0.0601   -0.0019
N        -2.5678   -1.3490   -0.0039    0.0601    0.0189   -0.0014
C        -2.6318    2.2074    0.0858    0.0170   -0.0183   -0.0009
C        -1.2138    1.9066   -0.0003    0.0225   -0.0387   -0.0008
C         1.0023    2.5641    0.0125    0.0035   -0.0452   -0.0025
C         2.0253    3.5896    0.1094   -0.0049   -0.0239   -0.0012
C        -3.3042    0.9681    0.0767    0.0237   -0.0048   -0.0004
C        -2.2782   -0.0563   -0.0113    0.0451    0.0036   -0.0021
C        -0.6084   -5.7574    0.2030   -0.0440    0.0120    0.0021
C        -3.1245   -4.3989    0.1900    0.0357   -0.0301   -0.0012
C        -1.8131   -6.4652    0.2658   -0.0225   -0.0363    0.0005
C        -4.7020    0.9019    0.1386    0.0119    0.0435    0.0015
C        -3.3382    3.4149    0.1551   -0.0297   -0.0353   -0.0008
C        -5.4086    2.1097    0.2138   -0.0360    0.0224    0.0020
C        -3.0555   -5.7944    0.2587   -0.0173   -0.0383    0.0043
C        -1.6195   -2.2729    0.0041    0.0388    0.0228    0.0004
C        -1.9182   -3.6908    0.1037    0.0184    0.0171   -0.0011
C         3.2652    2.9200    0.1027   -0.0183   -0.0170   -0.0019
C         2.9671    1.5014    0.0066   -0.0387   -0.0227    0.0014
C        -4.7364    3.3486    0.2202   -0.0380    0.0172    0.0025
C         3.6255   -0.7151   -0.0006   -0.0450   -0.0036   -0.0054
C         4.6513   -1.7396    0.0908   -0.0238    0.0049   -0.0016
C         2.5611   -2.6780    0.0096   -0.0226    0.0389    0.0031
C         3.9791   -2.9786    0.0994   -0.0170    0.0184    0.0013
C        -0.6787   -4.3610    0.1117    0.0050    0.0240    0.0000
C         0.3451   -3.3358    0.0162   -0.0035    0.0452   -0.0043
C         1.9538    4.9862    0.1974    0.0438   -0.0120    0.0019
C         4.4707    3.6292    0.1907   -0.0355    0.0299   -0.0010
C         3.1581    5.6948    0.2620    0.0224    0.0361    0.0008
C         4.4009    5.0247    0.2573    0.0173    0.0382    0.0036
C         6.0491   -1.6734    0.1498   -0.0121   -0.0434    0.0033
C         4.6854   -4.1862    0.1668    0.0299    0.0353   -0.0025
C         6.7557   -2.8811    0.2249    0.0360   -0.0224   -0.0001
C         6.0835   -4.1199    0.2324    0.0382   -0.0174    0.0006
H         6.5636   -0.7119    0.1505   -0.0067   -0.0458    0.0079
H         4.1595   -5.1415    0.1810    0.0327    0.0333    0.0016
H         6.6636   -5.0424    0.2843    0.0000   -0.0406    0.0165
H        -5.2165   -0.0595    0.1415    0.0063    0.0461    0.0012
H        -2.8123    4.3701    0.1706   -0.0329   -0.0331    0.0006
H        -5.3164    4.2710    0.2739   -0.0002    0.0408    0.0046
H        -6.4984    2.0935    0.2595   -0.0357   -0.0199   -0.0009
H         0.3559   -6.2665    0.2241   -0.0465    0.0063    0.0039
H        -4.0801   -3.8731    0.2016    0.0336   -0.0330   -0.0004
H        -3.9765   -6.3769    0.3099   -0.0412   -0.0001    0.0090
H        -1.7960   -7.5547    0.3185    0.0204   -0.0359   -0.0030
H         0.9891    5.4946    0.2174    0.0462   -0.0065    0.0058
H         5.4267    3.1042    0.2032   -0.0335    0.0327    0.0021
H         5.3215    5.6077    0.3106    0.0411    0.0000    0.0095
H         3.1404    6.7843    0.3129   -0.0204    0.0356   -0.0006
H         7.8456   -2.8649    0.2681    0.0355    0.0201    0.0011
    57
stable frequency at    610.172 1/cm IR int. is 4.600 a.m.u.; force const. is 1.009 mDyne/Ang.
Fe        0.6742   -0.3860   -0.2512   -0.0001   -0.0003    0.0001
N         3.9155    0.5774    0.0034    0.0022    0.0019   -0.0007
N         1.6364   -3.6259    0.0222    0.0017   -0.0008    0.0011
N        -0.2400   -2.0716   -0.0762    0.0000   -0.0021   -0.0004
N        -1.0127    0.5279   -0.0841   -0.0015   -0.0008    0.0001
N         1.5882    1.2996   -0.0761   -0.0006    0.0013    0.0011
N         2.3604   -1.2995   -0.0741    0.0019    0.0009   -0.0000
N        -0.2889    2.8541    0.0151   -0.0019    0.0022   -0.0007
N        -2.5678   -1.3490   -0.0039   -0.0015   -0.0013    0.0005
C        -2.6318    2.2074    0.0858   -0.0016    0.0015   -0.0030
C        -1.2138    1.9066   -0.0003    0.0013   -0.0025    0.0634
C         1.0023    2.5641    0.0125   -0.0005    0.0057   -0.0621
C         2.0253    3.5896    0.1094   -0.0009   -0.0004    0.0031
C        -3.3042    0.9681    0.0767    0.0008   -0.0003    0.0031
C        -2.2782   -0.0563   -0.0113   -0.0048   -0.0002   -0.0626
C        -0.6084   -5.7574    0.2030    0.0030    0.0039    0.0452
C        -3.1245   -4.3989    0.1900   -0.0046   -0.0024   -0.0458
C        -1.8131   -6.4652    0.2658   -0.0001    0.0005   -0.0537
C        -4.7020    0.9019    0.1386    0.0043   -0.0029    0.0454
C        -3.3382    3.4149    0.1551   -0.0026    0.0046   -0.0462
C        -5.4086    2.1097    0.2138    0.0007    0.0009   -0.0540
C        -3.0555   -5.7944    0.2587    0.0002    0.0031    0.0532
C        -1.6195   -2.2729    0.0041    0.0017    0.0018    0.0619
C        -1.9182   -3.6908    0.1037   -0.0011   -0.0020   -0.0024
C         3.2652    2.9200    0.1027    0.0008    0.0018   -0.0028
C         2.9671    1.5014    0.0066   -0.0019   -0.0018    0.0622
C        -4.7364    3.3486    0.2202    0.0022   -0.0003    0.0536
C         3.6255   -0.7151   -0.0006    0.0052    0.0004   -0.0608
C         4.6513   -1.7396    0.0908   -0.0008    0.0001    0.0036
C         2.5611   -2.6780    0.0096   -0.0010    0.0028    0.0607
C         3.9791   -2.9786    0.0994    0.0017   -0.0018   -0.0029
C        -0.6787   -4.3610    0.1117    0.0008   -0.0000    0.0033
C         0.3451   -3.3358    0.0162    0.0002   -0.0058   -0.0624
C         1.9538    4.9862    0.1974   -0.0025   -0.0042    0.0455
C         4.4707    3.6292    0.1907    0.0043    0.0027   -0.0460
C         3.1581    5.6948    0.2620    0.0004   -0.0003   -0.0542
C         4.4009    5.0247    0.2573    0.0000   -0.0026    0.0535
C         6.0491   -1.6734    0.1498   -0.0043    0.0031    0.0450
C         4.6854   -4.1862    0.1668    0.0026   -0.0050   -0.0457
C         6.7557   -2.8811    0.2249   -0.0011   -0.0007   -0.0536
C         6.0835   -4.1199    0.2324   -0.0023    0.0003    0.0534
H         6.5636   -0.7119    0.1505   -0.0048    0.0033    0.0606
H         4.1595   -5.1415    0.1810    0.0028   -0.0053   -0.0606
H         6.6636   -5.0424    0.2843   -0.0017    0.0042    0.1207
H        -5.2165   -0.0595    0.1415    0.0047   -0.0030    0.0616
H        -2.8123    4.3701    0.1706   -0.0026    0.0048   -0.0597
H        -5.3164    4.2710    0.2739    0.0022   -0.0041    0.1228
H        -6.4984    2.0935    0.2595   -0.0021    0.0017   -0.1199
H         0.3559   -6.2665    0.2241    0.0026    0.0037    0.0589
H        -4.0801   -3.8731    0.2016   -0.0045   -0.0019   -0.0600
H        -3.9765   -6.3769    0.3099    0.0038    0.0030    0.1210
H        -1.7960   -7.5547    0.3185   -0.0011   -0.0028   -0.1204
H         0.9891    5.4946    0.2174   -0.0021   -0.0040    0.0605
H         5.4267    3.1042    0.2032    0.0041    0.0021   -0.0595
H         5.3215    5.6077    0.3106   -0.0035   -0.0030    0.1228
H         3.1404    6.7843    0.3129    0.0008    0.0029   -0.1204
H         7.8456   -2.8649    0.2681    0.0016   -0.0016   -0.1198
    57
stable frequency at    621.988 1/cm IR int. is 8.189 a.m.u.; force const. is 1.867 mDyne/Ang.
Fe        0.6742   -0.3860   -0.2512    0.0000    0.0000   -0.0000
N         3.9155    0.5774    0.0034   -0.0067    0.0163   -0.0001
N         1.6364   -3.6259    0.0222    0.0161    0.0066    0.0004
N        -0.2400   -2.0716   -0.0762    0.0673   -0.0358    0.0005
N        -1.0127    0.5279   -0.0841   -0.0358   -0.0672   -0.0002
N         1.5882    1.2996   -0.0761   -0.0673    0.0357    0.0006
N         2.3604   -1.2995   -0.0741    0.0359    0.0672   -0.0005
N        -0.2889    2.8541    0.0151   -0.0161   -0.0066   -0.0000
N        -2.5678   -1.3490   -0.0039    0.0066   -0.0162   -0.0001
C        -2.6318    2.2074    0.0858    0.0384    0.0313   -0.0012
C        -1.2138    1.9066   -0.0003    0.0221   -0.0495   -0.0023
C         1.0023    2.5641    0.0125   -0.0080    0.0520    0.0020
C         2.0253    3.5896    0.1094    0.0491   -0.0051    0.0007
C        -3.3042    0.9681    0.0767    0.0052    0.0491    0.0013
C        -2.2782   -0.0563   -0.0113   -0.0521   -0.0080    0.0017
C        -0.6084   -5.7574    0.2030   -0.0158    0.0178   -0.0012
C        -3.1245   -4.3989    0.1900   -0.0242    0.0031    0.0012
C        -1.8131   -6.4652    0.2658    0.0145   -0.0159    0.0011
C        -4.7020    0.9019    0.1386    0.0178    0.0158   -0.0012
C        -3.3382    3.4149    0.1551    0.0032    0.0242    0.0017
C        -5.4086    2.1097    0.2138   -0.0159   -0.0145    0.0015
C        -3.0555   -5.7944    0.2587    0.0210   -0.0039   -0.0004
C        -1.6195   -2.2729    0.0041    0.0496    0.0221   -0.0015
C        -1.9182   -3.6908    0.1037   -0.0313    0.0382   -0.0012
C         3.2652    2.9200    0.1027    0.0313   -0.0382   -0.0009
C         2.9671    1.5014    0.0066   -0.0496   -0.0220   -0.0028
C        -4.7364    3.3486    0.2202   -0.0041   -0.0209   -0.0012
C         3.6255   -0.7151   -0.0006    0.0520    0.0080    0.0030
C         4.6513   -1.7396    0.0908   -0.0052   -0.0492    0.0012
C         2.5611   -2.6780    0.0096   -0.0221    0.0495   -0.0030
C         3.9791   -2.9786    0.0994   -0.0383   -0.0314   -0.0014
C        -0.6787   -4.3610    0.1117   -0.0491    0.0050    0.0003
C         0.3451   -3.3358    0.0162    0.0079   -0.0521    0.0018
C         1.9538    4.9862    0.1974    0.0159   -0.0179   -0.0015
C         4.4707    3.6292    0.1907    0.0241   -0.0030    0.0017
C         3.1581    5.6948    0.2620   -0.0145    0.0159    0.0016
C         4.4009    5.0247    0.2573   -0.0209    0.0039   -0.0009
C         6.0491   -1.6734    0.1498   -0.0178   -0.0158   -0.0019
C         4.6854   -4.1862    0.1668   -0.0032   -0.0243    0.0024
C         6.7557   -2.8811    0.2249    0.0158    0.0146    0.0023
C         6.0835   -4.1199    0.2324    0.0041    0.0208   -0.0021
H         6.5636   -0.7119    0.1505   -0.0686    0.0112   -0.0064
H         4.1595   -5.1415    0.1810    0.0485   -0.0530    0.0064
H         6.6636   -5.0424    0.2843    0.0129    0.0257   -0.0057
H        -5.2165   -0.0595    0.1415    0.0686   -0.0112   -0.0058
H        -2.8123    4.3701    0.1706   -0.0486    0.0529    0.0050
H        -5.3164    4.2710    0.2739   -0.0127   -0.0257   -0.0044
H        -6.4984    2.0935    0.2595   -0.0155   -0.0240    0.0007
H         0.3559   -6.2665    0.2241    0.0111    0.0688   -0.0054
H        -4.0801   -3.8731    0.2016   -0.0528   -0.0484    0.0045
H        -3.9765   -6.3769    0.3099    0.0258   -0.0124   -0.0027
H        -1.7960   -7.5547    0.3185    0.0240   -0.0155   -0.0001
H         0.9891    5.4946    0.2174   -0.0109   -0.0688   -0.0067
H         5.4267    3.1042    0.2032    0.0527    0.0485    0.0042
H         5.3215    5.6077    0.3106   -0.0256    0.0125   -0.0046
H         3.1404    6.7843    0.3129   -0.0241    0.0155    0.0002
H         7.8456   -2.8649    0.2681    0.0153    0.0241    0.0028
    57
stable frequency at    624.599 1/cm IR int. is 5.164 a.m.u.; force const. is 1.187 mDyne/Ang.
Fe        0.6742   -0.3860   -0.2512   -0.0010    0.0008    0.0000
N         3.9155    0.5774    0.0034   -0.0023    0.0029    0.0237
N         1.6364   -3.6259    0.0222   -0.0035    0.0010    0.0244
N        -0.2400   -2.0716   -0.0762   -0.0041    0.0010    0.0002
N        -1.0127    0.5279   -0.0841    0.0072   -0.0036    0.0291
N         1.5882    1.2996   -0.0761   -0.0034    0.0009   -0.0004
N         2.3604   -1.2995   -0.0741    0.0072   -0.0042   -0.0290
N        -0.2889    2.8541    0.0151   -0.0034    0.0015   -0.0244
N        -2.5678   -1.3490   -0.0039   -0.0028    0.0028   -0.0238
C        -2.6318    2.2074    0.0858    0.0038   -0.0038    0.0199
C        -1.2138    1.9066   -0.0003    0.0004   -0.0010   -0.0387
C         1.0023    2.5641    0.0125   -0.0048   -0.0066    0.0881
C         2.0253    3.5896    0.1094   -0.0014   -0.0028    0.0068
C        -3.3042    0.9681    0.0767    0.0049   -0.0008    0.0198
C        -2.2782   -0.0563   -0.0113    0.0016    0.0011   -0.0390
C        -0.6084   -5.7574    0.2030    0.0025   -0.0003    0.0565
C        -3.1245   -4.3989    0.1900   -0.0007   -0.0005   -0.0564
C        -1.8131   -6.4652    0.2658   -0.0006   -0.0057   -0.0633
C        -4.7020    0.9019    0.1386    0.0033    0.0061    0.0035
C        -3.3382    3.4149    0.1551   -0.0028   -0.0066    0.0037
C        -5.4086    2.1097    0.2138   -0.0039    0.0023    0.0045
C        -3.0555   -5.7944    0.2587    0.0045    0.0058    0.0633
C        -1.6195   -2.2729    0.0041    0.0010    0.0068    0.0871
C        -1.9182   -3.6908    0.1037    0.0008    0.0014    0.0074
C         3.2652    2.9200    0.1027    0.0006    0.0019   -0.0071
C         2.9671    1.5014    0.0066    0.0019    0.0069   -0.0867
C        -4.7364    3.3486    0.2202   -0.0035    0.0009    0.0037
C         3.6255   -0.7151   -0.0006    0.0014    0.0012    0.0390
C         4.6513   -1.7396    0.0908    0.0052   -0.0005   -0.0196
C         2.5611   -2.6780    0.0096    0.0006   -0.0017    0.0389
C         3.9791   -2.9786    0.0994    0.0043   -0.0037   -0.0199
C        -0.6787   -4.3610    0.1117   -0.0010   -0.0031   -0.0067
C         0.3451   -3.3358    0.0162   -0.0047   -0.0067   -0.0883
C         1.9538    4.9862    0.1974    0.0022    0.0001   -0.0565
C         4.4707    3.6292    0.1907   -0.0006   -0.0006    0.0560
C         3.1581    5.6948    0.2620   -0.0007   -0.0059    0.0629
C         4.4009    5.0247    0.2573    0.0047    0.0055   -0.0634
C         6.0491   -1.6734    0.1498    0.0038    0.0066   -0.0036
C         4.6854   -4.1862    0.1668   -0.0029   -0.0068   -0.0040
C         6.7557   -2.8811    0.2249   -0.0042    0.0023   -0.0048
C         6.0835   -4.1199    0.2324   -0.0038    0.0008   -0.0036
H         6.5636   -0.7119    0.1505    0.0018    0.0077    0.0544
H         4.1595   -5.1415    0.1810   -0.0058   -0.0044    0.0532
H         6.6636   -5.0424    0.2843    0.0003    0.0062    0.0460
H        -5.2165   -0.0595    0.1415    0.0008    0.0073   -0.0541
H        -2.8123    4.3701    0.1706   -0.0053   -0.0043   -0.0532
H        -5.3164    4.2710    0.2739    0.0004    0.0061   -0.0455
H        -6.4984    2.0935    0.2595   -0.0059   -0.0022   -0.0445
H         0.3559   -6.2665    0.2241    0.0034    0.0020    0.0749
H        -4.0801   -3.8731    0.2016   -0.0018   -0.0022   -0.0775
H        -3.9765   -6.3769    0.3099    0.0052    0.0109    0.1380
H        -1.7960   -7.5547    0.3185   -0.0065   -0.0097   -0.1406
H         0.9891    5.4946    0.2174    0.0032    0.0027   -0.0740
H         5.4267    3.1042    0.2032   -0.0020   -0.0027    0.0778
H         5.3215    5.6077    0.3106    0.0054    0.0107   -0.1366
H         3.1404    6.7843    0.3129   -0.0063   -0.0098    0.1414
H         7.8456   -2.8649    0.2681   -0.0061   -0.0026    0.0445
    57
stable frequency at    624.975 1/cm IR int. is 5.117 a.m.u.; force const. is 1.178 mDyne/Ang.
Fe        0.6742   -0.3860   -0.2512    0.0007    0.0014   -0.0001
N         3.9155    0.5774    0.0034   -0.0005    0.0027   -0.0239
N         1.6364   -3.6259    0.0222    0.0016    0.0024    0.0232
N        -0.2400   -2.0716   -0.0762   -0.0037   -0.0065   -0.0286
N        -1.0127    0.5279   -0.0841    0.0015    0.0030    0.0001
N         1.5882    1.2996   -0.0761   -0.0035   -0.0080    0.0287
N         2.3604   -1.2995   -0.0741    0.0003    0.0025   -0.0003
N        -0.2889    2.8541    0.0151    0.0029    0.0006   -0.0233
N        -2.5678   -1.3490   -0.0039    0.0014    0.0032    0.0240
C        -2.6318    2.2074    0.0858    0.0012   -0.0005    0.0071
C        -1.2138    1.9066   -0.0003    0.0052   -0.0030    0.0860
C         1.0023    2.5641    0.0125    0.0011   -0.0024   -0.0390
C         2.0253    3.5896    0.1094   -0.0011   -0.0056    0.0196
C        -3.3042    0.9681    0.0767   -0.0009    0.0007   -0.0070
C        -2.2782   -0.0563   -0.0113   -0.0042    0.0038   -0.0876
C        -0.6084   -5.7574    0.2030    0.0052   -0.0029   -0.0034
C        -3.1245   -4.3989    0.1900   -0.0047    0.0026   -0.0033
C        -1.8131   -6.4652    0.2658    0.0019    0.0032   -0.0040
C        -4.7020    0.9019    0.1386    0.0013   -0.0019    0.0565
C        -3.3382    3.4149    0.1551   -0.0018    0.0006   -0.0559
C        -5.4086    2.1097    0.2138   -0.0047    0.0018   -0.0628
C        -3.0555   -5.7944    0.2587    0.0010    0.0032   -0.0041
C        -1.6195   -2.2729    0.0041   -0.0012    0.0004    0.0387
C        -1.9182   -3.6908    0.1037   -0.0029   -0.0038   -0.0203
C         3.2652    2.9200    0.1027   -0.0040   -0.0040    0.0198
C         2.9671    1.5014    0.0066   -0.0019   -0.0001   -0.0398
C        -4.7364    3.3486    0.2202    0.0037   -0.0032    0.0638
C         3.6255   -0.7151   -0.0006   -0.0063    0.0040    0.0879
C         4.6513   -1.7396    0.0908   -0.0018    0.0018    0.0065
C         2.5611   -2.6780    0.0096    0.0050   -0.0027   -0.0869
C         3.9791   -2.9786    0.0994    0.0010    0.0007   -0.0072
C        -0.6787   -4.3610    0.1117   -0.0006   -0.0048   -0.0201
C         0.3451   -3.3358    0.0162    0.0004   -0.0002    0.0398
C         1.9538    4.9862    0.1974    0.0065   -0.0036    0.0034
C         4.4707    3.6292    0.1907   -0.0068    0.0032    0.0045
C         3.1581    5.6948    0.2620    0.0027    0.0041    0.0053
C         4.4009    5.0247    0.2573    0.0014    0.0041    0.0039
C         6.0491   -1.6734    0.1498    0.0007   -0.0033   -0.0565
C         4.6854   -4.1862    0.1668   -0.0010    0.0024    0.0570
C         6.7557   -2.8811    0.2249   -0.0040    0.0011    0.0640
C         6.0835   -4.1199    0.2324    0.0048   -0.0041   -0.0646
H         6.5636   -0.7119    0.1505    0.0035   -0.0047   -0.0770
H         4.1595   -5.1415    0.1810   -0.0033    0.0039    0.0795
H         6.6636   -5.0424    0.2843    0.0081   -0.0060   -0.1381
H        -5.2165   -0.0595    0.1415    0.0032   -0.0030    0.0756
H        -2.8123    4.3701    0.1706   -0.0032    0.0018   -0.0793
H        -5.3164    4.2710    0.2739    0.0084   -0.0042    0.1361
H        -6.4984    2.0935    0.2595   -0.0082    0.0058   -0.1415
H         0.3559   -6.2665    0.2241    0.0058    0.0005    0.0540
H        -4.0801   -3.8731    0.2016   -0.0021    0.0061    0.0537
H        -3.9765   -6.3769    0.3099    0.0052    0.0008    0.0443
H        -1.7960   -7.5547    0.3185   -0.0026    0.0055    0.0450
H         0.9891    5.4946    0.2174    0.0073    0.0003   -0.0560
H         5.4267    3.1042    0.2032   -0.0044    0.0061   -0.0544
H         5.3215    5.6077    0.3106    0.0069    0.0003   -0.0488
H         3.1404    6.7843    0.3129   -0.0029    0.0064   -0.0461
H         7.8456   -2.8649    0.2681   -0.0072    0.0066    0.1418
    57
stable frequency at    635.926 1/cm IR int. is 8.031 a.m.u.; force const. is 1.914 mDyne/Ang.
Fe        0.6742   -0.3860   -0.2512    0.0092    0.0175    0.0000
N         3.9155    0.5774    0.0034   -0.0129    0.0304    0.0041
N         1.6364   -3.6259    0.0222    0.0329    0.0063   -0.0054
N        -0.2400   -2.0716   -0.0762   -0.0239   -0.0436    0.0058
N        -1.0127    0.5279   -0.0841    0.0103    0.0175   -0.0002
N         1.5882    1.2996   -0.0761   -0.0238   -0.0434   -0.0056
N         2.3604   -1.2995   -0.0741    0.0105    0.0173   -0.0002
N        -0.2889    2.8541    0.0151    0.0328    0.0064    0.0053
N        -2.5678   -1.3490   -0.0039   -0.0131    0.0304   -0.0042
C        -2.6318    2.2074    0.0858    0.0440    0.0041   -0.0039
C        -1.2138    1.9066   -0.0003    0.0367    0.0030   -0.0089
C         1.0023    2.5641    0.0125    0.0061   -0.0358   -0.0014
C         2.0253    3.5896    0.1094   -0.0014   -0.0358   -0.0025
C        -3.3042    0.9681    0.0767   -0.0199    0.0389    0.0023
C        -2.2782   -0.0563   -0.0113   -0.0167    0.0315    0.0101
C        -0.6084   -5.7574    0.2030    0.0521   -0.0338    0.0002
C        -3.1245   -4.3989    0.1900   -0.0567    0.0257    0.0018
C        -1.8131   -6.4652    0.2658    0.0201    0.0276   -0.0008
C        -4.7020    0.9019    0.1386   -0.0381    0.0116   -0.0008
C        -3.3382    3.4149    0.1551    0.0298   -0.0264    0.0011
C        -5.4086    2.1097    0.2138   -0.0608   -0.0062    0.0067
C        -3.0555   -5.7944    0.2587    0.0124    0.0327   -0.0027
C        -1.6195   -2.2729    0.0041   -0.0338   -0.0151   -0.0026
C        -1.9182   -3.6908    0.1037   -0.0292   -0.0207    0.0017
C         3.2652    2.9200    0.1027   -0.0292   -0.0206   -0.0016
C         2.9671    1.5014    0.0066   -0.0336   -0.0150    0.0022
C        -4.7364    3.3486    0.2202    0.0270   -0.0538   -0.0055
C         3.6255   -0.7151   -0.0006   -0.0165    0.0314   -0.0098
C         4.6513   -1.7396    0.0908   -0.0198    0.0388   -0.0024
C         2.5611   -2.6780    0.0096    0.0367    0.0029    0.0093
C         3.9791   -2.9786    0.0994    0.0441    0.0040    0.0043
C        -0.6787   -4.3610    0.1117   -0.0014   -0.0359    0.0027
C         0.3451   -3.3358    0.0162    0.0062   -0.0359    0.0015
C         1.9538    4.9862    0.1974    0.0520   -0.0337   -0.0003
C         4.4707    3.6292    0.1907   -0.0567    0.0256   -0.0017
C         3.1581    5.6948    0.2620    0.0201    0.0275    0.0010
C         4.4009    5.0247    0.2573    0.0123    0.0326    0.0023
C         6.0491   -1.6734    0.1498   -0.0380    0.0117    0.0005
C         4.6854   -4.1862    0.1668    0.0297   -0.0265   -0.0012
C         6.7557   -2.8811    0.2249   -0.0609   -0.0061   -0.0066
C         6.0835   -4.1199    0.2324    0.0269   -0.0537    0.0043
H         6.5636   -0.7119    0.1505    0.0078   -0.0132    0.0074
H         4.1595   -5.1415    0.1810   -0.0161   -0.0020   -0.0013
H         6.6636   -5.0424    0.2843    0.0676   -0.0270    0.0200
H        -5.2165   -0.0595    0.1415    0.0079   -0.0133   -0.0062
H        -2.8123    4.3701    0.1706   -0.0159   -0.0020    0.0034
H        -5.3164    4.2710    0.2739    0.0678   -0.0272   -0.0174
H        -6.4984    2.0935    0.2595   -0.0615    0.0428    0.0070
H         0.3559   -6.2665    0.2241    0.0506   -0.0367   -0.0045
H        -4.0801   -3.8731    0.2016   -0.0598    0.0204   -0.0016
H        -3.9765   -6.3769    0.3099    0.0434   -0.0175   -0.0086
H        -1.7960   -7.5547    0.3185   -0.0386    0.0265   -0.0021
H         0.9891    5.4946    0.2174    0.0506   -0.0365    0.0041
H         5.4267    3.1042    0.2032   -0.0597    0.0204    0.0017
H         5.3215    5.6077    0.3106    0.0433   -0.0174    0.0081
H         3.1404    6.7843    0.3129   -0.0386    0.0263    0.0025
H         7.8456   -2.8649    0.2681   -0.0617    0.0429   -0.0038
    57
stable frequency at    636.099 1/cm IR int. is 8.047 a.m.u.; force const. is 1.918 mDyne/Ang.
Fe        0.6742   -0.3860   -0.2512   -0.0175    0.0092   -0.0000
N         3.9155    0.5774    0.0034   -0.0065    0.0331   -0.0060
N         1.6364   -3.6259    0.0222   -0.0305   -0.0134   -0.0050
N        -0.2400   -2.0716   -0.0762   -0.0175    0.0104    0.0001
N        -1.0127    0.5279   -0.0841    0.0435   -0.0239   -0.0047
N         1.5882    1.2996   -0.0761   -0.0175    0.0103   -0.0002
N         2.3604   -1.2995   -0.0741    0.0437   -0.0240    0.0049
N        -0.2889    2.8541    0.0151   -0.0303   -0.0133    0.0047
N        -2.5678   -1.3490   -0.0039   -0.0064    0.0330    0.0060
C        -2.6318    2.2074    0.0858    0.0204   -0.0292   -0.0022
C        -1.2138    1.9066   -0.0003    0.0148   -0.0337    0.0009
C         1.0023    2.5641    0.0125   -0.0313   -0.0167   -0.0110
C         2.0253    3.5896    0.1094   -0.0387   -0.0198   -0.0032
C        -3.3042    0.9681    0.0767    0.0358   -0.0014   -0.0025
C        -2.2782   -0.0563   -0.0113    0.0358    0.0061   -0.0004
C        -0.6084   -5.7574    0.2030   -0.0117   -0.0381   -0.0013
C        -3.1245   -4.3989    0.1900    0.0267    0.0298    0.0020
C        -1.8131   -6.4652    0.2658    0.0062   -0.0607    0.0086
C        -4.7020    0.9019    0.1386    0.0339    0.0517    0.0006
C        -3.3382    3.4149    0.1551   -0.0258   -0.0564   -0.0014
C        -5.4086    2.1097    0.2138   -0.0274    0.0201    0.0014
C        -3.0555   -5.7944    0.2587    0.0536    0.0269   -0.0065
C        -1.6195   -2.2729    0.0041   -0.0030    0.0365   -0.0113
C        -1.9182   -3.6908    0.1037   -0.0040    0.0440   -0.0050
C         3.2652    2.9200    0.1027   -0.0041    0.0441    0.0049
C         2.9671    1.5014    0.0066   -0.0031    0.0365    0.0111
C        -4.7364    3.3486    0.2202   -0.0327    0.0126    0.0019
C         3.6255   -0.7151   -0.0006    0.0360    0.0061    0.0006
C         4.6513   -1.7396    0.0908    0.0358   -0.0015    0.0027
C         2.5611   -2.6780    0.0096    0.0148   -0.0338   -0.0010
C         3.9791   -2.9786    0.0994    0.0203   -0.0291    0.0025
C        -0.6787   -4.3610    0.1117   -0.0387   -0.0198    0.0032
C         0.3451   -3.3358    0.0162   -0.0314   -0.0166    0.0114
C         1.9538    4.9862    0.1974   -0.0116   -0.0382    0.0011
C         4.4707    3.6292    0.1907    0.0265    0.0298   -0.0018
C         3.1581    5.6948    0.2620    0.0063   -0.0607   -0.0083
C         4.4009    5.0247    0.2573    0.0536    0.0270    0.0063
C         6.0491   -1.6734    0.1498    0.0338    0.0516   -0.0008
C         4.6854   -4.1862    0.1668   -0.0257   -0.0562    0.0013
C         6.7557   -2.8811    0.2249   -0.0273    0.0201   -0.0012
C         6.0835   -4.1199    0.2324   -0.0327    0.0126   -0.0022
H         6.5636   -0.7119    0.1505    0.0361    0.0504   -0.0026
H         4.1595   -5.1415    0.1810   -0.0205   -0.0592   -0.0006
H         6.6636   -5.0424    0.2843    0.0168    0.0433   -0.0042
H        -5.2165   -0.0595    0.1415    0.0363    0.0505    0.0024
H        -2.8123    4.3701    0.1706   -0.0205   -0.0594    0.0008
H        -5.3164    4.2710    0.2739    0.0170    0.0433    0.0049
H        -6.4984    2.0935    0.2595   -0.0264   -0.0384   -0.0000
H         0.3559   -6.2665    0.2241    0.0131    0.0079   -0.0078
H        -4.0801   -3.8731    0.2016    0.0024   -0.0158    0.0036
H        -3.9765   -6.3769    0.3099    0.0269    0.0675   -0.0216
H        -1.7960   -7.5547    0.3185   -0.0425   -0.0613    0.0089
H         0.9891    5.4946    0.2174    0.0132    0.0078    0.0078
H         5.4267    3.1042    0.2032    0.0021   -0.0159   -0.0032
H         5.3215    5.6077    0.3106    0.0267    0.0676    0.0212
H         3.1404    6.7843    0.3129   -0.0425   -0.0614   -0.0082
H         7.8456   -2.8649    0.2681   -0.0264   -0.0384    0.0010
    57
stable frequency at    669.982 1/cm IR int. is 6.963 a.m.u.; force const. is 1.842 mDyne/Ang.
Fe        0.6742   -0.3860   -0.2512   -0.0000   -0.0001    0.0002
N         3.9155    0.5774    0.0034    0.0272    0.0078    0.0546
N         1.6364   -3.6259    0.0222    0.0091   -0.0290   -0.0506
N        -0.2400   -2.0716   -0.0762    0.0032    0.0006   -0.0011
N        -1.0127    0.5279   -0.0841    0.0025   -0.0008    0.0008
N         1.5882    1.2996   -0.0761   -0.0031   -0.0007   -0.0013
N         2.3604   -1.2995   -0.0741   -0.0026    0.0008    0.0009
N        -0.2889    2.8541    0.0151   -0.0089    0.0294   -0.0513
N        -2.5678   -1.3490   -0.0039   -0.0271   -0.0076    0.0548
C        -2.6318    2.2074    0.0858    0.0045   -0.0089    0.0288
C        -1.2138    1.9066   -0.0003    0.0044    0.0055    0.0598
C         1.0023    2.5641    0.0125   -0.0079    0.0030    0.0620
C         2.0253    3.5896    0.1094    0.0018   -0.0106    0.0282
C        -3.3042    0.9681    0.0767    0.0093   -0.0047   -0.0288
C        -2.2782   -0.0563   -0.0113   -0.0072   -0.0079   -0.0627
C        -0.6084   -5.7574    0.2030   -0.0152    0.0081   -0.0344
C        -3.1245   -4.3989    0.1900    0.0185   -0.0001    0.0329
C        -1.8131   -6.4652    0.2658   -0.0022   -0.0061    0.0362
C        -4.7020    0.9019    0.1386    0.0161    0.0100    0.0335
C        -3.3382    3.4149    0.1551   -0.0083   -0.0146   -0.0339
C        -5.4086    2.1097    0.2138    0.0006    0.0051   -0.0359
C        -3.0555   -5.7944    0.2587    0.0031   -0.0045   -0.0359
C        -1.6195   -2.2729    0.0041   -0.0097    0.0025   -0.0606
C        -1.9182   -3.6908    0.1037    0.0039    0.0094   -0.0292
C         3.2652    2.9200    0.1027   -0.0039   -0.0095   -0.0295
C         2.9671    1.5014    0.0066    0.0099   -0.0027   -0.0600
C        -4.7364    3.3486    0.2202   -0.0054    0.0040    0.0363
C         3.6255   -0.7151   -0.0006    0.0072    0.0078   -0.0626
C         4.6513   -1.7396    0.0908   -0.0093    0.0046   -0.0289
C         2.5611   -2.6780    0.0096   -0.0045   -0.0054    0.0592
C         3.9791   -2.9786    0.0994   -0.0047    0.0088    0.0288
C        -0.6787   -4.3610    0.1117   -0.0018    0.0107    0.0283
C         0.3451   -3.3358    0.0162    0.0077   -0.0029    0.0610
C         1.9538    4.9862    0.1974    0.0154   -0.0081   -0.0345
C         4.4707    3.6292    0.1907   -0.0187    0.0001    0.0329
C         3.1581    5.6948    0.2620    0.0021    0.0062    0.0361
C         4.4009    5.0247    0.2573   -0.0032    0.0044   -0.0363
C         6.0491   -1.6734    0.1498   -0.0160   -0.0100    0.0338
C         4.6854   -4.1862    0.1668    0.0083    0.0147   -0.0341
C         6.7557   -2.8811    0.2249   -0.0005   -0.0051   -0.0360
C         6.0835   -4.1199    0.2324    0.0054   -0.0039    0.0367
H         6.5636   -0.7119    0.1505   -0.0145   -0.0110    0.0570
H         4.1595   -5.1415    0.1810    0.0030    0.0174   -0.0611
H         6.6636   -5.0424    0.2843   -0.0058   -0.0091    0.0672
H        -5.2165   -0.0595    0.1415    0.0145    0.0111    0.0569
H        -2.8123    4.3701    0.1706   -0.0027   -0.0174   -0.0602
H        -5.3164    4.2710    0.2739    0.0057    0.0091    0.0677
H        -6.4984    2.0935    0.2595   -0.0004   -0.0131   -0.0695
H         0.3559   -6.2665    0.2241   -0.0119    0.0136   -0.0571
H        -4.0801   -3.8731    0.2016    0.0178   -0.0022    0.0583
H        -3.9765   -6.3769    0.3099   -0.0073    0.0098   -0.0668
H        -1.7960   -7.5547    0.3185    0.0104   -0.0040    0.0697
H         0.9891    5.4946    0.2174    0.0121   -0.0138   -0.0559
H         5.4267    3.1042    0.2032   -0.0182    0.0021    0.0599
H         5.3215    5.6077    0.3106    0.0074   -0.0101   -0.0653
H         3.1404    6.7843    0.3129   -0.0106    0.0041    0.0716
H         7.8456   -2.8649    0.2681    0.0005    0.0129   -0.0706
    57
stable frequency at    670.575 1/cm IR int. is 8.547 a.m.u.; force const. is 2.264 mDyne/Ang.
Fe        0.6742   -0.3860   -0.2512   -0.0000    0.0000    0.0001
N         3.9155    0.5774    0.0034    0.0831    0.0247   -0.0121
N         1.6364   -3.6259    0.0222    0.0242   -0.0821    0.0239
N        -0.2400   -2.0716   -0.0762    0.0034    0.0059   -0.0006
N        -1.0127    0.5279   -0.0841    0.0056   -0.0044    0.0009
N         1.5882    1.2996   -0.0761   -0.0033   -0.0059   -0.0007
N         2.3604   -1.2995   -0.0741   -0.0058    0.0045    0.0012
N        -0.2889    2.8541    0.0151   -0.0243    0.0819    0.0240
N        -2.5678   -1.3490   -0.0039   -0.0832   -0.0247   -0.0123
C        -2.6318    2.2074    0.0858    0.0219   -0.0199   -0.0110
C        -1.2138    1.9066   -0.0003    0.0113    0.0249   -0.0236
C         1.0023    2.5641    0.0125   -0.0226    0.0160   -0.0215
C         2.0253    3.5896    0.1094   -0.0063   -0.0283   -0.0111
C        -3.3042    0.9681    0.0767    0.0291   -0.0051    0.0087
C        -2.2782   -0.0563   -0.0113   -0.0142   -0.0227    0.0172
C        -0.6084   -5.7574    0.2030   -0.0380    0.0374    0.0099
C        -3.1245   -4.3989    0.1900    0.0508   -0.0135   -0.0123
C        -1.8131   -6.4652    0.2658   -0.0109   -0.0087   -0.0113
C        -4.7020    0.9019    0.1386    0.0353    0.0393   -0.0110
C        -3.3382    3.4149    0.1551   -0.0115   -0.0519    0.0110
C        -5.4086    2.1097    0.2138   -0.0099    0.0101    0.0134
C        -3.0555   -5.7944    0.2587   -0.0019   -0.0140    0.0129
C        -1.6195   -2.2729    0.0041   -0.0235    0.0124    0.0192
C        -1.9182   -3.6908    0.1037    0.0211    0.0211    0.0084
C         3.2652    2.9200    0.1027   -0.0211   -0.0211    0.0084
C         2.9671    1.5014    0.0066    0.0235   -0.0124    0.0193
C        -4.7364    3.3486    0.2202   -0.0143    0.0007   -0.0111
C         3.6255   -0.7151   -0.0006    0.0142    0.0228    0.0169
C         4.6513   -1.7396    0.0908   -0.0291    0.0052    0.0086
C         2.5611   -2.6780    0.0096   -0.0114   -0.0248   -0.0234
C         3.9791   -2.9786    0.0994   -0.0218    0.0199   -0.0114
C        -0.6787   -4.3610    0.1117    0.0063    0.0283   -0.0111
C         0.3451   -3.3358    0.0162    0.0227   -0.0162   -0.0213
C         1.9538    4.9862    0.1974    0.0380   -0.0373    0.0100
C         4.4707    3.6292    0.1907   -0.0508    0.0135   -0.0123
C         3.1581    5.6948    0.2620    0.0109    0.0086   -0.0111
C         4.4009    5.0247    0.2573    0.0019    0.0140    0.0128
C         6.0491   -1.6734    0.1498   -0.0353   -0.0393   -0.0108
C         4.6854   -4.1862    0.1668    0.0115    0.0518    0.0110
C         6.7557   -2.8811    0.2249    0.0099   -0.0101    0.0134
C         6.0835   -4.1199    0.2324    0.0143   -0.0008   -0.0107
H         6.5636   -0.7119    0.1505   -0.0408   -0.0368   -0.0259
H         4.1595   -5.1415    0.1810    0.0064    0.0553    0.0136
H         6.6636   -5.0424    0.2843   -0.0249   -0.0259   -0.0295
H        -5.2165   -0.0595    0.1415    0.0410    0.0367   -0.0254
H        -2.8123    4.3701    0.1706   -0.0063   -0.0554    0.0138
H        -5.3164    4.2710    0.2739    0.0251    0.0258   -0.0282
H        -6.4984    2.0935    0.2595   -0.0086   -0.0353    0.0166
H         0.3559   -6.2665    0.2241   -0.0360    0.0423    0.0173
H        -4.0801   -3.8731    0.2016    0.0550   -0.0067   -0.0216
H        -3.9765   -6.3769    0.3099   -0.0256    0.0252    0.0232
H        -1.7960   -7.5547    0.3185    0.0358   -0.0081   -0.0230
H         0.9891    5.4946    0.2174    0.0360   -0.0422    0.0169
H         5.4267    3.1042    0.2032   -0.0549    0.0067   -0.0216
H         5.3215    5.6077    0.3106    0.0255   -0.0251    0.0228
H         3.1404    6.7843    0.3129   -0.0358    0.0080   -0.0232
H         7.8456   -2.8649    0.2681    0.0086    0.0353    0.0153
    57
stable frequency at    679.318 1/cm IR int. is 4.265 a.m.u.; force const. is 1.160 mDyne/Ang.
Fe        0.6742   -0.3860   -0.2512   -0.0001   -0.0002    0.0001
N         3.9155    0.5774    0.0034    0.0113    0.0095   -0.0008
N         1.6364   -3.6259    0.0222   -0.0092    0.0092    0.0009
N        -0.2400   -2.0716   -0.0762    0.0027    0.0087    0.0461
N        -1.0127    0.5279   -0.0841   -0.0074    0.0028   -0.0460
N         1.5882    1.2996   -0.0761   -0.0028   -0.0085    0.0457
N         2.3604   -1.2995   -0.0741    0.0073   -0.0031   -0.0461
N        -0.2889    2.8541    0.0151    0.0088   -0.0087   -0.0000
N        -2.5678   -1.3490   -0.0039   -0.0105   -0.0094    0.0002
C        -2.6318    2.2074    0.0858   -0.0344   -0.0133   -0.0128
C        -1.2138    1.9066   -0.0003   -0.0145    0.0053    0.0504
C         1.0023    2.5641    0.0125    0.0165    0.0135   -0.0530
C         2.0253    3.5896    0.1094    0.0378    0.0048    0.0118
C        -3.3042    0.9681    0.0767    0.0053   -0.0381   -0.0116
C        -2.2782   -0.0563   -0.0113    0.0127   -0.0170    0.0538
C        -0.6084   -5.7574    0.2030   -0.0170   -0.0125    0.0139
C        -3.1245   -4.3989    0.1900    0.0065    0.0212    0.0077
C        -1.8131   -6.4652    0.2658    0.0051   -0.0444    0.0095
C        -4.7020    0.9019    0.1386    0.0130   -0.0161   -0.0145
C        -3.3382    3.4149    0.1551   -0.0216    0.0056   -0.0081
C        -5.4086    2.1097    0.2138    0.0441    0.0056   -0.0090
C        -3.0555   -5.7944    0.2587    0.0402    0.0184    0.0092
C        -1.6195   -2.2729    0.0041    0.0053    0.0142   -0.0509
C        -1.9182   -3.6908    0.1037   -0.0128    0.0348    0.0128
C         3.2652    2.9200    0.1027    0.0129   -0.0347    0.0124
C         2.9671    1.5014    0.0066   -0.0047   -0.0144   -0.0493
C        -4.7364    3.3486    0.2202   -0.0189    0.0406   -0.0096
C         3.6255   -0.7151   -0.0006   -0.0127    0.0172    0.0545
C         4.6513   -1.7396    0.0908   -0.0053    0.0379   -0.0117
C         2.5611   -2.6780    0.0096    0.0143   -0.0053    0.0497
C         3.9791   -2.9786    0.0994    0.0342    0.0133   -0.0125
C        -0.6787   -4.3610    0.1117   -0.0379   -0.0047    0.0122
C         0.3451   -3.3358    0.0162   -0.0167   -0.0134   -0.0546
C         1.9538    4.9862    0.1974    0.0169    0.0127    0.0135
C         4.4707    3.6292    0.1907   -0.0064   -0.0212    0.0075
C         3.1581    5.6948    0.2620   -0.0052    0.0444    0.0091
C         4.4009    5.0247    0.2573   -0.0402   -0.0185    0.0088
C         6.0491   -1.6734    0.1498   -0.0128    0.0161   -0.0143
C         4.6854   -4.1862    0.1668    0.0214   -0.0055   -0.0084
C         6.7557   -2.8811    0.2249   -0.0438   -0.0056   -0.0094
C         6.0835   -4.1199    0.2324    0.0187   -0.0403   -0.0096
H         6.5636   -0.7119    0.1505    0.0281   -0.0061    0.0846
H         4.1595   -5.1415    0.1810   -0.0269    0.0219    0.0878
H         6.6636   -5.0424    0.2843    0.0384   -0.0212    0.1033
H        -5.2165   -0.0595    0.1415   -0.0279    0.0063    0.0830
H        -2.8123    4.3701    0.1706    0.0269   -0.0221    0.0878
H        -5.3164    4.2710    0.2739   -0.0387    0.0212    0.1013
H        -6.4984    2.0935    0.2595    0.0492   -0.0263    0.1021
H         0.3559   -6.2665    0.2241    0.0062    0.0270   -0.0833
H        -4.0801   -3.8731    0.2016   -0.0211   -0.0280   -0.0872
H        -3.9765   -6.3769    0.3099    0.0207    0.0389   -0.1010
H        -1.7960   -7.5547    0.3185   -0.0240   -0.0500   -0.1004
H         0.9891    5.4946    0.2174   -0.0062   -0.0271   -0.0803
H         5.4267    3.1042    0.2032    0.0211    0.0278   -0.0843
H         5.3215    5.6077    0.3106   -0.0206   -0.0392   -0.0976
H         3.1404    6.7843    0.3129    0.0242    0.0497   -0.0968
H         7.8456   -2.8649    0.2681   -0.0487    0.0261    0.1029
    57
stable frequency at    681.599 1/cm IR int. is 5.075 a.m.u.; force const. is 1.389 mDyne/Ang.
Fe        0.6742   -0.3860   -0.2512    0.0001    0.0001   -0.0001
N         3.9155    0.5774    0.0034    0.0129   -0.0029   -0.0007
N         1.6364   -3.6259    0.0222    0.0017    0.0168    0.0008
N        -0.2400   -2.0716   -0.0762   -0.0047   -0.0059   -0.0415
N        -1.0127    0.5279   -0.0841    0.0046   -0.0044    0.0419
N         1.5882    1.2996   -0.0761    0.0047    0.0059   -0.0412
N         2.3604   -1.2995   -0.0741   -0.0046    0.0046    0.0418
N        -0.2889    2.8541    0.0151   -0.0015   -0.0172    0.0019
N        -2.5678   -1.3490   -0.0039   -0.0134    0.0028   -0.0015
C        -2.6318    2.2074    0.0858   -0.0396   -0.0178    0.0109
C        -1.2138    1.9066   -0.0003   -0.0243    0.0021   -0.0515
C         1.0023    2.5641    0.0125    0.0112    0.0133    0.0435
C         2.0253    3.5896    0.1094    0.0407    0.0097   -0.0133
C        -3.3042    0.9681    0.0767    0.0082   -0.0404    0.0132
C        -2.2782   -0.0563   -0.0113    0.0140   -0.0101   -0.0443
C        -0.6084   -5.7574    0.2030   -0.0153   -0.0199   -0.0050
C        -3.1245   -4.3989    0.1900    0.0012    0.0237   -0.0132
C        -1.8131   -6.4652    0.2658    0.0076   -0.0496   -0.0070
C        -4.7020    0.9019    0.1386    0.0185   -0.0168    0.0057
C        -3.3382    3.4149    0.1551   -0.0231    0.0029    0.0134
C        -5.4086    2.1097    0.2138    0.0499    0.0068    0.0076
C        -3.0555   -5.7944    0.2587    0.0450    0.0221   -0.0059
C        -1.6195   -2.2729    0.0041    0.0027    0.0245    0.0508
C        -1.9182   -3.6908    0.1037   -0.0187    0.0388   -0.0119
C         3.2652    2.9200    0.1027    0.0187   -0.0388   -0.0116
C         2.9671    1.5014    0.0066   -0.0031   -0.0242    0.0498
C        -4.7364    3.3486    0.2202   -0.0211    0.0445    0.0065
C         3.6255   -0.7151   -0.0006   -0.0140    0.0100   -0.0452
C         4.6513   -1.7396    0.0908   -0.0082    0.0407    0.0131
C         2.5611   -2.6780    0.0096    0.0244   -0.0022   -0.0501
C         3.9791   -2.9786    0.0994    0.0398    0.0178    0.0107
C        -0.6787   -4.3610    0.1117   -0.0407   -0.0098   -0.0136
C         0.3451   -3.3358    0.0162   -0.0112   -0.0133    0.0448
C         1.9538    4.9862    0.1974    0.0154    0.0198   -0.0047
C         4.4707    3.6292    0.1907   -0.0013   -0.0237   -0.0129
C         3.1581    5.6948    0.2620   -0.0075    0.0495   -0.0067
C         4.4009    5.0247    0.2573   -0.0449   -0.0221   -0.0056
C         6.0491   -1.6734    0.1498   -0.0187    0.0169    0.0057
C         4.6854   -4.1862    0.1668    0.0232   -0.0030    0.0134
C         6.7557   -2.8811    0.2249   -0.0502   -0.0068    0.0078
C         6.0835   -4.1199    0.2324    0.0212   -0.0448    0.0066
H         6.5636   -0.7119    0.1505    0.0352   -0.0123   -0.0762
H         4.1595   -5.1415    0.1810   -0.0253    0.0221   -0.0700
H         6.6636   -5.0424    0.2843    0.0517   -0.0304   -0.0821
H        -5.2165   -0.0595    0.1415   -0.0353    0.0121   -0.0757
H        -2.8123    4.3701    0.1706    0.0252   -0.0219   -0.0705
H        -5.3164    4.2710    0.2739   -0.0515    0.0304   -0.0813
H        -6.4984    2.0935    0.2595    0.0465   -0.0244   -0.0788
H         0.3559   -6.2665    0.2241    0.0126    0.0352    0.0753
H        -4.0801   -3.8731    0.2016   -0.0237   -0.0240    0.0679
H        -3.9765   -6.3769    0.3099    0.0312    0.0508    0.0782
H        -1.7960   -7.5547    0.3185   -0.0268   -0.0460    0.0768
H         0.9891    5.4946    0.2174   -0.0125   -0.0351    0.0727
H         5.4267    3.1042    0.2032    0.0236    0.0243    0.0653
H         5.3215    5.6077    0.3106   -0.0312   -0.0505    0.0750
H         3.1404    6.7843    0.3129    0.0266    0.0462    0.0735
H         7.8456   -2.8649    0.2681   -0.0470    0.0245   -0.0789
    57
stable frequency at    712.483 1/cm IR int. is 2.325 a.m.u.; force const. is 0.696 mDyne/Ang.
Fe        0.6742   -0.3860   -0.2512   -0.0005    0.0004   -0.0004
N         3.9155    0.5774    0.0034    0.0018    0.0035    0.0480
N         1.6364   -3.6259    0.0222   -0.0041   -0.0018   -0.0118
N        -0.2400   -2.0716   -0.0762   -0.0052   -0.0031   -0.0537
N        -1.0127    0.5279   -0.0841   -0.0032   -0.0015   -0.0314
N         1.5882    1.2996   -0.0761   -0.0058   -0.0042    0.0591
N         2.3604   -1.2995   -0.0741   -0.0025   -0.0021    0.0337
N        -0.2889    2.8541    0.0151   -0.0022   -0.0026    0.0143
N        -2.5678   -1.3490   -0.0039    0.0034    0.0018   -0.0450
C        -2.6318    2.2074    0.0858   -0.0009    0.0005   -0.0263
C        -1.2138    1.9066   -0.0003    0.0013   -0.0035    0.0163
C         1.0023    2.5641    0.0125   -0.0000    0.0042   -0.0568
C         2.0253    3.5896    0.1094   -0.0001   -0.0023    0.0153
C        -3.3042    0.9681    0.0767    0.0013    0.0004    0.0256
C        -2.2782   -0.0563   -0.0113    0.0043    0.0009    0.0539
C        -0.6084   -5.7574    0.2030    0.0008   -0.0016   -0.0128
C        -3.1245   -4.3989    0.1900    0.0009   -0.0011   -0.0306
C        -1.8131   -6.4652    0.2658   -0.0004   -0.0013   -0.0298
C        -4.7020    0.9019    0.1386   -0.0008    0.0014   -0.0265
C        -3.3382    3.4149    0.1551    0.0003   -0.0010    0.0021
C        -5.4086    2.1097    0.2138   -0.0004   -0.0001    0.0064
C        -3.0555   -5.7944    0.2587   -0.0002   -0.0003   -0.0086
C        -1.6195   -2.2729    0.0041    0.0043    0.0049    0.0718
C        -1.9182   -3.6908    0.1037    0.0017    0.0004    0.0154
C         3.2652    2.9200    0.1027    0.0012    0.0006   -0.0161
C         2.9671    1.5014    0.0066    0.0034    0.0056   -0.0779
C        -4.7364    3.3486    0.2202   -0.0018    0.0007   -0.0276
C         3.6255   -0.7151   -0.0006    0.0047    0.0017   -0.0564
C         4.6513   -1.7396    0.0908    0.0012    0.0009   -0.0280
C         2.5611   -2.6780    0.0096    0.0012   -0.0043   -0.0179
C         3.9791   -2.9786    0.0994   -0.0011    0.0001    0.0237
C        -0.6787   -4.3610    0.1117   -0.0005   -0.0020   -0.0157
C         0.3451   -3.3358    0.0162   -0.0014    0.0050    0.0509
C         1.9538    4.9862    0.1974    0.0015   -0.0025    0.0155
C         4.4707    3.6292    0.1907   -0.0002   -0.0012    0.0334
C         3.1581    5.6948    0.2620   -0.0003   -0.0011    0.0327
C         4.4009    5.0247    0.2573   -0.0004   -0.0003    0.0113
C         6.0491   -1.6734    0.1498   -0.0009    0.0015    0.0296
C         4.6854   -4.1862    0.1668    0.0002   -0.0011    0.0005
C         6.7557   -2.8811    0.2249   -0.0006   -0.0000   -0.0038
C         6.0835   -4.1199    0.2324   -0.0020    0.0008    0.0327
H         6.5636   -0.7119    0.1505    0.0049   -0.0016   -0.0541
H         4.1595   -5.1415    0.1810    0.0066   -0.0066   -0.1420
H         6.6636   -5.0424    0.2843    0.0062   -0.0031   -0.1220
H        -5.2165   -0.0595    0.1415    0.0039   -0.0010    0.0375
H        -2.8123    4.3701    0.1706    0.0056   -0.0058    0.1229
H        -5.3164    4.2710    0.2739    0.0047   -0.0023    0.0899
H        -6.4984    2.0935    0.2595    0.0049   -0.0049    0.1302
H         0.3559   -6.2665    0.2241    0.0031    0.0100    0.1693
H        -4.0801   -3.8731    0.2016    0.0075    0.0078    0.1168
H        -3.9765   -6.3769    0.3099    0.0052    0.0109    0.2112
H        -1.7960   -7.5547    0.3185    0.0031    0.0092    0.1853
H         0.9891    5.4946    0.2174    0.0039    0.0096   -0.1873
H         5.4267    3.1042    0.2032    0.0071    0.0083   -0.1339
H         5.3215    5.6077    0.3106    0.0068    0.0114   -0.2363
H         3.1404    6.7843    0.3129    0.0036    0.0105   -0.2107
H         7.8456   -2.8649    0.2681    0.0058   -0.0061   -0.1600
    57
stable frequency at    713.603 1/cm IR int. is 2.382 a.m.u.; force const. is 0.715 mDyne/Ang.
Fe        0.6742   -0.3860   -0.2512    0.0000    0.0009   -0.0003
N         3.9155    0.5774    0.0034   -0.0039    0.0033    0.0134
N         1.6364   -3.6259    0.0222    0.0017   -0.0020    0.0467
N        -0.2400   -2.0716   -0.0762   -0.0018    0.0045    0.0339
N        -1.0127    0.5279   -0.0841   -0.0033    0.0058   -0.0559
N         1.5882    1.2996   -0.0761   -0.0021    0.0036   -0.0330
N         2.3604   -1.2995   -0.0741   -0.0022    0.0051    0.0591
N        -0.2889    2.8541    0.0151    0.0045   -0.0034   -0.0451
N        -2.5678   -1.3490   -0.0039   -0.0013    0.0018   -0.0121
C        -2.6318    2.2074    0.0858    0.0005   -0.0018    0.0168
C        -1.2138    1.9066   -0.0003    0.0047   -0.0040    0.0724
C         1.0023    2.5641    0.0125    0.0024   -0.0061    0.0541
C         2.0253    3.5896    0.1094    0.0004   -0.0018    0.0268
C        -3.3042    0.9681    0.0767   -0.0012   -0.0000   -0.0168
C        -2.2782   -0.0563   -0.0113    0.0044   -0.0001    0.0531
C        -0.6084   -5.7574    0.2030   -0.0001    0.0020    0.0295
C        -3.1245   -4.3989    0.1900    0.0000    0.0002   -0.0002
C        -1.8131   -6.4652    0.2658   -0.0003   -0.0010   -0.0046
C        -4.7020    0.9019    0.1386   -0.0010   -0.0005   -0.0130
C        -3.3382    3.4149    0.1551   -0.0014   -0.0013   -0.0316
C        -5.4086    2.1097    0.2138   -0.0010    0.0013   -0.0307
C        -3.0555   -5.7944    0.2587    0.0015    0.0020    0.0310
C        -1.6195   -2.2729    0.0041   -0.0026   -0.0014   -0.0193
C        -1.9182   -3.6908    0.1037    0.0006    0.0021    0.0257
C         3.2652    2.9200    0.1027    0.0000    0.0023   -0.0276
C         2.9671    1.5014    0.0066   -0.0046   -0.0008    0.0187
C        -4.7364    3.3486    0.2202   -0.0010    0.0010   -0.0083
C         3.6255   -0.7151   -0.0006    0.0049    0.0004   -0.0568
C         4.6513   -1.7396    0.0908   -0.0015    0.0007    0.0168
C         2.5611   -2.6780    0.0096    0.0047   -0.0049   -0.0771
C         3.9791   -2.9786    0.0994   -0.0001   -0.0018   -0.0164
C        -0.6787   -4.3610    0.1117   -0.0002   -0.0015   -0.0291
C         0.3451   -3.3358    0.0162    0.0010   -0.0048   -0.0547
C         1.9538    4.9862    0.1974    0.0008    0.0006   -0.0272
C         4.4707    3.6292    0.1907   -0.0016    0.0001    0.0025
C         3.1581    5.6948    0.2620   -0.0000   -0.0009    0.0071
C         4.4009    5.0247    0.2573    0.0014    0.0021   -0.0285
C         6.0491   -1.6734    0.1498   -0.0012   -0.0006    0.0146
C         4.6854   -4.1862    0.1668   -0.0014   -0.0009    0.0335
C         6.7557   -2.8811    0.2249   -0.0010    0.0014    0.0329
C         6.0835   -4.1199    0.2324   -0.0010    0.0007    0.0080
H         6.5636   -0.7119    0.1505    0.0076   -0.0054   -0.1848
H         4.1595   -5.1415    0.1810    0.0068   -0.0077   -0.1260
H         6.6636   -5.0424    0.2843    0.0104   -0.0055   -0.2246
H        -5.2165   -0.0595    0.1415    0.0078   -0.0049    0.1747
H        -2.8123    4.3701    0.1706    0.0067   -0.0080    0.1188
H        -5.3164    4.2710    0.2739    0.0101   -0.0052    0.2158
H        -6.4984    2.0935    0.2595    0.0082   -0.0062    0.1888
H         0.3559   -6.2665    0.2241   -0.0011   -0.0031   -0.0492
H        -4.0801   -3.8731    0.2016   -0.0059   -0.0077   -0.1385
H        -3.9765   -6.3769    0.3099   -0.0026   -0.0046   -0.1126
H        -1.7960   -7.5547    0.3185   -0.0037   -0.0084   -0.1535
H         0.9891    5.4946    0.2174   -0.0005   -0.0044    0.0372
H         5.4267    3.1042    0.2032   -0.0074   -0.0078    0.1261
H         5.3215    5.6077    0.3106   -0.0018   -0.0041    0.0918
H         3.1404    6.7843    0.3129   -0.0041   -0.0069    0.1332
H         7.8456   -2.8649    0.2681    0.0084   -0.0066   -0.1996
    57
stable frequency at    723.815 1/cm IR int. is 1.681 a.m.u.; force const. is 0.519 mDyne/Ang.
Fe        0.6742   -0.3860   -0.2512   -0.0001   -0.0004    0.0053
N         3.9155    0.5774    0.0034    0.0050    0.0002   -0.0258
N         1.6364   -3.6259    0.0222   -0.0003   -0.0031   -0.0264
N        -0.2400   -2.0716   -0.0762   -0.0018   -0.0047   -0.0447
N        -1.0127    0.5279   -0.0841   -0.0041    0.0007   -0.0447
N         1.5882    1.2996   -0.0761    0.0016    0.0045   -0.0392
N         2.3604   -1.2995   -0.0741    0.0025   -0.0017   -0.0340
N        -0.2889    2.8541    0.0151   -0.0011    0.0054   -0.0309
N        -2.5678   -1.3490   -0.0039   -0.0030   -0.0007   -0.0325
C        -2.6318    2.2074    0.0858    0.0013   -0.0008    0.0045
C        -1.2138    1.9066   -0.0003    0.0037   -0.0019    0.0489
C         1.0023    2.5641    0.0125   -0.0011   -0.0004    0.0444
C         2.0253    3.5896    0.1094   -0.0003   -0.0005    0.0090
C        -3.3042    0.9681    0.0767    0.0004    0.0002    0.0104
C        -2.2782   -0.0563   -0.0113    0.0008   -0.0010    0.0484
C        -0.6084   -5.7574    0.2030   -0.0002   -0.0013   -0.0215
C        -3.1245   -4.3989    0.1900    0.0007   -0.0012   -0.0240
C        -1.8131   -6.4652    0.2658    0.0001   -0.0011   -0.0245
C        -4.7020    0.9019    0.1386   -0.0006    0.0009   -0.0246
C        -3.3382    3.4149    0.1551   -0.0011   -0.0012   -0.0222
C        -5.4086    2.1097    0.2138   -0.0006    0.0005   -0.0217
C        -3.0555   -5.7944    0.2587   -0.0003   -0.0011   -0.0213
C        -1.6195   -2.2729    0.0041    0.0021    0.0038    0.0491
C        -1.9182   -3.6908    0.1037    0.0009    0.0017    0.0098
C         3.2652    2.9200    0.1027   -0.0009   -0.0015    0.0044
C         2.9671    1.5014    0.0066   -0.0002   -0.0034    0.0417
C        -4.7364    3.3486    0.2202   -0.0017    0.0008   -0.0252
C         3.6255   -0.7151   -0.0006   -0.0006    0.0006    0.0360
C         4.6513   -1.7396    0.0908   -0.0002    0.0003    0.0081
C         2.5611   -2.6780    0.0096   -0.0028    0.0011    0.0337
C         3.9791   -2.9786    0.0994   -0.0013    0.0014    0.0134
C        -0.6787   -4.3610    0.1117   -0.0003    0.0000    0.0048
C         0.3451   -3.3358    0.0162    0.0001    0.0016    0.0459
C         1.9538    4.9862    0.1974    0.0004    0.0011   -0.0218
C         4.4707    3.6292    0.1907   -0.0013    0.0011   -0.0199
C         3.1581    5.6948    0.2620   -0.0001    0.0005   -0.0201
C         4.4009    5.0247    0.2573    0.0005    0.0011   -0.0223
C         6.0491   -1.6734    0.1498    0.0009   -0.0003   -0.0204
C         4.6854   -4.1862    0.1668    0.0011    0.0013   -0.0221
C         6.7557   -2.8811    0.2249    0.0006   -0.0006   -0.0229
C         6.0835   -4.1199    0.2324    0.0016   -0.0011   -0.0250
H         6.5636   -0.7119    0.1505   -0.0071    0.0039    0.1422
H         4.1595   -5.1415    0.1810   -0.0064    0.0077    0.1403
H         6.6636   -5.0424    0.2843   -0.0105    0.0060    0.2259
H        -5.2165   -0.0595    0.1415    0.0089   -0.0038    0.1484
H        -2.8123    4.3701    0.1706    0.0064   -0.0081    0.1601
H        -5.3164    4.2710    0.2739    0.0109   -0.0066    0.2281
H        -6.4984    2.0935    0.2595    0.0101   -0.0088    0.2293
H         0.3559   -6.2665    0.2241    0.0023    0.0106    0.1548
H        -4.0801   -3.8731    0.2016    0.0074    0.0074    0.1456
H        -3.9765   -6.3769    0.3099    0.0060    0.0114    0.2248
H        -1.7960   -7.5547    0.3185    0.0052    0.0110    0.2220
H         0.9891    5.4946    0.2174   -0.0018   -0.0091    0.1355
H         5.4267    3.1042    0.2032   -0.0080   -0.0073    0.1413
H         5.3215    5.6077    0.3106   -0.0058   -0.0105    0.2053
H         3.1404    6.7843    0.3129   -0.0056   -0.0103    0.2074
H         7.8456   -2.8649    0.2681   -0.0091    0.0080    0.2158
    57
stable frequency at    747.608 1/cm IR int. is 8.328 a.m.u.; force const. is 2.743 mDyne/Ang.
Fe        0.6742   -0.3860   -0.2512    0.0048    0.0086    0.0001
N         3.9155    0.5774    0.0034   -0.0667    0.0383   -0.0068
N         1.6364   -3.6259    0.0222    0.0577   -0.0388   -0.0014
N        -0.2400   -2.0716   -0.0762   -0.0248   -0.0471    0.0038
N        -1.0127    0.5279   -0.0841    0.0181    0.0405    0.0037
N         1.5882    1.2996   -0.0761   -0.0272   -0.0513   -0.0017
N         2.3604   -1.2995   -0.0741    0.0234    0.0375   -0.0119
N        -0.2889    2.8541    0.0151    0.0680   -0.0364   -0.0006
N        -2.5678   -1.3490   -0.0039   -0.0637    0.0283    0.0044
C        -2.6318    2.2074    0.0858   -0.0326   -0.0249   -0.0012
C        -1.2138    1.9066   -0.0003    0.0010    0.0327   -0.0038
C         1.0023    2.5641    0.0125    0.0401   -0.0502   -0.0034
C         2.0253    3.5896    0.1094    0.0115    0.0108   -0.0017
C        -3.3042    0.9681    0.0767   -0.0042   -0.0425    0.0038
C        -2.2782   -0.0563   -0.0113    0.0219    0.0142   -0.0047
C        -0.6084   -5.7574    0.2030   -0.0210    0.0285   -0.0071
C        -3.1245   -4.3989    0.1900    0.0361   -0.0023   -0.0036
C        -1.8131   -6.4652    0.2658   -0.0026    0.0078   -0.0032
C        -4.7020    0.9019    0.1386   -0.0084   -0.0273   -0.0015
C        -3.3382    3.4149    0.1551   -0.0175   -0.0207    0.0014
C        -5.4086    2.1097    0.2138    0.0384    0.0081   -0.0005
C        -3.0555   -5.7944    0.2587    0.0070    0.0011   -0.0073
C        -1.6195   -2.2729    0.0041   -0.0580    0.0032   -0.0025
C        -1.9182   -3.6908    0.1037    0.0055    0.0140   -0.0006
C         3.2652    2.9200    0.1027    0.0030    0.0138    0.0078
C         2.9671    1.5014    0.0066   -0.0640    0.0063   -0.0028
C        -4.7364    3.3486    0.2202   -0.0132    0.0360   -0.0010
C         3.6255   -0.7151   -0.0006    0.0243    0.0205    0.0170
C         4.6513   -1.7396    0.0908   -0.0027   -0.0402   -0.0124
C         2.5611   -2.6780    0.0096   -0.0024    0.0272    0.0164
C         3.9791   -2.9786    0.0994   -0.0326   -0.0271   -0.0078
C        -0.6787   -4.3610    0.1117    0.0092    0.0126    0.0093
C         0.3451   -3.3358    0.0162    0.0336   -0.0473   -0.0020
C         1.9538    4.9862    0.1974   -0.0183    0.0268    0.0016
C         4.4707    3.6292    0.1907    0.0329   -0.0015   -0.0017
C         3.1581    5.6948    0.2620   -0.0025    0.0092   -0.0034
C         4.4009    5.0247    0.2573    0.0070    0.0016    0.0005
C         6.0491   -1.6734    0.1498   -0.0072   -0.0251    0.0060
C         4.6854   -4.1862    0.1668   -0.0181   -0.0231    0.0030
C         6.7557   -2.8811    0.2249    0.0371    0.0083    0.0066
C         6.0835   -4.1199    0.2324   -0.0137    0.0361    0.0084
H         6.5636   -0.7119    0.1505   -0.0615    0.0041   -0.0238
H         4.1595   -5.1415    0.1810    0.0425   -0.0567   -0.0299
H         6.6636   -5.0424    0.2843   -0.0170    0.0293   -0.0636
H        -5.2165   -0.0595    0.1415   -0.0664    0.0039   -0.0025
H        -2.8123    4.3701    0.1706    0.0410   -0.0526    0.0023
H        -5.3164    4.2710    0.2739   -0.0219    0.0296    0.0073
H        -6.4984    2.0935    0.2595    0.0384   -0.0017    0.0037
H         0.3559   -6.2665    0.2241   -0.0189    0.0344    0.0161
H        -4.0801   -3.8731    0.2016    0.0417    0.0057    0.0304
H        -3.9765   -6.3769    0.3099   -0.0051    0.0261    0.0432
H        -1.7960   -7.5547    0.3185    0.0253    0.0113    0.0456
H         0.9891    5.4946    0.2174   -0.0181    0.0278    0.0173
H         5.4267    3.1042    0.2032    0.0361    0.0032    0.0036
H         5.3215    5.6077    0.3106   -0.0051    0.0204    0.0178
H         3.1404    6.7843    0.3129    0.0215    0.0094    0.0153
H         7.8456   -2.8649    0.2681    0.0396   -0.0057   -0.0577
    57
stable frequency at    747.756 1/cm IR int. is 9.159 a.m.u.; force const. is 3.017 mDyne/Ang.
Fe        0.6742   -0.3860   -0.2512   -0.0086    0.0046    0.0000
N         3.9155    0.5774    0.0034    0.0384    0.0633    0.0007
N         1.6364   -3.6259    0.0222   -0.0338   -0.0658    0.0053
N        -0.2400   -2.0716   -0.0762   -0.0393    0.0212    0.0050
N        -1.0127    0.5279   -0.0841    0.0499   -0.0269   -0.0013
N         1.5882    1.2996   -0.0761   -0.0392    0.0215   -0.0052
N         2.3604   -1.2995   -0.0741    0.0495   -0.0267    0.0008
N        -0.2889    2.8541    0.0151   -0.0344   -0.0659   -0.0057
N        -2.5678   -1.3490   -0.0039    0.0381    0.0639   -0.0011
C        -2.6318    2.2074    0.0858   -0.0142    0.0044    0.0049
C        -1.2138    1.9066   -0.0003   -0.0052   -0.0619   -0.0022
C         1.0023    2.5641    0.0125   -0.0178    0.0241    0.0100
C         2.0253    3.5896    0.1094    0.0419   -0.0031   -0.0103
C        -3.3042    0.9681    0.0767   -0.0116    0.0106   -0.0028
C        -2.2782   -0.0563   -0.0113    0.0491    0.0373   -0.0011
C        -0.6084   -5.7574    0.2030    0.0270   -0.0081   -0.0034
C        -3.1245   -4.3989    0.1900    0.0218   -0.0180    0.0013
C        -1.8131   -6.4652    0.2658   -0.0083    0.0387   -0.0006
C        -4.7020    0.9019    0.1386   -0.0281   -0.0199    0.0022
C        -3.3382    3.4149    0.1551    0.0020    0.0351    0.0003
C        -5.4086    2.1097    0.2138   -0.0084   -0.0025   -0.0010
C        -3.0555   -5.7944    0.2587   -0.0368   -0.0140   -0.0049
C        -1.6195   -2.2729    0.0041   -0.0298   -0.0003   -0.0043
C        -1.9182   -3.6908    0.1037    0.0261   -0.0336   -0.0030
C         3.2652    2.9200    0.1027    0.0262   -0.0337    0.0036
C         2.9671    1.5014    0.0066   -0.0294   -0.0004    0.0042
C        -4.7364    3.3486    0.2202   -0.0015    0.0072    0.0023
C         3.6255   -0.7151   -0.0006    0.0488    0.0370    0.0021
C         4.6513   -1.7396    0.0908   -0.0117    0.0105    0.0024
C         2.5611   -2.6780    0.0096   -0.0051   -0.0614    0.0034
C         3.9791   -2.9786    0.0994   -0.0141    0.0044   -0.0056
C        -0.6787   -4.3610    0.1117    0.0421   -0.0031    0.0110
C         0.3451   -3.3358    0.0162   -0.0174    0.0238   -0.0102
C         1.9538    4.9862    0.1974    0.0269   -0.0080    0.0029
C         4.4707    3.6292    0.1907    0.0220   -0.0180   -0.0017
C         3.1581    5.6948    0.2620   -0.0083    0.0387   -0.0001
C         4.4009    5.0247    0.2573   -0.0368   -0.0140    0.0043
C         6.0491   -1.6734    0.1498   -0.0281   -0.0200   -0.0021
C         4.6854   -4.1862    0.1668    0.0020    0.0351   -0.0001
C         6.7557   -2.8811    0.2249   -0.0084   -0.0025    0.0011
C         6.0835   -4.1199    0.2324   -0.0015    0.0071   -0.0020
H         6.5636   -0.7119    0.1505   -0.0311   -0.0190   -0.0050
H         4.1595   -5.1415    0.1810   -0.0041    0.0392    0.0064
H         6.6636   -5.0424    0.2843   -0.0231   -0.0055   -0.0005
H        -5.2165   -0.0595    0.1415   -0.0310   -0.0190    0.0050
H        -2.8123    4.3701    0.1706   -0.0040    0.0392   -0.0068
H        -5.3164    4.2710    0.2739   -0.0232   -0.0054   -0.0012
H        -6.4984    2.0935    0.2595   -0.0096    0.0233   -0.0026
H         0.3559   -6.2665    0.2241   -0.0041   -0.0664   -0.0030
H        -4.0801   -3.8731    0.2016    0.0550    0.0425    0.0182
H        -3.9765   -6.3769    0.3099   -0.0304   -0.0209    0.0227
H        -1.7960   -7.5547    0.3185    0.0029    0.0394    0.0180
H         0.9891    5.4946    0.2174   -0.0041   -0.0664    0.0062
H         5.4267    3.1042    0.2032    0.0550    0.0424   -0.0151
H         5.3215    5.6077    0.3106   -0.0305   -0.0212   -0.0174
H         3.1404    6.7843    0.3129    0.0028    0.0391   -0.0125
H         7.8456   -2.8649    0.2681   -0.0095    0.0234    0.0015
    57
stable frequency at    749.232 1/cm IR int. is 1.905 a.m.u.; force const. is 0.630 mDyne/Ang.
Fe        0.6742   -0.3860   -0.2512    0.0005    0.0010   -0.0002
N         3.9155    0.5774    0.0034    0.0030   -0.0329    0.0012
N         1.6364   -3.6259    0.0222    0.0470    0.0049    0.0034
N        -0.2400   -2.0716   -0.0762   -0.0137   -0.0252   -0.0160
N        -1.0127    0.5279   -0.0841    0.0217   -0.0055    0.0206
N         1.5882    1.2996   -0.0761    0.0055    0.0109   -0.0148
N         2.3604   -1.2995   -0.0741   -0.0159    0.0153    0.0213
N        -0.2889    2.8541    0.0151   -0.0303   -0.0148    0.0006
N        -2.5678   -1.3490   -0.0039   -0.0196    0.0435    0.0021
C        -2.6318    2.2074    0.0858   -0.0052   -0.0123    0.0250
C        -1.2138    1.9066   -0.0003   -0.0120   -0.0181   -0.0321
C         1.0023    2.5641    0.0125   -0.0194    0.0040    0.0287
C         2.0253    3.5896    0.1094   -0.0068    0.0083   -0.0293
C        -3.3042    0.9681    0.0767    0.0057    0.0025    0.0348
C        -2.2782   -0.0563   -0.0113    0.0136    0.0265   -0.0364
C        -0.6084   -5.7574    0.2030    0.0066   -0.0013    0.0180
C        -3.1245   -4.3989    0.1900   -0.0057    0.0027    0.0182
C        -1.8131   -6.4652    0.2658   -0.0001    0.0065    0.0239
C        -4.7020    0.9019    0.1386    0.0040    0.0051   -0.0196
C        -3.3382    3.4149    0.1551   -0.0054   -0.0130   -0.0169
C        -5.4086    2.1097    0.2138    0.0008    0.0019   -0.0222
C        -3.0555   -5.7944    0.2587    0.0010    0.0020    0.0239
C        -1.6195   -2.2729    0.0041   -0.0312    0.0131    0.0294
C        -1.9182   -3.6908    0.1037   -0.0083    0.0013   -0.0287
C         3.2652    2.9200    0.1027    0.0099    0.0022   -0.0289
C         2.9671    1.5014    0.0066    0.0143   -0.0117    0.0279
C        -4.7364    3.3486    0.2202   -0.0042    0.0058   -0.0265
C         3.6255   -0.7151   -0.0006   -0.0065   -0.0210   -0.0331
C         4.6513   -1.7396    0.0908   -0.0065   -0.0142    0.0264
C         2.5611   -2.6780    0.0096    0.0125    0.0254   -0.0385
C         3.9791   -2.9786    0.0994   -0.0049    0.0053    0.0356
C        -0.6787   -4.3610    0.1117    0.0101   -0.0052   -0.0283
C         0.3451   -3.3358    0.0162    0.0290   -0.0170    0.0290
C         1.9538    4.9862    0.1974   -0.0118    0.0091    0.0193
C         4.4707    3.6292    0.1907    0.0158   -0.0035    0.0194
C         3.1581    5.6948    0.2620   -0.0008   -0.0036    0.0247
C         4.4009    5.0247    0.2573    0.0005   -0.0019    0.0248
C         6.0491   -1.6734    0.1498   -0.0063   -0.0127   -0.0172
C         4.6854   -4.1862    0.1668    0.0004    0.0072   -0.0205
C         6.7557   -2.8811    0.2249    0.0104    0.0002   -0.0271
C         6.0835   -4.1199    0.2324    0.0001    0.0048   -0.0238
H         6.5636   -0.7119    0.1505   -0.0296   -0.0006    0.1227
H         4.1595   -5.1415    0.1810   -0.0007    0.0101    0.1090
H         6.6636   -5.0424    0.2843   -0.0223    0.0049    0.2206
H        -5.2165   -0.0595    0.1415    0.0104    0.0023    0.1032
H        -2.8123    4.3701    0.1706    0.0126   -0.0254    0.1199
H        -5.3164    4.2710    0.2739    0.0154    0.0037    0.2116
H        -6.4984    2.0935    0.2595    0.0110   -0.0162    0.2107
H         0.3559   -6.2665    0.2241    0.0006   -0.0183   -0.1142
H        -4.0801   -3.8731    0.2016   -0.0128   -0.0070   -0.1132
H        -3.9765   -6.3769    0.3099   -0.0005   -0.0167   -0.2120
H        -1.7960   -7.5547    0.3185   -0.0101   -0.0051   -0.2120
H         0.9891    5.4946    0.2174   -0.0057    0.0265   -0.1179
H         5.4267    3.1042    0.2032    0.0248    0.0091   -0.1184
H         5.3215    5.6077    0.3106   -0.0006    0.0229   -0.2199
H         3.1404    6.7843    0.3129    0.0173    0.0085   -0.2196
H         7.8456   -2.8649    0.2681    0.0002    0.0158    0.2173
    57
stable frequency at    755.024 1/cm IR int. is 2.135 a.m.u.; force const. is 0.717 mDyne/Ang.
Fe        0.6742   -0.3860   -0.2512    0.0003   -0.0011    0.0001
N         3.9155    0.5774    0.0034   -0.0016   -0.0052   -0.0213
N         1.6364   -3.6259    0.0222   -0.0005    0.0067    0.0128
N        -0.2400   -2.0716   -0.0762    0.0073    0.0048    0.0427
N        -1.0127    0.5279   -0.0841   -0.0045    0.0026    0.0075
N         1.5882    1.2996   -0.0761    0.0077    0.0053   -0.0459
N         2.3604   -1.2995   -0.0741   -0.0039    0.0023   -0.0087
N        -0.2889    2.8541    0.0151   -0.0002    0.0064   -0.0144
N        -2.5678   -1.3490   -0.0039   -0.0011   -0.0052    0.0198
C        -2.6318    2.2074    0.0858    0.0055   -0.0014    0.0486
C        -1.2138    1.9066   -0.0003   -0.0016    0.0042   -0.0191
C         1.0023    2.5641    0.0125   -0.0025   -0.0058    0.0688
C         2.0253    3.5896    0.1094   -0.0021    0.0021   -0.0507
C        -3.3042    0.9681    0.0767    0.0000    0.0029   -0.0331
C        -2.2782   -0.0563   -0.0113   -0.0062   -0.0033   -0.0028
C        -0.6084   -5.7574    0.2030    0.0001   -0.0046   -0.0231
C        -3.1245   -4.3989    0.1900   -0.0049    0.0001   -0.0196
C        -1.8131   -6.4652    0.2658    0.0012   -0.0044   -0.0292
C        -4.7020    0.9019    0.1386    0.0043    0.0039    0.0068
C        -3.3382    3.4149    0.1551   -0.0003   -0.0036   -0.0158
C        -5.4086    2.1097    0.2138   -0.0024    0.0006   -0.0238
C        -3.0555   -5.7944    0.2587    0.0008   -0.0006   -0.0350
C        -1.6195   -2.2729    0.0041    0.0029   -0.0026   -0.0627
C        -1.9182   -3.6908    0.1037   -0.0008    0.0052    0.0350
C         3.2652    2.9200    0.1027   -0.0009    0.0054   -0.0369
C         2.9671    1.5014    0.0066    0.0025   -0.0023    0.0668
C        -4.7364    3.3486    0.2202    0.0012   -0.0031    0.0112
C         3.6255   -0.7151   -0.0006   -0.0061   -0.0033    0.0039
C         4.6513   -1.7396    0.0908   -0.0001    0.0029    0.0337
C         2.5611   -2.6780    0.0096   -0.0018    0.0042    0.0203
C         3.9791   -2.9786    0.0994    0.0053   -0.0013   -0.0481
C        -0.6787   -4.3610    0.1117   -0.0022    0.0022    0.0483
C         0.3451   -3.3358    0.0162   -0.0025   -0.0054   -0.0644
C         1.9538    4.9862    0.1974    0.0004   -0.0051    0.0241
C         4.4707    3.6292    0.1907   -0.0055    0.0002    0.0205
C         3.1581    5.6948    0.2620    0.0013   -0.0045    0.0307
C         4.4009    5.0247    0.2573    0.0007   -0.0006    0.0366
C         6.0491   -1.6734    0.1498    0.0041    0.0036   -0.0077
C         4.6854   -4.1862    0.1668   -0.0003   -0.0032    0.0149
C         6.7557   -2.8811    0.2249   -0.0022    0.0006    0.0228
C         6.0835   -4.1199    0.2324    0.0012   -0.0029   -0.0117
H         6.5636   -0.7119    0.1505    0.0122   -0.0006   -0.0859
H         4.1595   -5.1415    0.1810   -0.0033   -0.0013    0.0417
H         6.6636   -5.0424    0.2843    0.0066   -0.0018   -0.0490
H        -5.2165   -0.0595    0.1415    0.0132   -0.0006    0.0920
H        -2.8123    4.3701    0.1706   -0.0030   -0.0018   -0.0365
H        -5.3164    4.2710    0.2739    0.0073   -0.0020    0.0568
H        -6.4984    2.0935    0.2595    0.0009   -0.0049    0.0505
H         0.3559   -6.2665    0.2241    0.0037    0.0081    0.1274
H        -4.0801   -3.8731    0.2016   -0.0016    0.0028    0.1478
H        -3.9765   -6.3769    0.3099    0.0098    0.0127    0.2729
H        -1.7960   -7.5547    0.3185    0.0039    0.0104    0.2738
H         0.9891    5.4946    0.2174    0.0041    0.0076   -0.1323
H         5.4267    3.1042    0.2032   -0.0019    0.0029   -0.1538
H         5.3215    5.6077    0.3106    0.0110    0.0129   -0.2847
H         3.1404    6.7843    0.3129    0.0044    0.0104   -0.2853
H         7.8456   -2.8649    0.2681    0.0006   -0.0045   -0.0415
    57
stable frequency at    755.272 1/cm IR int. is 2.130 a.m.u.; force const. is 0.716 mDyne/Ang.
Fe        0.6742   -0.3860   -0.2512    0.0005    0.0007   -0.0004
N         3.9155    0.5774    0.0034   -0.0039   -0.0027    0.0160
N         1.6364   -3.6259    0.0222    0.0132   -0.0032    0.0254
N        -0.2400   -2.0716   -0.0762   -0.0065   -0.0069    0.0159
N        -1.0127    0.5279   -0.0841    0.0035    0.0047   -0.0418
N         1.5882    1.2996   -0.0761   -0.0045   -0.0034   -0.0011
N         2.3604   -1.2995   -0.0741   -0.0043    0.0089    0.0453
N        -0.2889    2.8541    0.0151   -0.0017   -0.0062   -0.0189
N        -2.5678   -1.3490   -0.0039   -0.0097    0.0114   -0.0095
C        -2.6318    2.2074    0.0858   -0.0080   -0.0028   -0.0415
C        -1.2138    1.9066   -0.0003   -0.0002   -0.0041    0.0650
C         1.0023    2.5641    0.0125   -0.0007   -0.0040   -0.0030
C         2.0253    3.5896    0.1094   -0.0015    0.0008    0.0338
C        -3.3042    0.9681    0.0767   -0.0014   -0.0020   -0.0451
C        -2.2782   -0.0563   -0.0113    0.0105    0.0044    0.0610
C        -0.6084   -5.7574    0.2030   -0.0012    0.0023    0.0041
C        -3.1245   -4.3989    0.1900    0.0022   -0.0006   -0.0170
C        -1.8131   -6.4652    0.2658   -0.0005   -0.0003   -0.0260
C        -4.7020    0.9019    0.1386    0.0025   -0.0016    0.0236
C        -3.3382    3.4149    0.1551   -0.0017   -0.0043    0.0227
C        -5.4086    2.1097    0.2138    0.0055    0.0006    0.0334
C        -3.0555   -5.7944    0.2587    0.0019    0.0010    0.0068
C        -1.6195   -2.2729    0.0041   -0.0123    0.0005   -0.0286
C        -1.9182   -3.6908    0.1037    0.0010    0.0058    0.0510
C         3.2652    2.9200    0.1027    0.0046    0.0040   -0.0423
C         2.9671    1.5014    0.0066   -0.0028   -0.0036    0.0105
C        -4.7364    3.3486    0.2202   -0.0002    0.0031    0.0348
C         3.6255   -0.7151   -0.0006    0.0060   -0.0040   -0.0649
C         4.6513   -1.7396    0.0908   -0.0027   -0.0047    0.0436
C         2.5611   -2.6780    0.0096    0.0046    0.0041   -0.0689
C         3.9791   -2.9786    0.0994   -0.0061   -0.0002    0.0395
C        -0.6787   -4.3610    0.1117    0.0015   -0.0014   -0.0249
C         0.3451   -3.3358    0.0162    0.0080   -0.0101   -0.0149
C         1.9538    4.9862    0.1974   -0.0056    0.0073   -0.0073
C         4.4707    3.6292    0.1907    0.0085   -0.0017    0.0138
C         3.1581    5.6948    0.2620   -0.0009   -0.0005    0.0205
C         4.4009    5.0247    0.2573    0.0016    0.0005   -0.0124
C         6.0491   -1.6734    0.1498    0.0007   -0.0039   -0.0211
C         4.6854   -4.1862    0.1668   -0.0006   -0.0017   -0.0201
C         6.7557   -2.8811    0.2249    0.0058    0.0006   -0.0304
C         6.0835   -4.1199    0.2324    0.0001    0.0026   -0.0327
H         6.5636   -0.7119    0.1505   -0.0136    0.0037    0.1277
H         4.1595   -5.1415    0.1810   -0.0004    0.0005    0.1341
H         6.6636   -5.0424    0.2843   -0.0154    0.0100    0.2640
H        -5.2165   -0.0595    0.1415   -0.0116    0.0058   -0.1471
H        -2.8123    4.3701    0.1706   -0.0006   -0.0024   -0.1521
H        -5.3164    4.2710    0.2739   -0.0148    0.0132   -0.2919
H        -6.4984    2.0935    0.2595   -0.0083    0.0078   -0.2918
H         0.3559   -6.2665    0.2241   -0.0000    0.0083    0.0974
H        -4.0801   -3.8731    0.2016    0.0015   -0.0018   -0.0209
H        -3.9765   -6.3769    0.3099    0.0029    0.0063    0.0817
H        -1.7960   -7.5547    0.3185    0.0030    0.0048    0.0757
H         0.9891    5.4946    0.2174   -0.0031    0.0151   -0.0791
H         5.4267    3.1042    0.2032    0.0093   -0.0002    0.0395
H         5.3215    5.6077    0.3106   -0.0015    0.0080   -0.0396
H         3.1404    6.7843    0.3129    0.0074    0.0023   -0.0336
H         7.8456   -2.8649    0.2681   -0.0062    0.0100    0.2623
    57
stable frequency at    760.460 1/cm IR int. is 5.558 a.m.u.; force const. is 1.894 mDyne/Ang.
Fe        0.6742   -0.3860   -0.2512    0.0001   -0.0000    0.0001
N         3.9155    0.5774    0.0034   -0.0231    0.0769    0.0011
N         1.6364   -3.6259    0.0222   -0.0751   -0.0237    0.0030
N        -0.2400   -2.0716   -0.0762    0.0148    0.0281   -0.0208
N        -1.0127    0.5279   -0.0841   -0.0284    0.0158    0.0161
N         1.5882    1.2996   -0.0761   -0.0162   -0.0296   -0.0234
N         2.3604   -1.2995   -0.0741    0.0291   -0.0151    0.0251
N        -0.2889    2.8541    0.0151    0.0758    0.0230   -0.0041
N        -2.5678   -1.3490   -0.0039    0.0218   -0.0750   -0.0004
C        -2.6318    2.2074    0.0858    0.0056    0.0172    0.0035
C        -1.2138    1.9066   -0.0003    0.0250    0.0458   -0.0106
C         1.0023    2.5641    0.0125    0.0452   -0.0268    0.0272
C         2.0253    3.5896    0.1094    0.0147   -0.0104   -0.0168
C        -3.3042    0.9681    0.0767   -0.0112   -0.0150    0.0154
C        -2.2782   -0.0563   -0.0113   -0.0245   -0.0450   -0.0197
C        -0.6084   -5.7574    0.2030   -0.0188    0.0170    0.0075
C        -3.1245   -4.3989    0.1900    0.0242   -0.0070    0.0069
C        -1.8131   -6.4652    0.2658   -0.0009   -0.0026    0.0108
C        -4.7020    0.9019    0.1386   -0.0168   -0.0192   -0.0054
C        -3.3382    3.4149    0.1551    0.0071    0.0237   -0.0027
C        -5.4086    2.1097    0.2138    0.0036   -0.0006   -0.0039
C        -3.0555   -5.7944    0.2587   -0.0030   -0.0025    0.0118
C        -1.6195   -2.2729    0.0041    0.0448   -0.0242    0.0228
C        -1.9182   -3.6908    0.1037    0.0172   -0.0070   -0.0132
C         3.2652    2.9200    0.1027   -0.0164    0.0072   -0.0176
C         2.9671    1.5014    0.0066   -0.0467    0.0242    0.0251
C        -4.7364    3.3486    0.2202    0.0023   -0.0024   -0.0088
C         3.6255   -0.7151   -0.0006    0.0265    0.0455   -0.0282
C         4.6513   -1.7396    0.0908    0.0110    0.0139    0.0175
C         2.5611   -2.6780    0.0096   -0.0240   -0.0464   -0.0305
C         3.9791   -2.9786    0.0994   -0.0078   -0.0172    0.0222
C        -0.6787   -4.3610    0.1117   -0.0140    0.0107   -0.0167
C         0.3451   -3.3358    0.0162   -0.0449    0.0251    0.0214
C         1.9538    4.9862    0.1974    0.0184   -0.0160    0.0080
C         4.4707    3.6292    0.1907   -0.0227    0.0065    0.0086
C         3.1581    5.6948    0.2620    0.0007    0.0035    0.0133
C         4.4009    5.0247    0.2573    0.0026    0.0022    0.0127
C         6.0491   -1.6734    0.1498    0.0167    0.0182   -0.0099
C         4.6854   -4.1862    0.1668   -0.0073   -0.0239   -0.0107
C         6.7557   -2.8811    0.2249   -0.0020    0.0005   -0.0168
C         6.0835   -4.1199    0.2324   -0.0027    0.0035   -0.0121
H         6.5636   -0.7119    0.1505    0.0249    0.0146    0.0710
H         4.1595   -5.1415    0.1810    0.0051   -0.0306    0.0587
H         6.6636   -5.0424    0.2843    0.0108    0.0194    0.1220
H        -5.2165   -0.0595    0.1415   -0.0296   -0.0131    0.0147
H        -2.8123    4.3701    0.1706   -0.0048    0.0305    0.0362
H        -5.3164    4.2710    0.2739   -0.0150   -0.0167    0.0524
H        -6.4984    2.0935    0.2595    0.0054    0.0218    0.0518
H         0.3559   -6.2665    0.2241   -0.0135    0.0265   -0.0472
H        -4.0801   -3.8731    0.2016    0.0309    0.0049   -0.0510
H        -3.9765   -6.3769    0.3099   -0.0183    0.0127   -0.0955
H        -1.7960   -7.5547    0.3185    0.0218   -0.0072   -0.0962
H         0.9891    5.4946    0.2174    0.0130   -0.0253   -0.0562
H         5.4267    3.1042    0.2032   -0.0285   -0.0040   -0.0553
H         5.3215    5.6077    0.3106    0.0182   -0.0116   -0.1097
H         3.1404    6.7843    0.3129   -0.0201    0.0086   -0.1092
H         7.8456   -2.8649    0.2681   -0.0073   -0.0191    0.1276
    57
stable frequency at    765.714 1/cm IR int. is 3.409 a.m.u.; force const. is 1.178 mDyne/Ang.
Fe        0.6742   -0.3860   -0.2512    0.0000    0.0001    0.0053
N         3.9155    0.5774    0.0034    0.0016   -0.0017   -0.0360
N         1.6364   -3.6259    0.0222    0.0037   -0.0003   -0.0331
N        -0.2400   -2.0716   -0.0762   -0.0053   -0.0085   -0.0506
N        -1.0127    0.5279   -0.0841   -0.0033    0.0024   -0.0498
N         1.5882    1.2996   -0.0761    0.0046    0.0080   -0.0462
N         2.3604   -1.2995   -0.0741    0.0039   -0.0025   -0.0475
N        -0.2889    2.8541    0.0151   -0.0042   -0.0010   -0.0281
N        -2.5678   -1.3490   -0.0039   -0.0014    0.0015   -0.0398
C        -2.6318    2.2074    0.0858   -0.0000   -0.0008    0.0050
C        -1.2138    1.9066   -0.0003   -0.0006   -0.0036    0.0429
C         1.0023    2.5641    0.0125   -0.0034   -0.0024    0.0583
C         2.0253    3.5896    0.1094    0.0007    0.0008   -0.0274
C        -3.3042    0.9681    0.0767   -0.0016    0.0029   -0.0638
C        -2.2782   -0.0563   -0.0113    0.0064   -0.0005    0.0860
C        -0.6084   -5.7574    0.2030   -0.0027    0.0048    0.0136
C        -3.1245   -4.3989    0.1900    0.0036    0.0008    0.0077
C        -1.8131   -6.4652    0.2658   -0.0007    0.0005    0.0146
C        -4.7020    0.9019    0.1386    0.0035    0.0022    0.0175
C        -3.3382    3.4149    0.1551   -0.0000   -0.0023    0.0043
C        -5.4086    2.1097    0.2138   -0.0006    0.0003    0.0072
C        -3.0555   -5.7944    0.2587    0.0022    0.0015    0.0262
C        -1.6195   -2.2729    0.0041   -0.0008    0.0020    0.0598
C        -1.9182   -3.6908    0.1037   -0.0005   -0.0007   -0.0150
C         3.2652    2.9200    0.1027    0.0013    0.0011   -0.0267
C         2.9671    1.5014    0.0066    0.0003   -0.0024    0.0617
C        -4.7364    3.3486    0.2202    0.0016   -0.0017    0.0338
C         3.6255   -0.7151   -0.0006   -0.0049    0.0002    0.0701
C         4.6513   -1.7396    0.0908    0.0005   -0.0020   -0.0425
C         2.5611   -2.6780    0.0096   -0.0001    0.0033    0.0495
C         3.9791   -2.9786    0.0994    0.0005    0.0008   -0.0064
C        -0.6787   -4.3610    0.1117   -0.0010   -0.0017   -0.0439
C         0.3451   -3.3358    0.0162    0.0032    0.0033    0.0717
C         1.9538    4.9862    0.1974    0.0023   -0.0038    0.0098
C         4.4707    3.6292    0.1907   -0.0027   -0.0011    0.0098
C         3.1581    5.6948    0.2620    0.0004   -0.0004    0.0185
C         4.4009    5.0247    0.2573   -0.0021   -0.0013    0.0190
C         6.0491   -1.6734    0.1498   -0.0034   -0.0024    0.0104
C         4.6854   -4.1862    0.1668    0.0003    0.0030    0.0035
C         6.7557   -2.8811    0.2249    0.0000   -0.0003    0.0077
C         6.0835   -4.1199    0.2324   -0.0010    0.0012    0.0256
H         6.5636   -0.7119    0.1505   -0.0036   -0.0023   -0.0159
H         4.1595   -5.1415    0.1810    0.0028    0.0005   -0.0837
H         6.6636   -5.0424    0.2843    0.0035   -0.0052   -0.1328
H        -5.2165   -0.0595    0.1415    0.0038    0.0019   -0.0152
H        -2.8123    4.3701    0.1706   -0.0049    0.0024   -0.1320
H        -5.3164    4.2710    0.2739   -0.0054    0.0061   -0.1695
H        -6.4984    2.0935    0.2595   -0.0077    0.0034   -0.1605
H         0.3559   -6.2665    0.2241   -0.0025    0.0028   -0.0486
H        -4.0801   -3.8731    0.2016    0.0000   -0.0036   -0.0971
H        -3.9765   -6.3769    0.3099   -0.0047   -0.0049   -0.1657
H        -1.7960   -7.5547    0.3185   -0.0014   -0.0081   -0.1627
H         0.9891    5.4946    0.2174    0.0023   -0.0010   -0.0654
H         5.4267    3.1042    0.2032    0.0003    0.0026   -0.0680
H         5.3215    5.6077    0.3106    0.0043    0.0046   -0.1514
H         3.1404    6.7843    0.3129    0.0021    0.0076   -0.1504
H         7.8456   -2.8649    0.2681    0.0051   -0.0015   -0.1195
    57
stable frequency at    766.233 1/cm IR int. is 5.380 a.m.u.; force const. is 1.861 mDyne/Ang.
Fe        0.6742   -0.3860   -0.2512    0.0000    0.0000    0.0007
N         3.9155    0.5774    0.0034   -0.0011   -0.0023    0.0226
N         1.6364   -3.6259    0.0222    0.0022   -0.0017   -0.0319
N        -0.2400   -2.0716   -0.0762   -0.0004   -0.0020   -0.0064
N        -1.0127    0.5279   -0.0841    0.0008    0.0008   -0.0074
N         1.5882    1.2996   -0.0761    0.0003    0.0018   -0.0063
N         2.3604   -1.2995   -0.0741   -0.0007   -0.0009   -0.0070
N        -0.2889    2.8541    0.0151   -0.0022    0.0018   -0.0319
N        -2.5678   -1.3490   -0.0039    0.0010    0.0022    0.0222
C        -2.6318    2.2074    0.0858   -0.0035    0.0025   -0.0745
C        -1.2138    1.9066   -0.0003    0.0022   -0.0036    0.0608
C         1.0023    2.5641    0.0125   -0.0025   -0.0037    0.0601
C         2.0253    3.5896    0.1094    0.0009    0.0050   -0.0749
C        -3.3042    0.9681    0.0767    0.0035   -0.0015    0.0657
C        -2.2782   -0.0563   -0.0113   -0.0015    0.0018   -0.0418
C        -0.6084   -5.7574    0.2030    0.0003    0.0016    0.0155
C        -3.1245   -4.3989    0.1900   -0.0003   -0.0010   -0.0126
C        -1.8131   -6.4652    0.2658   -0.0007   -0.0006   -0.0245
C        -4.7020    0.9019    0.1386   -0.0004    0.0013   -0.0118
C        -3.3382    3.4149    0.1551    0.0013   -0.0004    0.0152
C        -5.4086    2.1097    0.2138    0.0000   -0.0010    0.0294
C        -3.0555   -5.7944    0.2587    0.0005    0.0012    0.0299
C        -1.6195   -2.2729    0.0041   -0.0029   -0.0025   -0.0438
C        -1.9182   -3.6908    0.1037    0.0024    0.0038    0.0680
C         3.2652    2.9200    0.1027   -0.0024   -0.0037    0.0677
C         2.9671    1.5014    0.0066    0.0030    0.0022   -0.0439
C        -4.7364    3.3486    0.2202   -0.0005   -0.0003   -0.0232
C         3.6255   -0.7151   -0.0006    0.0017   -0.0021   -0.0428
C         4.6513   -1.7396    0.0908   -0.0035    0.0017    0.0666
C         2.5611   -2.6780    0.0096   -0.0024    0.0036    0.0604
C         3.9791   -2.9786    0.0994    0.0036   -0.0023   -0.0743
C        -0.6787   -4.3610    0.1117   -0.0009   -0.0050   -0.0756
C         0.3451   -3.3358    0.0162    0.0023    0.0037    0.0606
C         1.9538    4.9862    0.1974   -0.0005   -0.0013    0.0152
C         4.4707    3.6292    0.1907    0.0006    0.0010   -0.0126
C         3.1581    5.6948    0.2620    0.0008    0.0006   -0.0244
C         4.4009    5.0247    0.2573   -0.0005   -0.0011    0.0295
C         6.0491   -1.6734    0.1498    0.0003   -0.0014   -0.0123
C         4.6854   -4.1862    0.1668   -0.0013    0.0005    0.0149
C         6.7557   -2.8811    0.2249   -0.0001    0.0010    0.0288
C         6.0835   -4.1199    0.2324    0.0005    0.0002   -0.0235
H         6.5636   -0.7119    0.1505    0.0048   -0.0038   -0.1237
H         4.1595   -5.1415    0.1810   -0.0050    0.0039    0.1059
H         6.6636   -5.0424    0.2843   -0.0008    0.0000   -0.0141
H        -5.2165   -0.0595    0.1415   -0.0052    0.0036   -0.1261
H        -2.8123    4.3701    0.1706    0.0047   -0.0036    0.1033
H        -5.3164    4.2710    0.2739    0.0006    0.0000   -0.0178
H        -6.4984    2.0935    0.2595   -0.0026    0.0013   -0.0322
H         0.3559   -6.2665    0.2241    0.0012    0.0068    0.1074
H        -4.0801   -3.8731    0.2016   -0.0047   -0.0065   -0.1266
H        -3.9765   -6.3769    0.3099   -0.0009   -0.0020   -0.0294
H        -1.7960   -7.5547    0.3185    0.0001   -0.0001   -0.0142
H         0.9891    5.4946    0.2174   -0.0014   -0.0063    0.1072
H         5.4267    3.1042    0.2032    0.0050    0.0064   -0.1253
H         5.3215    5.6077    0.3106    0.0009    0.0022   -0.0283
H         3.1404    6.7843    0.3129    0.0001    0.0001   -0.0131
H         7.8456   -2.8649    0.2681    0.0022   -0.0009   -0.0274
    57
stable frequency at    766.494 1/cm IR int. is 4.680 a.m.u.; force const. is 1.620 mDyne/Ang.
Fe        0.6742   -0.3860   -0.2512   -0.0000    0.0000    0.0012
N         3.9155    0.5774    0.0034    0.0007   -0.0021   -0.0076
N         1.6364   -3.6259    0.0222    0.0006   -0.0005   -0.0080
N        -0.2400   -2.0716   -0.0762   -0.0011   -0.0021   -0.0114
N        -1.0127    0.5279   -0.0841   -0.0006    0.0001   -0.0112
N         1.5882    1.2996   -0.0761    0.0010    0.0021   -0.0098
N         2.3604   -1.2995   -0.0741    0.0008   -0.0002   -0.0109
N        -0.2889    2.8541    0.0151   -0.0007    0.0002   -0.0063
N        -2.5678   -1.3490   -0.0039   -0.0007    0.0018   -0.0089
C        -2.6318    2.2074    0.0858   -0.0047    0.0017   -0.0778
C        -1.2138    1.9066   -0.0003    0.0024   -0.0029    0.0531
C         1.0023    2.5641    0.0125    0.0006    0.0028   -0.0305
C         2.0253    3.5896    0.1094   -0.0027   -0.0046    0.0723
C        -3.3042    0.9681    0.0767    0.0033   -0.0029    0.0643
C        -2.2782   -0.0563   -0.0113   -0.0010    0.0017   -0.0241
C        -0.6084   -5.7574    0.2030    0.0004   -0.0004   -0.0124
C        -3.1245   -4.3989    0.1900    0.0018    0.0006    0.0171
C        -1.8131   -6.4652    0.2658    0.0004    0.0032    0.0343
C        -4.7020    0.9019    0.1386    0.0001    0.0003   -0.0112
C        -3.3382    3.4149    0.1551    0.0003   -0.0012    0.0164
C        -5.4086    2.1097    0.2138    0.0025   -0.0009    0.0326
C        -3.0555   -5.7944    0.2587   -0.0016   -0.0017   -0.0252
C        -1.6195   -2.2729    0.0041    0.0007    0.0040    0.0567
C        -1.9182   -3.6908    0.1037   -0.0023   -0.0055   -0.0818
C         3.2652    2.9200    0.1027    0.0025    0.0056   -0.0841
C         2.9671    1.5014    0.0066   -0.0007   -0.0038    0.0564
C        -4.7364    3.3486    0.2202   -0.0015    0.0016   -0.0232
C         3.6255   -0.7151   -0.0006    0.0015   -0.0021   -0.0288
C         4.6513   -1.7396    0.0908   -0.0036    0.0033    0.0709
C         2.5611   -2.6780    0.0096   -0.0028    0.0029    0.0562
C         3.9791   -2.9786    0.0994    0.0050   -0.0016   -0.0824
C        -0.6787   -4.3610    0.1117    0.0025    0.0045    0.0686
C         0.3451   -3.3358    0.0162   -0.0005   -0.0025   -0.0270
C         1.9538    4.9862    0.1974   -0.0005    0.0005   -0.0132
C         4.4707    3.6292    0.1907   -0.0017   -0.0006    0.0175
C         3.1581    5.6948    0.2620   -0.0005   -0.0032    0.0350
C         4.4009    5.0247    0.2573    0.0018    0.0017   -0.0268
C         6.0491   -1.6734    0.1498   -0.0001   -0.0004   -0.0131
C         4.6854   -4.1862    0.1668   -0.0003    0.0014    0.0166
C         6.7557   -2.8811    0.2249   -0.0025    0.0010    0.0335
C         6.0835   -4.1199    0.2324    0.0016   -0.0017   -0.0256
H         6.5636   -0.7119    0.1505    0.0074   -0.0045   -0.1415
H         4.1595   -5.1415    0.1810   -0.0068    0.0064    0.1167
H         6.6636   -5.0424    0.2843    0.0014   -0.0015   -0.0223
H        -5.2165   -0.0595    0.1415   -0.0076    0.0041   -0.1379
H        -2.8123    4.3701    0.1706    0.0061   -0.0057    0.1032
H        -5.3164    4.2710    0.2739   -0.0019    0.0017   -0.0297
H        -6.4984    2.0935    0.2595   -0.0009    0.0004   -0.0464
H         0.3559   -6.2665    0.2241   -0.0020   -0.0102   -0.1437
H        -4.0801   -3.8731    0.2016    0.0065    0.0074    0.1105
H        -3.9765   -6.3769    0.3099   -0.0016   -0.0018   -0.0277
H        -1.7960   -7.5547    0.3185   -0.0004   -0.0007   -0.0461
H         0.9891    5.4946    0.2174    0.0021    0.0104   -0.1471
H         5.4267    3.1042    0.2032   -0.0068   -0.0077    0.1168
H         5.3215    5.6077    0.3106    0.0015    0.0016   -0.0239
H         3.1404    6.7843    0.3129    0.0005    0.0005   -0.0428
H         7.8456   -2.8649    0.2681    0.0003   -0.0000   -0.0380
    57
stable frequency at    770.628 1/cm IR int. is 5.195 a.m.u.; force const. is 1.818 mDyne/Ang.
Fe        0.6742   -0.3860   -0.2512    0.0000    0.0006   -0.0005
N         3.9155    0.5774    0.0034   -0.0010    0.0036    0.0184
N         1.6364   -3.6259    0.0222   -0.0026   -0.0026   -0.0298
N        -0.2400   -2.0716   -0.0762   -0.0041   -0.0071   -0.0270
N        -1.0127    0.5279   -0.0841    0.0036   -0.0024    0.0170
N         1.5882    1.2996   -0.0761   -0.0055   -0.0094    0.0331
N         2.3604   -1.2995   -0.0741    0.0034   -0.0022   -0.0050
N        -0.2889    2.8541    0.0151    0.0029   -0.0008    0.0354
N        -2.5678   -1.3490   -0.0039    0.0007   -0.0017   -0.0111
C        -2.6318    2.2074    0.0858    0.0042   -0.0019    0.0955
C        -1.2138    1.9066   -0.0003   -0.0016    0.0045   -0.0797
C         1.0023    2.5641    0.0125    0.0022    0.0014   -0.0600
C         2.0253    3.5896    0.1094   -0.0006   -0.0018    0.0468
C        -3.3042    0.9681    0.0767   -0.0055    0.0017   -0.0822
C        -2.2782   -0.0563   -0.0113    0.0041   -0.0023    0.0421
C        -0.6084   -5.7574    0.2030   -0.0042    0.0069    0.0085
C        -3.1245   -4.3989    0.1900    0.0074   -0.0013   -0.0051
C        -1.8131   -6.4652    0.2658   -0.0011    0.0012   -0.0088
C        -4.7020    0.9019    0.1386   -0.0030   -0.0039    0.0135
C        -3.3382    3.4149    0.1551   -0.0009    0.0047   -0.0169
C        -5.4086    2.1097    0.2138   -0.0012    0.0011   -0.0372
C        -3.0555   -5.7944    0.2587    0.0010    0.0005    0.0200
C        -1.6195   -2.2729    0.0041   -0.0007   -0.0033    0.0025
C        -1.9182   -3.6908    0.1037    0.0037    0.0014    0.0296
C         3.2652    2.9200    0.1027    0.0020    0.0014   -0.0240
C         2.9671    1.5014    0.0066   -0.0034   -0.0007   -0.0125
C        -4.7364    3.3486    0.2202    0.0009    0.0006    0.0285
C         3.6255   -0.7151   -0.0006    0.0064    0.0006   -0.0593
C         4.6513   -1.7396    0.0908   -0.0045    0.0030    0.0930
C         2.5611   -2.6780    0.0096   -0.0039    0.0012    0.0652
C         3.9791   -2.9786    0.0994    0.0036   -0.0032   -0.0874
C        -0.6787   -4.3610    0.1117   -0.0014   -0.0009   -0.0470
C         0.3451   -3.3358    0.0162   -0.0016    0.0023    0.0539
C         1.9538    4.9862    0.1974   -0.0028    0.0056   -0.0085
C         4.4707    3.6292    0.1907    0.0055   -0.0004    0.0038
C         3.1581    5.6948    0.2620   -0.0011    0.0012    0.0059
C         4.4009    5.0247    0.2573    0.0015    0.0008   -0.0205
C         6.0491   -1.6734    0.1498   -0.0003   -0.0017   -0.0193
C         4.6854   -4.1862    0.1668   -0.0014    0.0013    0.0119
C         6.7557   -2.8811    0.2249   -0.0008    0.0010    0.0284
C         6.0835   -4.1199    0.2324    0.0010    0.0006   -0.0333
H         6.5636   -0.7119    0.1505    0.0043   -0.0041   -0.1257
H         4.1595   -5.1415    0.1810   -0.0077    0.0069    0.1671
H         6.6636   -5.0424    0.2843   -0.0034    0.0022    0.0384
H        -5.2165   -0.0595    0.1415    0.0022   -0.0065    0.1630
H        -2.8123    4.3701    0.1706   -0.0075    0.0103   -0.1354
H        -5.3164    4.2710    0.2739   -0.0031   -0.0012    0.0188
H        -6.4984    2.0935    0.2595    0.0023    0.0018    0.0479
H         0.3559   -6.2665    0.2241   -0.0030    0.0111    0.0462
H        -4.0801   -3.8731    0.2016    0.0067   -0.0015   -0.0809
H        -3.9765   -6.3769    0.3099   -0.0037    0.0021   -0.0472
H        -1.7960   -7.5547    0.3185    0.0050    0.0001   -0.0362
H         0.9891    5.4946    0.2174   -0.0019    0.0086   -0.0371
H         5.4267    3.1042    0.2032    0.0038   -0.0019    0.0810
H         5.3215    5.6077    0.3106   -0.0029    0.0003    0.0612
H         3.1404    6.7843    0.3129    0.0024   -0.0007    0.0492
H         7.8456   -2.8649    0.2681   -0.0005    0.0011    0.0202
    57
stable frequency at    770.980 1/cm IR int. is 5.239 a.m.u.; force const. is 1.835 mDyne/Ang.
Fe        0.6742   -0.3860   -0.2512    0.0008   -0.0000    0.0001
N         3.9155    0.5774    0.0034   -0.0011   -0.0029    0.0332
N         1.6364   -3.6259    0.0222    0.0027    0.0016    0.0139
N        -0.2400   -2.0716   -0.0762   -0.0016   -0.0040   -0.0130
N        -1.0127    0.5279   -0.0841   -0.0095    0.0055   -0.0314
N         1.5882    1.2996   -0.0761   -0.0021   -0.0049    0.0123
N         2.3604   -1.2995   -0.0741   -0.0090    0.0051    0.0301
N        -0.2889    2.8541    0.0151    0.0006    0.0014   -0.0145
N        -2.5678   -1.3490   -0.0039   -0.0021   -0.0011   -0.0339
C        -2.6318    2.2074    0.0858    0.0014   -0.0033    0.0251
C        -1.2138    1.9066   -0.0003   -0.0025    0.0031    0.0091
C         1.0023    2.5641    0.0125   -0.0013   -0.0063    0.0486
C         2.0253    3.5896    0.1094    0.0001    0.0069   -0.0856
C        -3.3042    0.9681    0.0767    0.0001    0.0015   -0.0468
C        -2.2782   -0.0563   -0.0113    0.0001   -0.0004    0.0587
C        -0.6084   -5.7574    0.2030   -0.0021    0.0008   -0.0145
C        -3.1245   -4.3989    0.1900    0.0024    0.0018    0.0164
C        -1.8131   -6.4652    0.2658    0.0007    0.0008    0.0361
C        -4.7020    0.9019    0.1386    0.0073    0.0045    0.0086
C        -3.3382    3.4149    0.1551   -0.0011   -0.0085   -0.0040
C        -5.4086    2.1097    0.2138    0.0016    0.0012   -0.0062
C        -3.0555   -5.7944    0.2587    0.0011   -0.0008   -0.0302
C        -1.6195   -2.2729    0.0041    0.0026    0.0041    0.0759
C        -1.9182   -3.6908    0.1037   -0.0037   -0.0044   -0.0937
C         3.2652    2.9200    0.1027   -0.0028   -0.0042    0.0933
C         2.9671    1.5014    0.0066    0.0034    0.0024   -0.0749
C        -4.7364    3.3486    0.2202    0.0007   -0.0015    0.0203
C         3.6255   -0.7151   -0.0006    0.0004   -0.0019   -0.0566
C         4.6513   -1.7396    0.0908   -0.0006    0.0011    0.0454
C         2.5611   -2.6780    0.0096   -0.0012    0.0036   -0.0080
C         3.9791   -2.9786    0.0994    0.0015   -0.0023   -0.0249
C        -0.6787   -4.3610    0.1117    0.0005    0.0061    0.0846
C         0.3451   -3.3358    0.0162    0.0004   -0.0060   -0.0474
C         1.9538    4.9862    0.1974   -0.0038    0.0027    0.0151
C         4.4707    3.6292    0.1907    0.0050    0.0014   -0.0160
C         3.1581    5.6948    0.2620    0.0007    0.0009   -0.0355
C         4.4009    5.0247    0.2573    0.0011   -0.0008    0.0309
C         6.0491   -1.6734    0.1498    0.0056    0.0029   -0.0084
C         4.6854   -4.1862    0.1668   -0.0007   -0.0063    0.0037
C         6.7557   -2.8811    0.2249    0.0015    0.0010    0.0060
C         6.0835   -4.1199    0.2324    0.0006   -0.0012   -0.0191
H         6.5636   -0.7119    0.1505    0.0081    0.0017   -0.0372
H         4.1595   -5.1415    0.1810   -0.0013   -0.0050    0.0791
H         6.6636   -5.0424    0.2843    0.0010    0.0032    0.0552
H        -5.2165   -0.0595    0.1415    0.0107    0.0030    0.0379
H        -2.8123    4.3701    0.1706   -0.0012   -0.0075   -0.0818
H        -5.3164    4.2710    0.2739    0.0026    0.0042   -0.0600
H        -6.4984    2.0935    0.2595    0.0001   -0.0043   -0.0481
H         0.3559   -6.2665    0.2241   -0.0025   -0.0057   -0.1578
H        -4.0801   -3.8731    0.2016    0.0068    0.0074    0.1390
H        -3.9765   -6.3769    0.3099    0.0005    0.0024   -0.0078
H        -1.7960   -7.5547    0.3185    0.0000   -0.0027   -0.0376
H         0.9891    5.4946    0.2174   -0.0038   -0.0024    0.1549
H         5.4267    3.1042    0.2032    0.0103    0.0081   -0.1424
H         5.3215    5.6077    0.3106   -0.0004    0.0047    0.0016
H         3.1404    6.7843    0.3129    0.0022   -0.0020    0.0311
H         7.8456   -2.8649    0.2681    0.0001   -0.0026    0.0451
    57
stable frequency at    779.028 1/cm IR int. is 6.587 a.m.u.; force const. is 2.355 mDyne/Ang.
Fe        0.6742   -0.3860   -0.2512   -0.0000    0.0000   -0.0001
N         3.9155    0.5774    0.0034    0.0004   -0.0026    0.0006
N         1.6364   -3.6259    0.0222    0.0024    0.0014    0.0010
N        -0.2400   -2.0716   -0.0762   -0.0338   -0.0623    0.0083
N        -1.0127    0.5279   -0.0841    0.0614   -0.0331   -0.0065
N         1.5882    1.2996   -0.0761    0.0338    0.0625    0.0080
N         2.3604   -1.2995   -0.0741   -0.0619    0.0333   -0.0057
N        -0.2889    2.8541    0.0151   -0.0023   -0.0013    0.0002
N        -2.5678   -1.3490   -0.0039   -0.0004    0.0023    0.0001
C        -2.6318    2.2074    0.0858   -0.0042    0.0175    0.0011
C        -1.2138    1.9066   -0.0003    0.0258   -0.0270   -0.0015
C         1.0023    2.5641    0.0125    0.0076    0.0376    0.0009
C         2.0253    3.5896    0.1094    0.0075   -0.0167   -0.0009
C        -3.3042    0.9681    0.0767   -0.0169   -0.0073    0.0008
C        -2.2782   -0.0563   -0.0113    0.0374   -0.0076   -0.0013
C        -0.6084   -5.7574    0.2030   -0.0411    0.0550   -0.0037
C        -3.1245   -4.3989    0.1900    0.0685   -0.0035   -0.0023
C        -1.8131   -6.4652    0.2658   -0.0047    0.0119   -0.0010
C        -4.7020    0.9019    0.1386   -0.0546   -0.0405    0.0013
C        -3.3382    3.4149    0.1551    0.0039    0.0679    0.0022
C        -5.4086    2.1097    0.2138   -0.0120   -0.0045    0.0009
C        -3.0555   -5.7944    0.2587    0.0139    0.0030   -0.0015
C        -1.6195   -2.2729    0.0041   -0.0272   -0.0266    0.0012
C        -1.9182   -3.6908    0.1037    0.0172    0.0041   -0.0014
C         3.2652    2.9200    0.1027   -0.0175   -0.0042    0.0018
C         2.9671    1.5014    0.0066    0.0275    0.0267   -0.0006
C        -4.7364    3.3486    0.2202   -0.0028    0.0133    0.0006
C         3.6255   -0.7151   -0.0006   -0.0376    0.0075   -0.0018
C         4.6513   -1.7396    0.0908    0.0170    0.0073    0.0006
C         2.5611   -2.6780    0.0096   -0.0258    0.0271   -0.0028
C         3.9791   -2.9786    0.0994    0.0043   -0.0175    0.0018
C        -0.6787   -4.3610    0.1117   -0.0075    0.0170    0.0023
C         0.3451   -3.3358    0.0162   -0.0077   -0.0378   -0.0013
C         1.9538    4.9862    0.1974    0.0410   -0.0551   -0.0030
C         4.4707    3.6292    0.1907   -0.0686    0.0036   -0.0030
C         3.1581    5.6948    0.2620    0.0048   -0.0121   -0.0020
C         4.4009    5.0247    0.2573   -0.0138   -0.0030   -0.0004
C         6.0491   -1.6734    0.1498    0.0549    0.0408    0.0015
C         4.6854   -4.1862    0.1668   -0.0039   -0.0682    0.0022
C         6.7557   -2.8811    0.2249    0.0120    0.0045    0.0010
C         6.0835   -4.1199    0.2324    0.0028   -0.0134    0.0007
H         6.5636   -0.7119    0.1505    0.0789    0.0297    0.0010
H         4.1595   -5.1415    0.1810    0.0204   -0.0836    0.0006
H         6.6636   -5.0424    0.2843    0.0481    0.0133   -0.0001
H        -5.2165   -0.0595    0.1415   -0.0785   -0.0295    0.0020
H        -2.8123    4.3701    0.1706   -0.0203    0.0833    0.0022
H        -5.3164    4.2710    0.2739   -0.0478   -0.0133    0.0004
H        -6.4984    2.0935    0.2595   -0.0143    0.0479   -0.0002
H         0.3559   -6.2665    0.2241   -0.0297    0.0797   -0.0038
H        -4.0801   -3.8731    0.2016    0.0838    0.0207   -0.0002
H        -3.9765   -6.3769    0.3099   -0.0129    0.0487    0.0037
H        -1.7960   -7.5547    0.3185    0.0479    0.0146    0.0058
H         0.9891    5.4946    0.2174    0.0297   -0.0798    0.0012
H         5.4267    3.1042    0.2032   -0.0839   -0.0206   -0.0053
H         5.3215    5.6077    0.3106    0.0131   -0.0486    0.0031
H         3.1404    6.7843    0.3129   -0.0480   -0.0148    0.0061
H         7.8456   -2.8649    0.2681    0.0143   -0.0482   -0.0015
    57
stable frequency at    796.198 1/cm IR int. is 6.379 a.m.u.; force const. is 2.383 mDyne/Ang.
Fe        0.6742   -0.3860   -0.2512   -0.0006   -0.0118    0.0000
N         3.9155    0.5774    0.0034   -0.0204    0.0359    0.0009
N         1.6364   -3.6259    0.0222    0.0209   -0.0223   -0.0008
N        -0.2400   -2.0716   -0.0762    0.0363    0.0601   -0.0091
N        -1.0127    0.5279   -0.0841   -0.0330    0.0085    0.0034
N         1.5882    1.2996   -0.0761    0.0365    0.0605    0.0091
N         2.3604   -1.2995   -0.0741   -0.0325    0.0082   -0.0032
N        -0.2889    2.8541    0.0151    0.0212   -0.0226    0.0009
N        -2.5678   -1.3490   -0.0039   -0.0199    0.0357   -0.0010
C        -2.6318    2.2074    0.0858   -0.0166   -0.0265    0.0024
C        -1.2138    1.9066   -0.0003   -0.0027    0.0033   -0.0043
C         1.0023    2.5641    0.0125    0.0243    0.0255   -0.0034
C         2.0253    3.5896    0.1094    0.0271   -0.0182    0.0031
C        -3.3042    0.9681    0.0767    0.0004   -0.0122   -0.0047
C        -2.2782   -0.0563   -0.0113   -0.0228    0.0292    0.0060
C        -0.6084   -5.7574    0.2030    0.0562   -0.0609    0.0040
C        -3.1245   -4.3989    0.1900   -0.0697   -0.0045    0.0028
C        -1.8131   -6.4652    0.2658    0.0027    0.0041    0.0000
C        -4.7020    0.9019    0.1386    0.0281   -0.0016   -0.0005
C        -3.3382    3.4149    0.1551   -0.0210   -0.0479    0.0006
C        -5.4086    2.1097    0.2138    0.0469    0.0042   -0.0028
C        -3.0555   -5.7944    0.2587   -0.0316   -0.0140    0.0027
C        -1.6195   -2.2729    0.0041    0.0073    0.0493   -0.0022
C        -1.9182   -3.6908    0.1037   -0.0134   -0.0016    0.0017
C         3.2652    2.9200    0.1027   -0.0135   -0.0015   -0.0012
C         2.9671    1.5014    0.0066    0.0074    0.0498    0.0020
C        -4.7364    3.3486    0.2202   -0.0172    0.0276    0.0032
C         3.6255   -0.7151   -0.0006   -0.0226    0.0292   -0.0065
C         4.6513   -1.7396    0.0908    0.0004   -0.0123    0.0054
C         2.5611   -2.6780    0.0096   -0.0025    0.0030    0.0041
C         3.9791   -2.9786    0.0994   -0.0165   -0.0265   -0.0023
C        -0.6787   -4.3610    0.1117    0.0269   -0.0182   -0.0035
C         0.3451   -3.3358    0.0162    0.0240    0.0255    0.0036
C         1.9538    4.9862    0.1974    0.0566   -0.0611   -0.0036
C         4.4707    3.6292    0.1907   -0.0701   -0.0045   -0.0031
C         3.1581    5.6948    0.2620    0.0027    0.0041   -0.0002
C         4.4009    5.0247    0.2573   -0.0318   -0.0141   -0.0026
C         6.0491   -1.6734    0.1498    0.0279   -0.0018    0.0000
C         4.6854   -4.1862    0.1668   -0.0210   -0.0477   -0.0009
C         6.7557   -2.8811    0.2249    0.0468    0.0041    0.0023
C         6.0835   -4.1199    0.2324   -0.0173    0.0278   -0.0032
H         6.5636   -0.7119    0.1505    0.0036    0.0128   -0.0007
H         4.1595   -5.1415    0.1810    0.0352   -0.0789    0.0196
H         6.6636   -5.0424    0.2843   -0.0124    0.0303    0.0079
H        -5.2165   -0.0595    0.1415    0.0040    0.0129    0.0025
H        -2.8123    4.3701    0.1706    0.0353   -0.0792   -0.0182
H        -5.3164    4.2710    0.2739   -0.0121    0.0300   -0.0062
H        -6.4984    2.0935    0.2595    0.0481   -0.0450   -0.0076
H         0.3559   -6.2665    0.2241    0.0300   -0.1141    0.0055
H        -4.0801   -3.8731    0.2016   -0.0806   -0.0193   -0.0012
H        -3.9765   -6.3769    0.3099    0.0035   -0.0730   -0.0022
H        -1.7960   -7.5547    0.3185   -0.0456    0.0012   -0.0072
H         0.9891    5.4946    0.2174    0.0303   -0.1146   -0.0050
H         5.4267    3.1042    0.2032   -0.0810   -0.0193    0.0006
H         5.3215    5.6077    0.3106    0.0035   -0.0734    0.0023
H         3.1404    6.7843    0.3129   -0.0457    0.0011    0.0069
H         7.8456   -2.8649    0.2681    0.0479   -0.0449    0.0107
    57
stable frequency at    796.718 1/cm IR int. is 6.391 a.m.u.; force const. is 2.390 mDyne/Ang.
Fe        0.6742   -0.3860   -0.2512    0.0117   -0.0006    0.0000
N         3.9155    0.5774    0.0034    0.0225    0.0210   -0.0010
N         1.6364   -3.6259    0.0222   -0.0360   -0.0197   -0.0004
N        -0.2400   -2.0716   -0.0762   -0.0086   -0.0330    0.0040
N        -1.0127    0.5279   -0.0841   -0.0611    0.0365    0.0082
N         1.5882    1.2996   -0.0761   -0.0081   -0.0323   -0.0039
N         2.3604   -1.2995   -0.0741   -0.0601    0.0361   -0.0082
N        -0.2889    2.8541    0.0151   -0.0356   -0.0203    0.0002
N        -2.5678   -1.3490   -0.0039    0.0232    0.0210    0.0010
C        -2.6318    2.2074    0.0858    0.0015   -0.0135   -0.0025
C        -1.2138    1.9066   -0.0003   -0.0494    0.0073    0.0024
C         1.0023    2.5641    0.0125   -0.0290   -0.0222   -0.0059
C         2.0253    3.5896    0.1094    0.0122    0.0002    0.0052
C        -3.3042    0.9681    0.0767    0.0183    0.0273    0.0025
C        -2.2782   -0.0563   -0.0113   -0.0259    0.0241   -0.0030
C        -0.6084   -5.7574    0.2030    0.0016    0.0282   -0.0006
C        -3.1245   -4.3989    0.1900    0.0480   -0.0208    0.0001
C        -1.8131   -6.4652    0.2658   -0.0043    0.0468   -0.0034
C        -4.7020    0.9019    0.1386    0.0616    0.0567   -0.0013
C        -3.3382    3.4149    0.1551    0.0041   -0.0701   -0.0029
C        -5.4086    2.1097    0.2138   -0.0039    0.0025    0.0002
C        -3.0555   -5.7944    0.2587   -0.0275   -0.0173    0.0032
C        -1.6195   -2.2729    0.0041   -0.0030   -0.0031   -0.0054
C        -1.9182   -3.6908    0.1037    0.0264   -0.0166    0.0042
C         3.2652    2.9200    0.1027    0.0263   -0.0164   -0.0042
C         2.9671    1.5014    0.0066   -0.0030   -0.0027    0.0054
C        -4.7364    3.3486    0.2202    0.0141   -0.0318   -0.0029
C         3.6255   -0.7151   -0.0006   -0.0255    0.0240    0.0027
C         4.6513   -1.7396    0.0908    0.0184    0.0271   -0.0021
C         2.5611   -2.6780    0.0096   -0.0492    0.0071   -0.0025
C         3.9791   -2.9786    0.0994    0.0017   -0.0135    0.0027
C        -0.6787   -4.3610    0.1117    0.0121    0.0002   -0.0050
C         0.3451   -3.3358    0.0162   -0.0295   -0.0225    0.0058
C         1.9538    4.9862    0.1974    0.0019    0.0278    0.0004
C         4.4707    3.6292    0.1907    0.0474   -0.0207   -0.0000
C         3.1581    5.6948    0.2620   -0.0043    0.0466    0.0033
C         4.4009    5.0247    0.2573   -0.0275   -0.0173   -0.0034
C         6.0491   -1.6734    0.1498    0.0611    0.0564    0.0012
C         4.6854   -4.1862    0.1668    0.0041   -0.0696    0.0029
C         6.7557   -2.8811    0.2249   -0.0043    0.0024   -0.0001
C         6.0835   -4.1199    0.2324    0.0141   -0.0316    0.0027
H         6.5636   -0.7119    0.1505    0.1141    0.0301    0.0054
H         4.1595   -5.1415    0.1810    0.0189   -0.0806   -0.0056
H         6.6636   -5.0424    0.2843    0.0731    0.0033   -0.0022
H        -5.2165   -0.0595    0.1415    0.1147    0.0303   -0.0064
H        -2.8123    4.3701    0.1706    0.0192   -0.0813    0.0054
H        -5.3164    4.2710    0.2739    0.0734    0.0032    0.0027
H        -6.4984    2.0935    0.2595   -0.0013   -0.0461    0.0030
H         0.3559   -6.2665    0.2241   -0.0126    0.0044    0.0010
H        -4.0801   -3.8731    0.2016    0.0792    0.0353   -0.0176
H        -3.9765   -6.3769    0.3099   -0.0300   -0.0119   -0.0039
H        -1.7960   -7.5547    0.3185    0.0449    0.0481   -0.0071
H         0.9891    5.4946    0.2174   -0.0123    0.0036   -0.0007
H         5.4267    3.1042    0.2032    0.0784    0.0351    0.0181
H         5.3215    5.6077    0.3106   -0.0299   -0.0123    0.0046
H         3.1404    6.7843    0.3129    0.0444    0.0478    0.0081
H         7.8456   -2.8649    0.2681   -0.0016   -0.0458   -0.0032
    57
stable frequency at    830.565 1/cm IR int. is 7.808 a.m.u.; force const. is 3.173 mDyne/Ang.
Fe        0.6742   -0.3860   -0.2512   -0.0000    0.0000   -0.0019
N         3.9155    0.5774    0.0034   -0.0498   -0.0160   -0.0005
N         1.6364   -3.6259    0.0222   -0.0158    0.0497   -0.0015
N        -0.2400   -2.0716   -0.0762   -0.0385   -0.0727    0.0087
N        -1.0127    0.5279   -0.0841   -0.0732    0.0385    0.0081
N         1.5882    1.2996   -0.0761    0.0382    0.0727    0.0087
N         2.3604   -1.2995   -0.0741    0.0740   -0.0390    0.0086
N        -0.2889    2.8541    0.0151    0.0159   -0.0492   -0.0014
N        -2.5678   -1.3490   -0.0039    0.0498    0.0155   -0.0008
C        -2.6318    2.2074    0.0858   -0.0089   -0.0096   -0.0006
C        -1.2138    1.9066   -0.0003   -0.0283    0.0132   -0.0004
C         1.0023    2.5641    0.0125    0.0187    0.0284   -0.0011
C         2.0253    3.5896    0.1094    0.0124   -0.0023    0.0017
C        -3.3042    0.9681    0.0767    0.0025    0.0128    0.0014
C        -2.2782   -0.0563   -0.0113   -0.0289    0.0183   -0.0014
C        -0.6084   -5.7574    0.2030   -0.0290    0.0418   -0.0029
C        -3.1245   -4.3989    0.1900    0.0520   -0.0025   -0.0011
C        -1.8131   -6.4652    0.2658   -0.0024    0.0168   -0.0020
C        -4.7020    0.9019    0.1386    0.0421    0.0291   -0.0017
C        -3.3382    3.4149    0.1551   -0.0027   -0.0522   -0.0004
C        -5.4086    2.1097    0.2138    0.0170    0.0022   -0.0019
C        -3.0555   -5.7944    0.2587    0.0133    0.0056   -0.0006
C        -1.6195   -2.2729    0.0041   -0.0128   -0.0288   -0.0010
C        -1.9182   -3.6908    0.1037    0.0095   -0.0090    0.0008
C         3.2652    2.9200    0.1027   -0.0097    0.0091    0.0007
C         2.9671    1.5014    0.0066    0.0130    0.0284   -0.0011
C        -4.7364    3.3486    0.2202    0.0056   -0.0131   -0.0008
C         3.6255   -0.7151   -0.0006    0.0293   -0.0188   -0.0030
C         4.6513   -1.7396    0.0908   -0.0030   -0.0127    0.0040
C         2.5611   -2.6780    0.0096    0.0288   -0.0134   -0.0001
C         3.9791   -2.9786    0.0994    0.0090    0.0101   -0.0013
C        -0.6787   -4.3610    0.1117   -0.0127    0.0025    0.0016
C         0.3451   -3.3358    0.0162   -0.0186   -0.0283   -0.0012
C         1.9538    4.9862    0.1974    0.0286   -0.0416   -0.0029
C         4.4707    3.6292    0.1907   -0.0520    0.0026   -0.0011
C         3.1581    5.6948    0.2620    0.0024   -0.0172   -0.0022
C         4.4009    5.0247    0.2573   -0.0129   -0.0054   -0.0005
C         6.0491   -1.6734    0.1498   -0.0428   -0.0300   -0.0050
C         4.6854   -4.1862    0.1668    0.0029    0.0535   -0.0009
C         6.7557   -2.8811    0.2249   -0.0170   -0.0024   -0.0051
C         6.0835   -4.1199    0.2324   -0.0058    0.0135    0.0023
H         6.5636   -0.7119    0.1505   -0.0697   -0.0174    0.0221
H         4.1595   -5.1415    0.1810   -0.0264    0.0715   -0.0063
H         6.6636   -5.0424    0.2843   -0.0375   -0.0052   -0.0075
H        -5.2165   -0.0595    0.1415    0.0679    0.0170    0.0015
H        -2.8123    4.3701    0.1706    0.0259   -0.0698   -0.0071
H        -5.3164    4.2710    0.2739    0.0366    0.0047   -0.0011
H        -6.4984    2.0935    0.2595    0.0193   -0.0362    0.0053
H         0.3559   -6.2665    0.2241   -0.0170    0.0679   -0.0001
H        -4.0801   -3.8731    0.2016    0.0693    0.0256   -0.0074
H        -3.9765   -6.3769    0.3099   -0.0047    0.0367   -0.0006
H        -1.7960   -7.5547    0.3185    0.0356    0.0192    0.0059
H         0.9891    5.4946    0.2174    0.0170   -0.0671    0.0009
H         5.4267    3.1042    0.2032   -0.0694   -0.0257   -0.0078
H         5.3215    5.6077    0.3106    0.0050   -0.0363   -0.0006
H         3.1404    6.7843    0.3129   -0.0357   -0.0197    0.0066
H         7.8456   -2.8649    0.2681   -0.0203    0.0382    0.0253
    57
stable frequency at    849.922 1/cm IR int. is 6.562 a.m.u.; force const. is 2.793 mDyne/Ang.
Fe        0.6742   -0.3860   -0.2512   -0.0000   -0.0000    0.0000
N         3.9155    0.5774    0.0034    0.0125   -0.0383    0.0006
N         1.6364   -3.6259    0.0222   -0.0383   -0.0130   -0.0007
N        -0.2400   -2.0716   -0.0762    0.0282   -0.0128   -0.0002
N        -1.0127    0.5279   -0.0841   -0.0126   -0.0282   -0.0006
N         1.5882    1.2996   -0.0761   -0.0281    0.0132   -0.0004
N         2.3604   -1.2995   -0.0741    0.0126    0.0285   -0.0005
N        -0.2889    2.8541    0.0151    0.0384    0.0127   -0.0006
N        -2.5678   -1.3490   -0.0039   -0.0126    0.0382    0.0003
C        -2.6318    2.2074    0.0858    0.0005   -0.0200   -0.0033
C        -1.2138    1.9066   -0.0003    0.0470   -0.0131   -0.0022
C         1.0023    2.5641    0.0125    0.0315    0.0349    0.0071
C         2.0253    3.5896    0.1094   -0.0106    0.0181   -0.0048
C        -3.3042    0.9681    0.0767   -0.0177   -0.0111    0.0021
C        -2.2782   -0.0563   -0.0113   -0.0351    0.0313    0.0031
C        -0.6084   -5.7574    0.2030    0.0384   -0.0057    0.0065
C        -3.1245   -4.3989    0.1900    0.0230   -0.0284   -0.0036
C        -1.8131   -6.4652    0.2658   -0.0007    0.0618   -0.0001
C        -4.7020    0.9019    0.1386   -0.0069   -0.0381   -0.0049
C        -3.3382    3.4149    0.1551   -0.0278   -0.0229    0.0068
C        -5.4086    2.1097    0.2138    0.0615    0.0007   -0.0057
C        -3.0555   -5.7944    0.2587   -0.0531   -0.0335   -0.0001
C        -1.6195   -2.2729    0.0041    0.0129    0.0466   -0.0064
C        -1.9182   -3.6908    0.1037    0.0203    0.0009    0.0036
C         3.2652    2.9200    0.1027   -0.0204   -0.0009    0.0036
C         2.9671    1.5014    0.0066   -0.0129   -0.0466   -0.0063
C        -4.7364    3.3486    0.2202   -0.0332    0.0530    0.0062
C         3.6255   -0.7151   -0.0006    0.0352   -0.0314    0.0028
C         4.6513   -1.7396    0.0908    0.0177    0.0111    0.0027
C         2.5611   -2.6780    0.0096   -0.0472    0.0132   -0.0021
C         3.9791   -2.9786    0.0994   -0.0005    0.0200   -0.0038
C        -0.6787   -4.3610    0.1117    0.0107   -0.0180   -0.0046
C         0.3451   -3.3358    0.0162   -0.0314   -0.0348    0.0070
C         1.9538    4.9862    0.1974   -0.0383    0.0055    0.0064
C         4.4707    3.6292    0.1907   -0.0232    0.0284   -0.0037
C         3.1581    5.6948    0.2620    0.0007   -0.0619    0.0000
C         4.4009    5.0247    0.2573    0.0531    0.0336   -0.0000
C         6.0491   -1.6734    0.1498    0.0069    0.0381   -0.0063
C         4.6854   -4.1862    0.1668    0.0279    0.0229    0.0081
C         6.7557   -2.8811    0.2249   -0.0616   -0.0008   -0.0065
C         6.0835   -4.1199    0.2324    0.0333   -0.0531    0.0070
H         6.5636   -0.7119    0.1505    0.0541    0.0121    0.0343
H         4.1595   -5.1415    0.1810   -0.0197    0.0473   -0.0474
H         6.6636   -5.0424    0.2843    0.0641   -0.0351   -0.0210
H        -5.2165   -0.0595    0.1415   -0.0543   -0.0118    0.0263
H        -2.8123    4.3701    0.1706    0.0201   -0.0475   -0.0398
H        -5.3164    4.2710    0.2739   -0.0638    0.0348   -0.0159
H        -6.4984    2.0935    0.2595    0.0625   -0.0337    0.0106
H         0.3559   -6.2665    0.2241    0.0112   -0.0570   -0.0350
H        -4.0801   -3.8731    0.2016    0.0504    0.0229    0.0213
H        -3.9765   -6.3769    0.3099   -0.0340   -0.0613    0.0239
H        -1.7960   -7.5547    0.3185    0.0329    0.0608   -0.0281
H         0.9891    5.4946    0.2174   -0.0112    0.0567   -0.0351
H         5.4267    3.1042    0.2032   -0.0507   -0.0231    0.0211
H         5.3215    5.6077    0.3106    0.0339    0.0613    0.0235
H         3.1404    6.7843    0.3129   -0.0330   -0.0609   -0.0287
H         7.8456   -2.8649    0.2681   -0.0629    0.0339    0.0160
    57
stable frequency at    855.749 1/cm IR int. is 1.453 a.m.u.; force const. is 0.627 mDyne/Ang.
Fe        0.6742   -0.3860   -0.2512   -0.0000   -0.0000   -0.0000
N         3.9155    0.5774    0.0034   -0.0011    0.0017    0.0016
N         1.6364   -3.6259    0.0222    0.0009    0.0025   -0.0016
N        -0.2400   -2.0716   -0.0762   -0.0021   -0.0022   -0.0002
N        -1.0127    0.5279   -0.0841   -0.0013    0.0021    0.0004
N         1.5882    1.2996   -0.0761    0.0020    0.0016    0.0006
N         2.3604   -1.2995   -0.0741    0.0012   -0.0028    0.0001
N        -0.2889    2.8541    0.0151   -0.0010   -0.0017   -0.0009
N        -2.5678   -1.3490   -0.0039    0.0013   -0.0012    0.0008
C        -2.6318    2.2074    0.0858    0.0008   -0.0003    0.0254
C        -1.2138    1.9066   -0.0003   -0.0035    0.0015   -0.0132
C         1.0023    2.5641    0.0125   -0.0010   -0.0010    0.0181
C         2.0253    3.5896    0.1094    0.0027    0.0020   -0.0350
C        -3.3042    0.9681    0.0767   -0.0006    0.0014   -0.0255
C        -2.2782   -0.0563   -0.0113    0.0014   -0.0015    0.0130
C        -0.6084   -5.7574    0.2030   -0.0006    0.0046    0.0502
C        -3.1245   -4.3989    0.1900   -0.0009   -0.0012   -0.0505
C        -1.8131   -6.4652    0.2658    0.0011   -0.0004    0.0296
C        -4.7020    0.9019    0.1386    0.0031    0.0007    0.0369
C        -3.3382    3.4149    0.1551   -0.0001    0.0015   -0.0369
C        -5.4086    2.1097    0.2138   -0.0014   -0.0009    0.0204
C        -3.0555   -5.7944    0.2587    0.0009   -0.0002   -0.0297
C        -1.6195   -2.2729    0.0041   -0.0011   -0.0033   -0.0172
C        -1.9182   -3.6908    0.1037    0.0007    0.0031    0.0334
C         3.2652    2.9200    0.1027   -0.0007   -0.0031    0.0346
C         2.9671    1.5014    0.0066    0.0013    0.0034   -0.0179
C        -4.7364    3.3486    0.2202    0.0008   -0.0017   -0.0202
C         3.6255   -0.7151   -0.0006   -0.0017    0.0017    0.0084
C         4.6513   -1.7396    0.0908   -0.0001   -0.0011   -0.0162
C         2.5611   -2.6780    0.0096    0.0038   -0.0016   -0.0082
C         3.9791   -2.9786    0.0994   -0.0003   -0.0003    0.0162
C        -0.6787   -4.3610    0.1117   -0.0024   -0.0019   -0.0333
C         0.3451   -3.3358    0.0162    0.0008    0.0009    0.0175
C         1.9538    4.9862    0.1974    0.0005   -0.0046    0.0531
C         4.4707    3.6292    0.1907    0.0012    0.0012   -0.0530
C         3.1581    5.6948    0.2620   -0.0013    0.0007    0.0312
C         4.4009    5.0247    0.2573   -0.0009    0.0001   -0.0313
C         6.0491   -1.6734    0.1498   -0.0025   -0.0016    0.0235
C         4.6854   -4.1862    0.1668   -0.0006   -0.0010   -0.0237
C         6.7557   -2.8811    0.2249    0.0023    0.0005    0.0127
C         6.0835   -4.1199    0.2324   -0.0015    0.0026   -0.0126
H         6.5636   -0.7119    0.1505    0.0017   -0.0040   -0.1299
H         4.1595   -5.1415    0.1810   -0.0055    0.0039    0.1304
H         6.6636   -5.0424    0.2843   -0.0078    0.0041    0.0815
H        -5.2165   -0.0595    0.1415   -0.0060    0.0052   -0.2056
H        -2.8123    4.3701    0.1706    0.0091   -0.0073    0.2050
H        -5.3164    4.2710    0.2739    0.0093   -0.0053    0.1301
H        -6.4984    2.0935    0.2595   -0.0079    0.0041   -0.1325
H         0.3559   -6.2665    0.2241   -0.0028   -0.0128   -0.2868
H        -4.0801   -3.8731    0.2016    0.0120    0.0153    0.2850
H        -3.9765   -6.3769    0.3099    0.0052    0.0125    0.1866
H        -1.7960   -7.5547    0.3185   -0.0023   -0.0110   -0.1869
H         0.9891    5.4946    0.2174    0.0029    0.0131   -0.3024
H         5.4267    3.1042    0.2032   -0.0127   -0.0161    0.2997
H         5.3215    5.6077    0.3106   -0.0059   -0.0133    0.1964
H         3.1404    6.7843    0.3129    0.0030    0.0115   -0.1966
H         7.8456   -2.8649    0.2681    0.0061   -0.0033   -0.0830
    57
stable frequency at    856.050 1/cm IR int. is 1.436 a.m.u.; force const. is 0.620 mDyne/Ang.
Fe        0.6742   -0.3860   -0.2512    0.0002    0.0001    0.0000
N         3.9155    0.5774    0.0034    0.0003    0.0027    0.0010
N         1.6364   -3.6259    0.0222    0.0021    0.0011    0.0011
N        -0.2400   -2.0716   -0.0762   -0.0026   -0.0004    0.0008
N        -1.0127    0.5279   -0.0841   -0.0002    0.0016   -0.0002
N         1.5882    1.2996   -0.0761    0.0010   -0.0005   -0.0008
N         2.3604   -1.2995   -0.0741   -0.0010   -0.0024    0.0005
N        -0.2889    2.8541    0.0151   -0.0017   -0.0008   -0.0054
N        -2.5678   -1.3490   -0.0039    0.0024   -0.0018    0.0033
C        -2.6318    2.2074    0.0858   -0.0025    0.0026   -0.0441
C        -1.2138    1.9066   -0.0003   -0.0017   -0.0001    0.0226
C         1.0023    2.5641    0.0125   -0.0014   -0.0017    0.0120
C         2.0253    3.5896    0.1094    0.0019    0.0009   -0.0241
C        -3.3042    0.9681    0.0767    0.0032   -0.0006    0.0450
C        -2.2782   -0.0563   -0.0113    0.0006   -0.0008   -0.0232
C        -0.6084   -5.7574    0.2030   -0.0028    0.0007   -0.0033
C        -3.1245   -4.3989    0.1900   -0.0004    0.0018    0.0038
C        -1.8131   -6.4652    0.2658   -0.0001   -0.0036   -0.0015
C        -4.7020    0.9019    0.1386   -0.0029    0.0052   -0.0708
C        -3.3382    3.4149    0.1551    0.0037   -0.0022    0.0701
C        -5.4086    2.1097    0.2138   -0.0042    0.0019   -0.0407
C        -3.0555   -5.7944    0.2587    0.0037    0.0023    0.0011
C        -1.6195   -2.2729    0.0041   -0.0015   -0.0033    0.0024
C        -1.9182   -3.6908    0.1037   -0.0012   -0.0010   -0.0038
C         3.2652    2.9200    0.1027   -0.0001   -0.0027    0.0252
C         2.9671    1.5014    0.0066    0.0004    0.0030   -0.0130
C        -4.7364    3.3486    0.2202    0.0035   -0.0047    0.0407
C         3.6255   -0.7151   -0.0006   -0.0025    0.0027    0.0086
C         4.6513   -1.7396    0.0908   -0.0001   -0.0012   -0.0178
C         2.5611   -2.6780    0.0096    0.0036   -0.0015   -0.0079
C         3.9791   -2.9786    0.0994   -0.0003   -0.0007    0.0171
C        -0.6787   -4.3610    0.1117   -0.0006    0.0013    0.0026
C         0.3451   -3.3358    0.0162    0.0016    0.0022   -0.0010
C         1.9538    4.9862    0.1974    0.0007   -0.0028    0.0390
C         4.4707    3.6292    0.1907    0.0024    0.0004   -0.0397
C         3.1581    5.6948    0.2620   -0.0010    0.0019    0.0243
C         4.4009    5.0247    0.2573   -0.0012   -0.0003   -0.0238
C         6.0491   -1.6734    0.1498   -0.0018   -0.0015    0.0265
C         4.6854   -4.1862    0.1668   -0.0009   -0.0026   -0.0259
C         6.7557   -2.8811    0.2249    0.0034    0.0006    0.0148
C         6.0835   -4.1199    0.2324   -0.0015    0.0029   -0.0149
H         6.5636   -0.7119    0.1505    0.0029   -0.0040   -0.1480
H         4.1595   -5.1415    0.1810   -0.0057    0.0024    0.1458
H         6.6636   -5.0424    0.2843   -0.0082    0.0050    0.0936
H        -5.2165   -0.0595    0.1415    0.0222   -0.0074    0.4029
H        -2.8123    4.3701    0.1706   -0.0198    0.0176   -0.4017
H        -5.3164    4.2710    0.2739   -0.0083    0.0057   -0.2598
H        -6.4984    2.0935    0.2595    0.0087   -0.0052    0.2588
H         0.3559   -6.2665    0.2241   -0.0009    0.0051    0.0172
H        -4.0801   -3.8731    0.2016   -0.0026   -0.0019   -0.0179
H        -3.9765   -6.3769    0.3099    0.0018    0.0043   -0.0112
H        -1.7960   -7.5547    0.3185   -0.0019   -0.0029    0.0125
H         0.9891    5.4946    0.2174    0.0023    0.0102   -0.2271
H         5.4267    3.1042    0.2032   -0.0072   -0.0110    0.2266
H         5.3215    5.6077    0.3106   -0.0050   -0.0102    0.1466
H         3.1404    6.7843    0.3129    0.0030    0.0103   -0.1502
H         7.8456   -2.8649    0.2681    0.0078   -0.0047   -0.0949
    57
stable frequency at    856.057 1/cm IR int. is 1.438 a.m.u.; force const. is 0.621 mDyne/Ang.
Fe        0.6742   -0.3860   -0.2512    0.0002   -0.0002   -0.0000
N         3.9155    0.5774    0.0034    0.0018   -0.0008    0.0024
N         1.6364   -3.6259    0.0222   -0.0004   -0.0016    0.0030
N        -0.2400   -2.0716   -0.0762    0.0003    0.0009   -0.0003
N        -1.0127    0.5279   -0.0841   -0.0017   -0.0004   -0.0010
N         1.5882    1.2996   -0.0761   -0.0013    0.0014    0.0003
N         2.3604   -1.2995   -0.0741   -0.0007    0.0014    0.0009
N        -0.2889    2.8541    0.0151    0.0018   -0.0008   -0.0009
N        -2.5678   -1.3490   -0.0039    0.0010    0.0016   -0.0045
C        -2.6318    2.2074    0.0858    0.0011   -0.0014    0.0178
C        -1.2138    1.9066   -0.0003    0.0007   -0.0005   -0.0096
C         1.0023    2.5641    0.0125    0.0009    0.0022    0.0159
C         2.0253    3.5896    0.1094    0.0016    0.0033   -0.0309
C        -3.3042    0.9681    0.0767   -0.0014    0.0003   -0.0164
C        -2.2782   -0.0563   -0.0113   -0.0011    0.0016    0.0082
C        -0.6084   -5.7574    0.2030   -0.0013   -0.0047   -0.0653
C        -3.1245   -4.3989    0.1900    0.0020    0.0025    0.0649
C        -1.8131   -6.4652    0.2658   -0.0015   -0.0010   -0.0387
C        -4.7020    0.9019    0.1386    0.0016   -0.0020    0.0267
C        -3.3382    3.4149    0.1551   -0.0019   -0.0001   -0.0275
C        -5.4086    2.1097    0.2138    0.0028   -0.0007    0.0160
C        -3.0555   -5.7944    0.2587    0.0012    0.0019    0.0391
C        -1.6195   -2.2729    0.0041   -0.0001    0.0015    0.0209
C        -1.9182   -3.6908    0.1037   -0.0013   -0.0043   -0.0416
C         3.2652    2.9200    0.1027   -0.0020   -0.0032    0.0303
C         2.9671    1.5014    0.0066   -0.0010   -0.0016   -0.0153
C        -4.7364    3.3486    0.2202   -0.0017    0.0025   -0.0153
C         3.6255   -0.7151   -0.0006    0.0008   -0.0002   -0.0012
C         4.6513   -1.7396    0.0908    0.0003    0.0005    0.0034
C         2.5611   -2.6780    0.0096   -0.0019    0.0000    0.0026
C         3.9791   -2.9786    0.0994    0.0002    0.0003   -0.0050
C        -0.6787   -4.3610    0.1117    0.0027    0.0032    0.0422
C         0.3451   -3.3358    0.0162   -0.0008   -0.0000   -0.0216
C         1.9538    4.9862    0.1974   -0.0031   -0.0030    0.0466
C         4.4707    3.6292    0.1907    0.0003    0.0032   -0.0461
C         3.1581    5.6948    0.2620   -0.0012   -0.0039    0.0269
C         4.4009    5.0247    0.2573    0.0038    0.0031   -0.0272
C         6.0491   -1.6734    0.1498    0.0009    0.0012   -0.0055
C         4.6854   -4.1862    0.1668    0.0004    0.0005    0.0065
C         6.7557   -2.8811    0.2249   -0.0013   -0.0001   -0.0036
C         6.0835   -4.1199    0.2324    0.0008   -0.0013    0.0030
H         6.5636   -0.7119    0.1505    0.0005    0.0014    0.0322
H         4.1595   -5.1415    0.1810    0.0012   -0.0006   -0.0336
H         6.6636   -5.0424    0.2843    0.0026   -0.0014   -0.0193
H        -5.2165   -0.0595    0.1415   -0.0085    0.0031   -0.1544
H        -2.8123    4.3701    0.1706    0.0082   -0.0084    0.1553
H        -5.3164    4.2710    0.2739    0.0025   -0.0016    0.0979
H        -6.4984    2.0935    0.2595   -0.0022    0.0007   -0.1018
H         0.3559   -6.2665    0.2241    0.0024    0.0196    0.3740
H        -4.0801   -3.8731    0.2016   -0.0153   -0.0200   -0.3711
H        -3.9765   -6.3769    0.3099   -0.0056   -0.0130   -0.2453
H        -1.7960   -7.5547    0.3185    0.0025    0.0128    0.2428
H         0.9891    5.4946    0.2174    0.0009    0.0159   -0.2648
H         5.4267    3.1042    0.2032   -0.0136   -0.0154    0.2616
H         5.3215    5.6077    0.3106   -0.0025   -0.0057    0.1733
H         3.1404    6.7843    0.3129    0.0001    0.0055   -0.1718
H         7.8456   -2.8649    0.2681   -0.0023    0.0007    0.0226
    57
stable frequency at    856.188 1/cm IR int. is 1.438 a.m.u.; force const. is 0.621 mDyne/Ang.
Fe        0.6742   -0.3860   -0.2512    0.0000    0.0001    0.0001
N         3.9155    0.5774    0.0034    0.0011   -0.0033   -0.0051
N         1.6364   -3.6259    0.0222   -0.0055    0.0017    0.0046
N        -0.2400   -2.0716   -0.0762    0.0014   -0.0052   -0.0003
N        -1.0127    0.5279   -0.0841   -0.0047   -0.0036    0.0008
N         1.5882    1.2996   -0.0761   -0.0026    0.0017    0.0004
N         2.3604   -1.2995   -0.0741    0.0042    0.0004   -0.0000
N        -0.2889    2.8541    0.0151    0.0052    0.0020    0.0025
N        -2.5678   -1.3490   -0.0039    0.0009    0.0053   -0.0021
C        -2.6318    2.2074    0.0858    0.0004   -0.0031    0.0087
C        -1.2138    1.9066   -0.0003    0.0055   -0.0006   -0.0058
C         1.0023    2.5641    0.0125    0.0044    0.0049   -0.0076
C         2.0253    3.5896    0.1094   -0.0014    0.0007    0.0146
C        -3.3042    0.9681    0.0767   -0.0033   -0.0003   -0.0093
C        -2.2782   -0.0563   -0.0113   -0.0061    0.0045    0.0058
C        -0.6084   -5.7574    0.2030    0.0027   -0.0003   -0.0178
C        -3.1245   -4.3989    0.1900    0.0052   -0.0028    0.0182
C        -1.8131   -6.4652    0.2658   -0.0005    0.0075   -0.0120
C        -4.7020    0.9019    0.1386    0.0011   -0.0049    0.0141
C        -3.3382    3.4149    0.1551   -0.0043   -0.0041   -0.0138
C        -5.4086    2.1097    0.2138    0.0095   -0.0002    0.0085
C        -3.0555   -5.7944    0.2587   -0.0050   -0.0031    0.0122
C        -1.6195   -2.2729    0.0041    0.0015    0.0046    0.0056
C        -1.9182   -3.6908    0.1037    0.0022   -0.0013   -0.0102
C         3.2652    2.9200    0.1027   -0.0019    0.0015   -0.0145
C         2.9671    1.5014    0.0066   -0.0014   -0.0043    0.0066
C        -4.7364    3.3486    0.2202   -0.0046    0.0067   -0.0080
C         3.6255   -0.7151   -0.0006    0.0035   -0.0027    0.0252
C         4.6513   -1.7396    0.0908    0.0044   -0.0008   -0.0479
C         2.5611   -2.6780    0.0096   -0.0022   -0.0009   -0.0244
C         3.9791   -2.9786    0.0994   -0.0019    0.0038    0.0474
C        -0.6787   -4.3610    0.1117    0.0010   -0.0016    0.0093
C         0.3451   -3.3358    0.0162   -0.0045   -0.0056   -0.0035
C         1.9538    4.9862    0.1974   -0.0025    0.0015   -0.0247
C         4.4707    3.6292    0.1907   -0.0043    0.0022    0.0246
C         3.1581    5.6948    0.2620    0.0006   -0.0064   -0.0155
C         4.4009    5.0247    0.2573    0.0047    0.0025    0.0165
C         6.0491   -1.6734    0.1498   -0.0045    0.0059    0.0773
C         4.6854   -4.1862    0.1668    0.0052    0.0009   -0.0771
C         6.7557   -2.8811    0.2249   -0.0081    0.0019    0.0451
C         6.0835   -4.1199    0.2324    0.0046   -0.0061   -0.0442
H         6.5636   -0.7119    0.1505    0.0235   -0.0095   -0.4450
H         4.1595   -5.1415    0.1810   -0.0234    0.0237    0.4399
H         6.6636   -5.0424    0.2843   -0.0079    0.0049    0.2801
H        -5.2165   -0.0595    0.1415   -0.0093    0.0008   -0.0840
H        -2.8123    4.3701    0.1706    0.0066   -0.0115    0.0785
H        -5.3164    4.2710    0.2739   -0.0051    0.0028    0.0499
H        -6.4984    2.0935    0.2595    0.0069   -0.0038   -0.0578
H         0.3559   -6.2665    0.2241    0.0013    0.0025    0.1051
H        -4.0801   -3.8731    0.2016    0.0038   -0.0027   -0.1094
H        -3.9765   -6.3769    0.3099   -0.0058   -0.0093   -0.0729
H        -1.7960   -7.5547    0.3185    0.0064    0.0116    0.0668
H         0.9891    5.4946    0.2174   -0.0015   -0.0032    0.1431
H         5.4267    3.1042    0.2032   -0.0004    0.0055   -0.1469
H         5.3215    5.6077    0.3106    0.0063    0.0106   -0.1003
H         3.1404    6.7843    0.3129   -0.0061   -0.0115    0.0891
H         7.8456   -2.8649    0.2681    0.0052   -0.0035   -0.2892
    57
stable frequency at    903.235 1/cm IR int. is 9.388 a.m.u.; force const. is 4.513 mDyne/Ang.
Fe        0.6742   -0.3860   -0.2512   -0.0086   -0.0112   -0.0000
N         3.9155    0.5774    0.0034   -0.0627   -0.0338   -0.0026
N         1.6364   -3.6259    0.0222   -0.0057   -0.0536    0.0024
N        -0.2400   -2.0716   -0.0762    0.0336    0.0427   -0.0092
N        -1.0127    0.5279   -0.0841    0.0333    0.0433   -0.0010
N         1.5882    1.2996   -0.0761    0.0332    0.0431    0.0092
N         2.3604   -1.2995   -0.0741    0.0333    0.0432    0.0013
N        -0.2889    2.8541    0.0151   -0.0055   -0.0540   -0.0023
N        -2.5678   -1.3490   -0.0039   -0.0629   -0.0338    0.0026
C        -2.6318    2.2074    0.0858   -0.0271    0.0131    0.0040
C        -1.2138    1.9066   -0.0003   -0.0558    0.0452    0.0038
C         1.0023    2.5641    0.0125    0.0020   -0.0078   -0.0030
C         2.0253    3.5896    0.1094   -0.0019   -0.0016   -0.0008
C        -3.3042    0.9681    0.0767    0.0271   -0.0158   -0.0026
C        -2.2782   -0.0563   -0.0113    0.0693   -0.0237   -0.0036
C        -0.6084   -5.7574    0.2030    0.0136   -0.0105   -0.0006
C        -3.1245   -4.3989    0.1900   -0.0086   -0.0031    0.0008
C        -1.8131   -6.4652    0.2658    0.0014    0.0043   -0.0001
C        -4.7020    0.9019    0.1386    0.0034    0.0325   -0.0016
C        -3.3382    3.4149    0.1551    0.0252    0.0239   -0.0026
C        -5.4086    2.1097    0.2138   -0.0621    0.0035    0.0037
C        -3.0555   -5.7944    0.2587   -0.0142   -0.0088    0.0014
C        -1.6195   -2.2729    0.0041    0.0074    0.0165    0.0021
C        -1.9182   -3.6908    0.1037    0.0044    0.0066   -0.0011
C         3.2652    2.9200    0.1027    0.0043    0.0065    0.0010
C         2.9671    1.5014    0.0066    0.0074    0.0164   -0.0021
C        -4.7364    3.3486    0.2202    0.0361   -0.0490   -0.0019
C         3.6255   -0.7151   -0.0006    0.0693   -0.0238    0.0036
C         4.6513   -1.7396    0.0908    0.0270   -0.0157    0.0028
C         2.5611   -2.6780    0.0096   -0.0556    0.0451   -0.0050
C         3.9791   -2.9786    0.0994   -0.0271    0.0132   -0.0020
C        -0.6787   -4.3610    0.1117   -0.0019   -0.0016    0.0008
C         0.3451   -3.3358    0.0162    0.0019   -0.0079    0.0031
C         1.9538    4.9862    0.1974    0.0135   -0.0105    0.0006
C         4.4707    3.6292    0.1907   -0.0087   -0.0031   -0.0005
C         3.1581    5.6948    0.2620    0.0014    0.0041   -0.0001
C         4.4009    5.0247    0.2573   -0.0142   -0.0087   -0.0012
C         6.0491   -1.6734    0.1498    0.0033    0.0323    0.0013
C         4.6854   -4.1862    0.1668    0.0256    0.0238   -0.0037
C         6.7557   -2.8811    0.2249   -0.0622    0.0034   -0.0036
C         6.0835   -4.1199    0.2324    0.0359   -0.0487    0.0050
H         6.5636   -0.7119    0.1505    0.0241    0.0200   -0.0134
H         4.1595   -5.1415    0.1810    0.0003    0.0369    0.0232
H         6.6636   -5.0424    0.2843    0.0688   -0.0281    0.0019
H        -5.2165   -0.0595    0.1415    0.0238    0.0204    0.0134
H        -2.8123    4.3701    0.1706    0.0014    0.0356    0.0128
H        -5.3164    4.2710    0.2739    0.0687   -0.0278   -0.0110
H        -6.4984    2.0935    0.2595   -0.0629    0.0466    0.0040
H         0.3559   -6.2665    0.2241    0.0094   -0.0186    0.0060
H        -4.0801   -3.8731    0.2016   -0.0100   -0.0044   -0.0023
H        -3.9765   -6.3769    0.3099   -0.0072   -0.0210   -0.0007
H        -1.7960   -7.5547    0.3185    0.0009    0.0037   -0.0015
H         0.9891    5.4946    0.2174    0.0094   -0.0186   -0.0053
H         5.4267    3.1042    0.2032   -0.0101   -0.0044   -0.0001
H         5.3215    5.6077    0.3106   -0.0072   -0.0208    0.0009
H         3.1404    6.7843    0.3129    0.0007    0.0035    0.0022
H         7.8456   -2.8649    0.2681   -0.0631    0.0465   -0.0030
    57
stable frequency at    903.689 1/cm IR int. is 9.390 a.m.u.; force const. is 4.518 mDyne/Ang.
Fe        0.6742   -0.3860   -0.2512    0.0112   -0.0087    0.0000
N         3.9155    0.5774    0.0034    0.0536   -0.0052    0.0017
N         1.6364   -3.6259    0.0222    0.0334   -0.0627    0.0033
N        -0.2400   -2.0716   -0.0762   -0.0430    0.0333   -0.0016
N        -1.0127    0.5279   -0.0841   -0.0428    0.0334    0.0090
N         1.5882    1.2996   -0.0761   -0.0431    0.0333    0.0011
N         2.3604   -1.2995   -0.0741   -0.0427    0.0334   -0.0089
N        -0.2889    2.8541    0.0151    0.0338   -0.0627   -0.0032
N        -2.5678   -1.3490   -0.0039    0.0537   -0.0055   -0.0016
C        -2.6318    2.2074    0.0858   -0.0067    0.0043    0.0004
C        -1.2138    1.9066   -0.0003   -0.0162    0.0075   -0.0017
C         1.0023    2.5641    0.0125    0.0241    0.0693    0.0039
C         2.0253    3.5896    0.1094    0.0160    0.0269    0.0039
C        -3.3042    0.9681    0.0767    0.0015   -0.0018   -0.0010
C        -2.2782   -0.0563   -0.0113    0.0078    0.0018   -0.0029
C        -0.6084   -5.7574    0.2030   -0.0326    0.0031   -0.0006
C        -3.1245   -4.3989    0.1900   -0.0244    0.0253   -0.0045
C        -1.8131   -6.4652    0.2658   -0.0031   -0.0622    0.0057
C        -4.7020    0.9019    0.1386    0.0106    0.0135    0.0011
C        -3.3382    3.4149    0.1551    0.0030   -0.0087    0.0002
C        -5.4086    2.1097    0.2138   -0.0041    0.0014   -0.0004
C        -3.0555   -5.7944    0.2587    0.0488    0.0360   -0.0029
C        -1.6195   -2.2729    0.0041   -0.0450   -0.0559    0.0034
C        -1.9182   -3.6908    0.1037   -0.0129   -0.0268    0.0056
C         3.2652    2.9200    0.1027   -0.0130   -0.0270   -0.0057
C         2.9671    1.5014    0.0066   -0.0453   -0.0557   -0.0032
C        -4.7364    3.3486    0.2202    0.0087   -0.0141   -0.0014
C         3.6255   -0.7151   -0.0006    0.0078    0.0021    0.0028
C         4.6513   -1.7396    0.0908    0.0017   -0.0019    0.0011
C         2.5611   -2.6780    0.0096   -0.0164    0.0072    0.0012
C         3.9791   -2.9786    0.0994   -0.0066    0.0042    0.0004
C        -0.6787   -4.3610    0.1117    0.0161    0.0271   -0.0041
C         0.3451   -3.3358    0.0162    0.0239    0.0694   -0.0038
C         1.9538    4.9862    0.1974   -0.0325    0.0031    0.0005
C         4.4707    3.6292    0.1907   -0.0244    0.0254    0.0046
C         3.1581    5.6948    0.2620   -0.0032   -0.0621   -0.0056
C         4.4009    5.0247    0.2573    0.0489    0.0360    0.0031
C         6.0491   -1.6734    0.1498    0.0105    0.0135   -0.0009
C         4.6854   -4.1862    0.1668    0.0030   -0.0088   -0.0026
C         6.7557   -2.8811    0.2249   -0.0042    0.0013    0.0004
C         6.0835   -4.1199    0.2324    0.0088   -0.0139    0.0024
H         6.5636   -0.7119    0.1505    0.0191    0.0092    0.0039
H         4.1595   -5.1415    0.1810    0.0036   -0.0096    0.0163
H         6.6636   -5.0424    0.2843    0.0213   -0.0069   -0.0035
H        -5.2165   -0.0595    0.1415    0.0189    0.0093   -0.0054
H        -2.8123    4.3701    0.1706    0.0045   -0.0102   -0.0022
H        -5.3164    4.2710    0.2739    0.0210   -0.0071    0.0016
H        -6.4984    2.0935    0.2595   -0.0034    0.0007    0.0036
H         0.3559   -6.2665    0.2241   -0.0211    0.0229    0.0062
H        -4.0801   -3.8731    0.2016   -0.0354    0.0026    0.0212
H        -3.9765   -6.3769    0.3099    0.0281    0.0683   -0.0038
H        -1.7960   -7.5547    0.3185   -0.0459   -0.0636   -0.0054
H         0.9891    5.4946    0.2174   -0.0210    0.0229   -0.0059
H         5.4267    3.1042    0.2032   -0.0354    0.0028   -0.0220
H         5.3215    5.6077    0.3106    0.0284    0.0679    0.0041
H         3.1404    6.7843    0.3129   -0.0463   -0.0635    0.0047
H         7.8456   -2.8649    0.2681   -0.0035    0.0005   -0.0029
    57
stable frequency at    930.383 1/cm IR int. is 1.401 a.m.u.; force const. is 0.715 mDyne/Ang.
Fe        0.6742   -0.3860   -0.2512   -0.0002   -0.0003    0.0000
N         3.9155    0.5774    0.0034   -0.0070   -0.0022   -0.0002
N         1.6364   -3.6259    0.0222    0.0015   -0.0067    0.0005
N        -0.2400   -2.0716   -0.0762   -0.0029    0.0025    0.0018
N        -1.0127    0.5279   -0.0841   -0.0015   -0.0023   -0.0042
N         1.5882    1.2996   -0.0761    0.0039   -0.0010    0.0026
N         2.3604   -1.2995   -0.0741    0.0026    0.0038   -0.0016
N        -0.2889    2.8541    0.0151   -0.0018    0.0048   -0.0004
N        -2.5678   -1.3490   -0.0039    0.0047    0.0010   -0.0008
C        -2.6318    2.2074    0.0858    0.0015    0.0005   -0.0175
C        -1.2138    1.9066   -0.0003    0.0029   -0.0018    0.0096
C         1.0023    2.5641    0.0125   -0.0014   -0.0040   -0.0055
C         2.0253    3.5896    0.1094   -0.0026   -0.0026    0.0091
C        -3.3042    0.9681    0.0767   -0.0025    0.0025   -0.0180
C        -2.2782   -0.0563   -0.0113   -0.0023    0.0010    0.0101
C        -0.6084   -5.7574    0.2030   -0.0022   -0.0014   -0.0381
C        -3.1245   -4.3989    0.1900   -0.0032   -0.0006   -0.0383
C        -1.8131   -6.4652    0.2658   -0.0001   -0.0019    0.0260
C        -4.7020    0.9019    0.1386    0.0024   -0.0031    0.0667
C        -3.3382    3.4149    0.1551    0.0025   -0.0036    0.0670
C        -5.4086    2.1097    0.2138   -0.0003    0.0006   -0.0448
C        -3.0555   -5.7944    0.2587    0.0030    0.0028    0.0256
C        -1.6195   -2.2729    0.0041   -0.0025   -0.0038   -0.0053
C        -1.9182   -3.6908    0.1037   -0.0000   -0.0021    0.0105
C         3.2652    2.9200    0.1027    0.0002    0.0024    0.0096
C         2.9671    1.5014    0.0066    0.0030    0.0044   -0.0051
C        -4.7364    3.3486    0.2202   -0.0030    0.0027   -0.0453
C         3.6255   -0.7151   -0.0006    0.0056   -0.0019    0.0045
C         4.6513   -1.7396    0.0908    0.0030   -0.0027   -0.0074
C         2.5611   -2.6780    0.0096   -0.0049    0.0036    0.0041
C         3.9791   -2.9786    0.0994   -0.0028    0.0004   -0.0082
C        -0.6787   -4.3610    0.1117    0.0024    0.0025    0.0100
C         0.3451   -3.3358    0.0162    0.0015    0.0035   -0.0057
C         1.9538    4.9862    0.1974    0.0027    0.0010   -0.0353
C         4.4707    3.6292    0.1907    0.0029    0.0003   -0.0353
C         3.1581    5.6948    0.2620    0.0001    0.0023    0.0247
C         4.4009    5.0247    0.2573   -0.0035   -0.0030    0.0231
C         6.0491   -1.6734    0.1498   -0.0006    0.0034    0.0290
C         4.6854   -4.1862    0.1668    0.0004    0.0032    0.0288
C         6.7557   -2.8811    0.2249   -0.0037   -0.0001   -0.0197
C         6.0835   -4.1199    0.2324    0.0035   -0.0040   -0.0192
H         6.5636   -0.7119    0.1505    0.0090   -0.0020   -0.1562
H         4.1595   -5.1415    0.1810    0.0080   -0.0035   -0.1555
H         6.6636   -5.0424    0.2843   -0.0003    0.0010    0.1074
H        -5.2165   -0.0595    0.1415   -0.0191    0.0077   -0.3583
H        -2.8123    4.3701    0.1706   -0.0169    0.0135   -0.3619
H        -5.3164    4.2710    0.2739    0.0103   -0.0066    0.2499
H        -6.4984    2.0935    0.2595    0.0122   -0.0104    0.2445
H         0.3559   -6.2665    0.2241    0.0013    0.0146    0.2053
H        -4.0801   -3.8731    0.2016    0.0070    0.0128    0.2053
H        -3.9765   -6.3769    0.3099   -0.0020   -0.0045   -0.1428
H        -1.7960   -7.5547    0.3185   -0.0054   -0.0103   -0.1430
H         0.9891    5.4946    0.2174   -0.0010   -0.0140    0.1896
H         5.4267    3.1042    0.2032   -0.0066   -0.0120    0.1900
H         5.3215    5.6077    0.3106    0.0020    0.0027   -0.1298
H         3.1404    6.7843    0.3129    0.0056    0.0100   -0.1356
H         7.8456   -2.8649    0.2681   -0.0089    0.0071    0.1059
    57
stable frequency at    930.753 1/cm IR int. is 1.393 a.m.u.; force const. is 0.711 mDyne/Ang.
Fe        0.6742   -0.3860   -0.2512    0.0001   -0.0002    0.0001
N         3.9155    0.5774    0.0034   -0.0014    0.0002   -0.0012
N         1.6364   -3.6259    0.0222    0.0009   -0.0021   -0.0006
N        -0.2400   -2.0716   -0.0762   -0.0018   -0.0003    0.0012
N        -1.0127    0.5279   -0.0841   -0.0021   -0.0017    0.0042
N         1.5882    1.2996   -0.0761    0.0009   -0.0002    0.0014
N         2.3604   -1.2995   -0.0741    0.0006   -0.0001   -0.0047
N        -0.2889    2.8541    0.0151    0.0006    0.0015    0.0014
N        -2.5678   -1.3490   -0.0039    0.0031    0.0014    0.0015
C        -2.6318    2.2074    0.0858    0.0004   -0.0009    0.0139
C        -1.2138    1.9066   -0.0003    0.0006    0.0002   -0.0081
C         1.0023    2.5641    0.0125    0.0004    0.0004   -0.0018
C         2.0253    3.5896    0.1094   -0.0001   -0.0004    0.0028
C        -3.3042    0.9681    0.0767   -0.0002   -0.0001    0.0129
C        -2.2782   -0.0563   -0.0113   -0.0021    0.0011   -0.0073
C        -0.6084   -5.7574    0.2030   -0.0012   -0.0011   -0.0293
C        -3.1245   -4.3989    0.1900   -0.0019   -0.0007   -0.0289
C        -1.8131   -6.4652    0.2658   -0.0000   -0.0008    0.0209
C        -4.7020    0.9019    0.1386   -0.0019    0.0010   -0.0514
C        -3.3382    3.4149    0.1551   -0.0035    0.0007   -0.0514
C        -5.4086    2.1097    0.2138    0.0042   -0.0005    0.0344
C        -3.0555   -5.7944    0.2587    0.0016    0.0016    0.0182
C        -1.6195   -2.2729    0.0041   -0.0022   -0.0022   -0.0040
C        -1.9182   -3.6908    0.1037   -0.0000   -0.0011    0.0080
C         3.2652    2.9200    0.1027   -0.0002    0.0004    0.0026
C         2.9671    1.5014    0.0066    0.0001    0.0012   -0.0014
C        -4.7364    3.3486    0.2202    0.0007   -0.0002    0.0350
C         3.6255   -0.7151   -0.0006    0.0017   -0.0000    0.0098
C         4.6513   -1.7396    0.0908    0.0020   -0.0020   -0.0170
C         2.5611   -2.6780    0.0096   -0.0018    0.0012    0.0104
C         3.9791   -2.9786    0.0994   -0.0006   -0.0009   -0.0182
C        -0.6787   -4.3610    0.1117    0.0017    0.0015    0.0075
C         0.3451   -3.3358    0.0162    0.0007    0.0019   -0.0039
C         1.9538    4.9862    0.1974    0.0008    0.0001   -0.0104
C         4.4707    3.6292    0.1907    0.0000    0.0007   -0.0109
C         3.1581    5.6948    0.2620   -0.0001   -0.0006    0.0063
C         4.4009    5.0247    0.2573   -0.0007   -0.0007    0.0082
C         6.0491   -1.6734    0.1498   -0.0025    0.0025    0.0666
C         4.6854   -4.1862    0.1668   -0.0032    0.0031    0.0668
C         6.7557   -2.8811    0.2249    0.0014   -0.0008   -0.0447
C         6.0835   -4.1199    0.2324    0.0024   -0.0018   -0.0452
H         6.5636   -0.7119    0.1505    0.0174   -0.0084   -0.3588
H         4.1595   -5.1415    0.1810    0.0158   -0.0130   -0.3611
H         6.6636   -5.0424    0.2843   -0.0112    0.0069    0.2493
H        -5.2165   -0.0595    0.1415    0.0139   -0.0067    0.2761
H        -2.8123    4.3701    0.1706    0.0116   -0.0126    0.2773
H        -5.3164    4.2710    0.2739   -0.0109    0.0061   -0.1943
H        -6.4984    2.0935    0.2595   -0.0053    0.0061   -0.1902
H         0.3559   -6.2665    0.2241    0.0016    0.0116    0.1567
H        -4.0801   -3.8731    0.2016    0.0061    0.0100    0.1555
H        -3.9765   -6.3769    0.3099   -0.0022   -0.0032   -0.1021
H        -1.7960   -7.5547    0.3185   -0.0034   -0.0074   -0.1155
H         0.9891    5.4946    0.2174    0.0002   -0.0037    0.0566
H         5.4267    3.1042    0.2032   -0.0030   -0.0031    0.0576
H         5.3215    5.6077    0.3106    0.0009    0.0017   -0.0466
H         3.1404    6.7843    0.3129    0.0003    0.0014   -0.0366
H         7.8456   -2.8649    0.2681   -0.0105    0.0101    0.2438
    57
stable frequency at    931.191 1/cm IR int. is 1.390 a.m.u.; force const. is 0.710 mDyne/Ang.
Fe        0.6742   -0.3860   -0.2512   -0.0003    0.0004   -0.0000
N         3.9155    0.5774    0.0034   -0.0013    0.0006   -0.0012
N         1.6364   -3.6259    0.0222   -0.0016    0.0025    0.0012
N        -0.2400   -2.0716   -0.0762    0.0019   -0.0014    0.0040
N        -1.0127    0.5279   -0.0841    0.0016   -0.0009   -0.0008
N         1.5882    1.2996   -0.0761    0.0016   -0.0014   -0.0047
N         2.3604   -1.2995   -0.0741    0.0012   -0.0012    0.0008
N        -0.2889    2.8541    0.0151   -0.0016    0.0019   -0.0014
N        -2.5678   -1.3490   -0.0039   -0.0020    0.0004    0.0011
C        -2.6318    2.2074    0.0858    0.0002   -0.0001   -0.0018
C        -1.2138    1.9066   -0.0003    0.0003   -0.0007    0.0012
C         1.0023    2.5641    0.0125   -0.0010   -0.0028    0.0100
C         2.0253    3.5896    0.1094    0.0008    0.0004   -0.0179
C        -3.3042    0.9681    0.0767   -0.0001    0.0004   -0.0019
C        -2.2782   -0.0563   -0.0113   -0.0003    0.0002    0.0011
C        -0.6084   -5.7574    0.2030    0.0009   -0.0029   -0.0571
C        -3.1245   -4.3989    0.1900   -0.0013   -0.0036   -0.0570
C        -1.8131   -6.4652    0.2658    0.0002    0.0045    0.0385
C        -4.7020    0.9019    0.1386    0.0001   -0.0004    0.0073
C        -3.3382    3.4149    0.1551    0.0003   -0.0002    0.0069
C        -5.4086    2.1097    0.2138   -0.0001    0.0001   -0.0058
C        -3.0555   -5.7944    0.2587   -0.0013   -0.0002    0.0383
C        -1.6195   -2.2729    0.0041    0.0014    0.0016   -0.0086
C        -1.9182   -3.6908    0.1037    0.0011    0.0014    0.0150
C         3.2652    2.9200    0.1027    0.0012    0.0012   -0.0179
C         2.9671    1.5014    0.0066    0.0010    0.0011    0.0102
C        -4.7364    3.3486    0.2202   -0.0003    0.0004   -0.0037
C         3.6255   -0.7151   -0.0006   -0.0009    0.0003   -0.0013
C         4.6513   -1.7396    0.0908   -0.0005    0.0007    0.0022
C         2.5611   -2.6780    0.0096    0.0007   -0.0008   -0.0014
C         3.9791   -2.9786    0.0994    0.0004   -0.0002    0.0022
C        -0.6787   -4.3610    0.1117    0.0004   -0.0000    0.0150
C         0.3451   -3.3358    0.0162   -0.0011   -0.0030   -0.0084
C         1.9538    4.9862    0.1974    0.0005   -0.0033    0.0681
C         4.4707    3.6292    0.1907   -0.0019   -0.0041    0.0681
C         3.1581    5.6948    0.2620    0.0003    0.0046   -0.0460
C         4.4009    5.0247    0.2573   -0.0008    0.0002   -0.0457
C         6.0491   -1.6734    0.1498    0.0002   -0.0006   -0.0088
C         4.6854   -4.1862    0.1668    0.0002   -0.0005   -0.0079
C         6.7557   -2.8811    0.2249    0.0004    0.0001    0.0070
C         6.0835   -4.1199    0.2324   -0.0006    0.0007    0.0044
H         6.5636   -0.7119    0.1505   -0.0029    0.0010    0.0465
H         4.1595   -5.1415    0.1810   -0.0022    0.0015    0.0435
H         6.6636   -5.0424    0.2843    0.0002   -0.0006   -0.0250
H        -5.2165   -0.0595    0.1415   -0.0025    0.0009   -0.0385
H        -2.8123    4.3701    0.1706   -0.0019    0.0017   -0.0381
H        -5.3164    4.2710    0.2739    0.0004   -0.0006    0.0210
H        -6.4984    2.0935    0.2595    0.0015   -0.0013    0.0317
H         0.3559   -6.2665    0.2241    0.0056    0.0206    0.3096
H        -4.0801   -3.8731    0.2016    0.0147    0.0182    0.3083
H        -3.9765   -6.3769    0.3099   -0.0065   -0.0145   -0.2101
H        -1.7960   -7.5547    0.3185   -0.0035   -0.0079   -0.2140
H         0.9891    5.4946    0.2174    0.0065    0.0243   -0.3689
H         5.4267    3.1042    0.2032    0.0174    0.0215   -0.3680
H         5.3215    5.6077    0.3106   -0.0081   -0.0161    0.2513
H         3.1404    6.7843    0.3129   -0.0050   -0.0098    0.2551
H         7.8456   -2.8649    0.2681    0.0022   -0.0019   -0.0380
    57
stable frequency at    932.036 1/cm IR int. is 1.389 a.m.u.; force const. is 0.711 mDyne/Ang.
Fe        0.6742   -0.3860   -0.2512   -0.0000   -0.0003    0.0002
N         3.9155    0.5774    0.0034    0.0003    0.0008   -0.0019
N         1.6364   -3.6259    0.0222    0.0007   -0.0002   -0.0020
N        -0.2400   -2.0716   -0.0762   -0.0003    0.0004   -0.0040
N        -1.0127    0.5279   -0.0841    0.0000    0.0014   -0.0018
N         1.5882    1.2996   -0.0761    0.0002    0.0007   -0.0025
N         2.3604   -1.2995   -0.0741   -0.0003   -0.0008   -0.0037
N        -0.2889    2.8541    0.0151    0.0001   -0.0018   -0.0016
N        -2.5678   -1.3490   -0.0039   -0.0008   -0.0011   -0.0015
C        -2.6318    2.2074    0.0858   -0.0014    0.0008   -0.0074
C        -1.2138    1.9066   -0.0003   -0.0020    0.0014    0.0042
C         1.0023    2.5641    0.0125    0.0002    0.0006    0.0064
C         2.0253    3.5896    0.1094    0.0013    0.0010   -0.0118
C        -3.3042    0.9681    0.0767    0.0002   -0.0001   -0.0084
C        -2.2782   -0.0563   -0.0113    0.0021   -0.0009    0.0044
C        -0.6084   -5.7574    0.2030   -0.0001    0.0025    0.0494
C        -3.1245   -4.3989    0.1900    0.0017    0.0025    0.0495
C        -1.8131   -6.4652    0.2658   -0.0001   -0.0024   -0.0332
C        -4.7020    0.9019    0.1386    0.0017    0.0006    0.0298
C        -3.3382    3.4149    0.1551    0.0022   -0.0005    0.0299
C        -5.4086    2.1097    0.2138   -0.0028    0.0005   -0.0195
C        -3.0555   -5.7944    0.2587    0.0002   -0.0006   -0.0330
C        -1.6195   -2.2729    0.0041    0.0000   -0.0001    0.0075
C        -1.9182   -3.6908    0.1037   -0.0007   -0.0004   -0.0130
C         3.2652    2.9200    0.1027    0.0005    0.0000   -0.0121
C         2.9671    1.5014    0.0066   -0.0008   -0.0001    0.0065
C        -4.7364    3.3486    0.2202    0.0006   -0.0015   -0.0202
C         3.6255   -0.7151   -0.0006    0.0002    0.0007    0.0075
C         4.6513   -1.7396    0.0908    0.0010   -0.0011   -0.0133
C         2.5611   -2.6780    0.0096    0.0000    0.0006    0.0079
C         3.9791   -2.9786    0.0994    0.0004   -0.0008   -0.0139
C        -0.6787   -4.3610    0.1117   -0.0010   -0.0007   -0.0130
C         0.3451   -3.3358    0.0162    0.0005    0.0007    0.0074
C         1.9538    4.9862    0.1974    0.0000   -0.0024    0.0449
C         4.4707    3.6292    0.1907   -0.0023   -0.0018    0.0448
C         3.1581    5.6948    0.2620    0.0001    0.0011   -0.0305
C         4.4009    5.0247    0.2573    0.0003    0.0008   -0.0294
C         6.0491   -1.6734    0.1498   -0.0023    0.0011    0.0527
C         4.6854   -4.1862    0.1668   -0.0028    0.0017    0.0509
C         6.7557   -2.8811    0.2249    0.0022   -0.0007   -0.0358
C         6.0835   -4.1199    0.2324    0.0010   -0.0002   -0.0338
H         6.5636   -0.7119    0.1505    0.0138   -0.0078   -0.2868
H         4.1595   -5.1415    0.1810    0.0127   -0.0111   -0.2771
H         6.6636   -5.0424    0.2843   -0.0096    0.0059    0.1861
H        -5.2165   -0.0595    0.1415   -0.0076    0.0053   -0.1626
H        -2.8123    4.3701    0.1706   -0.0077    0.0078   -0.1643
H        -5.3164    4.2710    0.2739    0.0079   -0.0046    0.1083
H        -6.4984    2.0935    0.2595    0.0027   -0.0025    0.1058
H         0.3559   -6.2665    0.2241   -0.0046   -0.0185   -0.2706
H        -4.0801   -3.8731    0.2016   -0.0124   -0.0168   -0.2699
H        -3.9765   -6.3769    0.3099    0.0049    0.0111    0.1792
H        -1.7960   -7.5547    0.3185    0.0041    0.0083    0.1819
H         0.9891    5.4946    0.2174    0.0044    0.0165   -0.2456
H         5.4267    3.1042    0.2032    0.0106    0.0153   -0.2447
H         5.3215    5.6077    0.3106   -0.0046   -0.0093    0.1598
H         3.1404    6.7843    0.3129   -0.0049   -0.0084    0.1656
H         7.8456   -2.8649    0.2681   -0.0073    0.0072    0.1945
    57
stable frequency at    939.358 1/cm IR int. is 9.601 a.m.u.; force const. is 4.991 mDyne/Ang.
Fe        0.6742   -0.3860   -0.2512    0.0000   -0.0000   -0.0000
N         3.9155    0.5774    0.0034    0.0708    0.0210    0.0030
N         1.6364   -3.6259    0.0222   -0.0210    0.0708   -0.0037
N        -0.2400   -2.0716   -0.0762    0.0439   -0.0238    0.0004
N        -1.0127    0.5279   -0.0841    0.0236    0.0438   -0.0000
N         1.5882    1.2996   -0.0761   -0.0439    0.0238    0.0002
N         2.3604   -1.2995   -0.0741   -0.0236   -0.0438   -0.0000
N        -0.2889    2.8541    0.0151    0.0210   -0.0707   -0.0036
N        -2.5678   -1.3490   -0.0039   -0.0707   -0.0210    0.0030
C        -2.6318    2.2074    0.0858   -0.0284    0.0064    0.0005
C        -1.2138    1.9066   -0.0003   -0.0399    0.0299    0.0031
C         1.0023    2.5641    0.0125    0.0173    0.0470    0.0022
C         2.0253    3.5896    0.1094    0.0204    0.0209    0.0031
C        -3.3042    0.9681    0.0767    0.0208   -0.0203   -0.0024
C        -2.2782   -0.0563   -0.0113    0.0468   -0.0171   -0.0018
C        -0.6084   -5.7574    0.2030    0.0223   -0.0057   -0.0050
C        -3.1245   -4.3989    0.1900    0.0164   -0.0155   -0.0032
C        -1.8131   -6.4652    0.2658    0.0026    0.0394    0.0004
C        -4.7020    0.9019    0.1386    0.0058    0.0220    0.0044
C        -3.3382    3.4149    0.1551    0.0152    0.0162    0.0031
C        -5.4086    2.1097    0.2138   -0.0392    0.0028   -0.0016
C        -3.0555   -5.7944    0.2587   -0.0322   -0.0238    0.0056
C        -1.6195   -2.2729    0.0041    0.0299    0.0401   -0.0030
C        -1.9182   -3.6908    0.1037    0.0064    0.0284   -0.0012
C         3.2652    2.9200    0.1027   -0.0064   -0.0284   -0.0013
C         2.9671    1.5014    0.0066   -0.0300   -0.0401   -0.0028
C        -4.7364    3.3486    0.2202    0.0238   -0.0321   -0.0041
C         3.6255   -0.7151   -0.0006   -0.0469    0.0171   -0.0019
C         4.6513   -1.7396    0.0908   -0.0209    0.0203   -0.0024
C         2.5611   -2.6780    0.0096    0.0399   -0.0300    0.0032
C         3.9791   -2.9786    0.0994    0.0284   -0.0064    0.0004
C        -0.6787   -4.3610    0.1117   -0.0203   -0.0209    0.0032
C         0.3451   -3.3358    0.0162   -0.0174   -0.0469    0.0021
C         1.9538    4.9862    0.1974   -0.0223    0.0057   -0.0048
C         4.4707    3.6292    0.1907   -0.0165    0.0155   -0.0030
C         3.1581    5.6948    0.2620   -0.0026   -0.0395    0.0003
C         4.4009    5.0247    0.2573    0.0322    0.0238    0.0055
C         6.0491   -1.6734    0.1498   -0.0058   -0.0220    0.0044
C         4.6854   -4.1862    0.1668   -0.0153   -0.0162    0.0032
C         6.7557   -2.8811    0.2249    0.0393   -0.0028   -0.0016
C         6.0835   -4.1199    0.2324   -0.0238    0.0321   -0.0041
H         6.5636   -0.7119    0.1505   -0.0065   -0.0210   -0.0210
H         4.1595   -5.1415    0.1810   -0.0090   -0.0191   -0.0173
H         6.6636   -5.0424    0.2843   -0.0451    0.0195    0.0086
H        -5.2165   -0.0595    0.1415    0.0064    0.0210   -0.0214
H        -2.8123    4.3701    0.1706    0.0090    0.0191   -0.0170
H        -5.3164    4.2710    0.2739    0.0451   -0.0194    0.0083
H        -6.4984    2.0935    0.2595   -0.0386    0.0283    0.0236
H         0.3559   -6.2665    0.2241    0.0211   -0.0055    0.0261
H        -4.0801   -3.8731    0.2016    0.0195   -0.0090    0.0186
H        -3.9765   -6.3769    0.3099   -0.0199   -0.0453   -0.0174
H        -1.7960   -7.5547    0.3185    0.0282    0.0390   -0.0184
H         0.9891    5.4946    0.2174   -0.0211    0.0056    0.0248
H         5.4267    3.1042    0.2032   -0.0195    0.0090    0.0170
H         5.3215    5.6077    0.3106    0.0199    0.0453   -0.0163
H         3.1404    6.7843    0.3129   -0.0282   -0.0391   -0.0181
H         7.8456   -2.8649    0.2681    0.0388   -0.0283    0.0233
    57
stable frequency at    957.884 1/cm IR int. is 1.303 a.m.u.; force const. is 0.705 mDyne/Ang.
Fe        0.6742   -0.3860   -0.2512    0.0000    0.0001   -0.0000
N         3.9155    0.5774    0.0034   -0.0001   -0.0002    0.0002
N         1.6364   -3.6259    0.0222    0.0001   -0.0004   -0.0002
N        -0.2400   -2.0716   -0.0762    0.0002    0.0009    0.0002
N        -1.0127    0.5279   -0.0841    0.0006   -0.0009   -0.0002
N         1.5882    1.2996   -0.0761   -0.0003   -0.0012   -0.0003
N         2.3604   -1.2995   -0.0741   -0.0002    0.0006   -0.0000
N        -0.2889    2.8541    0.0151   -0.0002    0.0010    0.0000
N        -2.5678   -1.3490   -0.0039    0.0005    0.0005    0.0000
C        -2.6318    2.2074    0.0858    0.0000    0.0000   -0.0022
C        -1.2138    1.9066   -0.0003    0.0010   -0.0009   -0.0012
C         1.0023    2.5641    0.0125   -0.0002   -0.0006    0.0014
C         2.0253    3.5896    0.1094   -0.0004    0.0001    0.0023
C        -3.3042    0.9681    0.0767   -0.0004   -0.0003    0.0022
C        -2.2782   -0.0563   -0.0113   -0.0006    0.0003    0.0013
C        -0.6084   -5.7574    0.2030   -0.0019    0.0013    0.0328
C        -3.1245   -4.3989    0.1900   -0.0012   -0.0035   -0.0333
C        -1.8131   -6.4652    0.2658   -0.0021   -0.0003   -0.0548
C        -4.7020    0.9019    0.1386    0.0006    0.0007    0.0262
C        -3.3382    3.4149    0.1551   -0.0028    0.0008   -0.0258
C        -5.4086    2.1097    0.2138    0.0006    0.0020   -0.0445
C        -3.0555   -5.7944    0.2587    0.0039    0.0028    0.0550
C        -1.6195   -2.2729    0.0041    0.0001    0.0002   -0.0019
C        -1.9182   -3.6908    0.1037   -0.0004   -0.0006   -0.0023
C         3.2652    2.9200    0.1027    0.0003    0.0006   -0.0018
C         2.9671    1.5014    0.0066    0.0001   -0.0003   -0.0016
C        -4.7364    3.3486    0.2202    0.0018   -0.0026    0.0440
C         3.6255   -0.7151   -0.0006   -0.0004   -0.0002    0.0005
C         4.6513   -1.7396    0.0908   -0.0001    0.0003    0.0007
C         2.5611   -2.6780    0.0096   -0.0001    0.0000   -0.0006
C         3.9791   -2.9786    0.0994    0.0001    0.0000   -0.0006
C        -0.6787   -4.3610    0.1117    0.0004   -0.0002    0.0025
C         0.3451   -3.3358    0.0162    0.0001    0.0004    0.0016
C         1.9538    4.9862    0.1974    0.0016   -0.0011    0.0281
C         4.4707    3.6292    0.1907    0.0012    0.0029   -0.0290
C         3.1581    5.6948    0.2620    0.0020    0.0002   -0.0472
C         4.4009    5.0247    0.2573   -0.0035   -0.0025    0.0476
C         6.0491   -1.6734    0.1498   -0.0002   -0.0002    0.0103
C         4.6854   -4.1862    0.1668    0.0009   -0.0006   -0.0102
C         6.7557   -2.8811    0.2249    0.0004   -0.0008   -0.0178
C         6.0835   -4.1199    0.2324   -0.0008    0.0009    0.0177
H         6.5636   -0.7119    0.1505    0.0051   -0.0031   -0.0645
H         4.1595   -5.1415    0.1810   -0.0018    0.0018    0.0654
H         6.6636   -5.0424    0.2843    0.0054   -0.0023   -0.1037
H        -5.2165   -0.0595    0.1415   -0.0155    0.0092   -0.1650
H        -2.8123    4.3701    0.1706    0.0017   -0.0046    0.1659
H        -5.3164    4.2710    0.2739   -0.0151    0.0047   -0.2590
H        -6.4984    2.0935    0.2595    0.0138   -0.0071    0.2611
H         0.3559   -6.2665    0.2241   -0.0091   -0.0215   -0.2095
H        -4.0801   -3.8731    0.2016    0.0062    0.0047    0.2146
H        -3.9765   -6.3769    0.3099   -0.0040   -0.0186   -0.3246
H        -1.7960   -7.5547    0.3185    0.0032    0.0185    0.3231
H         0.9891    5.4946    0.2174    0.0082    0.0186   -0.1793
H         5.4267    3.1042    0.2032   -0.0054   -0.0040    0.1866
H         5.3215    5.6077    0.3106    0.0039    0.0162   -0.2806
H         3.1404    6.7843    0.3129   -0.0032   -0.0154    0.2788
H         7.8456   -2.8649    0.2681   -0.0046    0.0031    0.1049
    57
stable frequency at    958.028 1/cm IR int. is 1.302 a.m.u.; force const. is 0.704 mDyne/Ang.
Fe        0.6742   -0.3860   -0.2512   -0.0000   -0.0001   -0.0000
N         3.9155    0.5774    0.0034   -0.0001    0.0001   -0.0004
N         1.6364   -3.6259    0.0222   -0.0001   -0.0003   -0.0003
N        -0.2400   -2.0716   -0.0762    0.0006    0.0009   -0.0001
N        -1.0127    0.5279   -0.0841   -0.0000    0.0001    0.0003
N         1.5882    1.2996   -0.0761    0.0007    0.0010    0.0001
N         2.3604   -1.2995   -0.0741    0.0000    0.0001   -0.0003
N        -0.2889    2.8541    0.0151   -0.0001   -0.0002    0.0003
N        -2.5678   -1.3490   -0.0039   -0.0000    0.0000    0.0004
C        -2.6318    2.2074    0.0858    0.0000    0.0000    0.0004
C        -1.2138    1.9066   -0.0003   -0.0002    0.0002   -0.0001
C         1.0023    2.5641    0.0125    0.0001    0.0004   -0.0021
C         2.0253    3.5896    0.1094    0.0005   -0.0002   -0.0029
C        -3.3042    0.9681    0.0767    0.0002    0.0000   -0.0001
C        -2.2782   -0.0563   -0.0113    0.0002    0.0001   -0.0004
C        -0.6084   -5.7574    0.2030   -0.0024    0.0015    0.0348
C        -3.1245   -4.3989    0.1900   -0.0010   -0.0042   -0.0355
C        -1.8131   -6.4652    0.2658   -0.0024    0.0005   -0.0581
C        -4.7020    0.9019    0.1386   -0.0001    0.0003   -0.0040
C        -3.3382    3.4149    0.1551    0.0003   -0.0001    0.0024
C        -5.4086    2.1097    0.2138    0.0002   -0.0001    0.0059
C        -3.0555   -5.7944    0.2587    0.0049    0.0033    0.0584
C        -1.6195   -2.2729    0.0041    0.0001    0.0001   -0.0021
C        -1.9182   -3.6908    0.1037   -0.0003   -0.0007   -0.0024
C         3.2652    2.9200    0.1027   -0.0004   -0.0008    0.0026
C         2.9671    1.5014    0.0066    0.0000    0.0002    0.0022
C        -4.7364    3.3486    0.2202    0.0000    0.0000   -0.0049
C         3.6255   -0.7151   -0.0006    0.0002    0.0002    0.0003
C         4.6513   -1.7396    0.0908    0.0002   -0.0000    0.0000
C         2.5611   -2.6780    0.0096   -0.0002    0.0002    0.0001
C         3.9791   -2.9786    0.0994    0.0000    0.0000   -0.0003
C        -0.6787   -4.3610    0.1117    0.0005   -0.0002    0.0027
C         0.3451   -3.3358    0.0162    0.0001    0.0004    0.0019
C         1.9538    4.9862    0.1974   -0.0026    0.0015   -0.0380
C         4.4707    3.6292    0.1907   -0.0011   -0.0045    0.0386
C         3.1581    5.6948    0.2620   -0.0027    0.0007    0.0634
C         4.4009    5.0247    0.2573    0.0055    0.0035   -0.0635
C         6.0491   -1.6734    0.1498   -0.0000    0.0004    0.0023
C         4.6854   -4.1862    0.1668    0.0002   -0.0000   -0.0007
C         6.7557   -2.8811    0.2249    0.0002    0.0000   -0.0030
C         6.0835   -4.1199    0.2324    0.0002   -0.0002    0.0020
H         6.5636   -0.7119    0.1505    0.0001    0.0003   -0.0145
H         4.1595   -5.1415    0.1810   -0.0007    0.0004    0.0048
H         6.6636   -5.0424    0.2843    0.0003   -0.0009   -0.0120
H        -5.2165   -0.0595    0.1415    0.0011   -0.0003    0.0253
H        -2.8123    4.3701    0.1706   -0.0008    0.0007   -0.0154
H        -5.3164    4.2710    0.2739    0.0012   -0.0013    0.0293
H        -6.4984    2.0935    0.2595   -0.0016    0.0009   -0.0344
H         0.3559   -6.2665    0.2241   -0.0113   -0.0249   -0.2228
H        -4.0801   -3.8731    0.2016    0.0057    0.0024    0.2293
H        -3.9765   -6.3769    0.3099   -0.0032   -0.0200   -0.3453
H        -1.7960   -7.5547    0.3185    0.0025    0.0204    0.3424
H         0.9891    5.4946    0.2174   -0.0125   -0.0269    0.2431
H         5.4267    3.1042    0.2032    0.0064    0.0024   -0.2489
H         5.3215    5.6077    0.3106   -0.0044   -0.0217    0.3757
H         3.1404    6.7843    0.3129    0.0033    0.0217   -0.3733
H         7.8456   -2.8649    0.2681   -0.0006    0.0004    0.0174
    57
stable frequency at    958.223 1/cm IR int. is 1.304 a.m.u.; force const. is 0.705 mDyne/Ang.
Fe        0.6742   -0.3860   -0.2512    0.0001   -0.0000   -0.0000
N         3.9155    0.5774    0.0034    0.0007   -0.0000    0.0002
N         1.6364   -3.6259    0.0222   -0.0002    0.0005   -0.0001
N        -0.2400   -2.0716   -0.0762    0.0007    0.0005    0.0002
N        -1.0127    0.5279   -0.0841   -0.0006    0.0014    0.0000
N         1.5882    1.2996   -0.0761   -0.0007   -0.0002   -0.0003
N         2.3604   -1.2995   -0.0741   -0.0004   -0.0000    0.0001
N        -0.2889    2.8541    0.0151   -0.0002   -0.0009   -0.0006
N        -2.5678   -1.3490   -0.0039   -0.0006   -0.0006    0.0006
C        -2.6318    2.2074    0.0858    0.0010   -0.0003    0.0033
C        -1.2138    1.9066   -0.0003   -0.0005    0.0003    0.0026
C         1.0023    2.5641    0.0125   -0.0003    0.0000    0.0013
C         2.0253    3.5896    0.1094   -0.0002    0.0003    0.0014
C        -3.3042    0.9681    0.0767    0.0006    0.0008   -0.0032
C        -2.2782   -0.0563   -0.0113    0.0002   -0.0001   -0.0027
C        -0.6084   -5.7574    0.2030   -0.0013    0.0007    0.0166
C        -3.1245   -4.3989    0.1900   -0.0006   -0.0020   -0.0180
C        -1.8131   -6.4652    0.2658   -0.0012    0.0004   -0.0280
C        -4.7020    0.9019    0.1386   -0.0013   -0.0023   -0.0451
C        -3.3382    3.4149    0.1551    0.0049   -0.0015    0.0439
C        -5.4086    2.1097    0.2138   -0.0011   -0.0037    0.0753
C        -3.0555   -5.7944    0.2587    0.0021    0.0015    0.0288
C        -1.6195   -2.2729    0.0041    0.0004    0.0002   -0.0012
C        -1.9182   -3.6908    0.1037   -0.0001   -0.0002   -0.0011
C         3.2652    2.9200    0.1027    0.0002    0.0002   -0.0013
C         2.9671    1.5014    0.0066   -0.0003   -0.0005   -0.0011
C        -4.7364    3.3486    0.2202   -0.0039    0.0061   -0.0742
C         3.6255   -0.7151   -0.0006   -0.0006    0.0000    0.0001
C         4.6513   -1.7396    0.0908   -0.0002    0.0004    0.0004
C         2.5611   -2.6780    0.0096    0.0002   -0.0002   -0.0003
C         3.9791   -2.9786    0.0994    0.0003   -0.0000   -0.0003
C        -0.6787   -4.3610    0.1117   -0.0001   -0.0002    0.0014
C         0.3451   -3.3358    0.0162   -0.0001   -0.0001    0.0008
C         1.9538    4.9862    0.1974    0.0009   -0.0007    0.0202
C         4.4707    3.6292    0.1907    0.0008    0.0022   -0.0195
C         3.1581    5.6948    0.2620    0.0013    0.0000   -0.0329
C         4.4009    5.0247    0.2573   -0.0023   -0.0014    0.0324
C         6.0491   -1.6734    0.1498   -0.0001   -0.0005    0.0044
C         4.6854   -4.1862    0.1668    0.0005   -0.0002   -0.0046
C         6.7557   -2.8811    0.2249   -0.0001   -0.0004   -0.0078
C         6.0835   -4.1199    0.2324   -0.0007    0.0011    0.0079
H         6.5636   -0.7119    0.1505    0.0036   -0.0025   -0.0273
H         4.1595   -5.1415    0.1810    0.0008    0.0001    0.0296
H         6.6636   -5.0424    0.2843    0.0024   -0.0002   -0.0472
H        -5.2165   -0.0595    0.1415    0.0276   -0.0176    0.2857
H        -2.8123    4.3701    0.1706   -0.0010    0.0069   -0.2827
H        -5.3164    4.2710    0.2739    0.0246   -0.0063    0.4388
H        -6.4984    2.0935    0.2595   -0.0236    0.0105   -0.4419
H         0.3559   -6.2665    0.2241   -0.0053   -0.0116   -0.1065
H        -4.0801   -3.8731    0.2016    0.0031    0.0018    0.1165
H        -3.9765   -6.3769    0.3099   -0.0015   -0.0104   -0.1697
H        -1.7960   -7.5547    0.3185    0.0019    0.0100    0.1651
H         0.9891    5.4946    0.2174    0.0054    0.0129   -0.1294
H         5.4267    3.1042    0.2032   -0.0034   -0.0022    0.1264
H         5.3215    5.6077    0.3106    0.0030    0.0110   -0.1914
H         3.1404    6.7843    0.3129   -0.0022   -0.0109    0.1938
H         7.8456   -2.8649    0.2681   -0.0022    0.0003    0.0464
    57
stable frequency at    958.597 1/cm IR int. is 1.305 a.m.u.; force const. is 0.706 mDyne/Ang.
Fe        0.6742   -0.3860   -0.2512    0.0002    0.0005   -0.0002
N         3.9155    0.5774    0.0034    0.0006   -0.0009   -0.0005
N         1.6364   -3.6259    0.0222   -0.0002    0.0001    0.0005
N        -0.2400   -2.0716   -0.0762   -0.0002    0.0005    0.0017
N        -1.0127    0.5279   -0.0841    0.0007   -0.0005   -0.0008
N         1.5882    1.2996   -0.0761   -0.0000   -0.0012   -0.0017
N         2.3604   -1.2995   -0.0741   -0.0014    0.0020    0.0001
N        -0.2889    2.8541    0.0151   -0.0012    0.0019    0.0001
N        -2.5678   -1.3490   -0.0039    0.0010    0.0004   -0.0002
C        -2.6318    2.2074    0.0858    0.0024   -0.0004   -0.0007
C        -1.2138    1.9066   -0.0003    0.0023   -0.0031    0.0005
C         1.0023    2.5641    0.0125   -0.0012   -0.0015   -0.0002
C         2.0253    3.5896    0.1094   -0.0007   -0.0005   -0.0003
C        -3.3042    0.9681    0.0767   -0.0003    0.0008    0.0011
C        -2.2782   -0.0563   -0.0113   -0.0022    0.0005   -0.0004
C        -0.6084   -5.7574    0.2030    0.0008   -0.0005   -0.0106
C        -3.1245   -4.3989    0.1900    0.0004    0.0012    0.0086
C        -1.8131   -6.4652    0.2658    0.0005    0.0001    0.0162
C        -4.7020    0.9019    0.1386   -0.0008   -0.0021   -0.0016
C        -3.3382    3.4149    0.1551    0.0001   -0.0001    0.0006
C        -5.4086    2.1097    0.2138    0.0003   -0.0007    0.0022
C        -3.0555   -5.7944    0.2587   -0.0014   -0.0009   -0.0149
C        -1.6195   -2.2729    0.0041    0.0004    0.0002   -0.0001
C        -1.9182   -3.6908    0.1037    0.0001    0.0002    0.0005
C         3.2652    2.9200    0.1027    0.0000   -0.0001    0.0010
C         2.9671    1.5014    0.0066    0.0004   -0.0008    0.0006
C        -4.7364    3.3486    0.2202   -0.0019    0.0033   -0.0016
C         3.6255   -0.7151   -0.0006   -0.0031   -0.0000    0.0029
C         4.6513   -1.7396    0.0908   -0.0008    0.0024    0.0029
C         2.5611   -2.6780    0.0096    0.0007   -0.0008   -0.0036
C         3.9791   -2.9786    0.0994    0.0016   -0.0001   -0.0026
C        -0.6787   -4.3610    0.1117   -0.0003    0.0000   -0.0003
C         0.3451   -3.3358    0.0162   -0.0003    0.0001   -0.0015
C         1.9538    4.9862    0.1974   -0.0014    0.0005   -0.0066
C         4.4707    3.6292    0.1907    0.0008   -0.0016    0.0069
C         3.1581    5.6948    0.2620   -0.0004    0.0016    0.0106
C         4.4009    5.0247    0.2573    0.0013    0.0009   -0.0111
C         6.0491   -1.6734    0.1498   -0.0013   -0.0028    0.0500
C         4.6854   -4.1862    0.1668    0.0046   -0.0030   -0.0503
C         6.7557   -2.8811    0.2249    0.0013   -0.0040   -0.0848
C         6.0835   -4.1199    0.2324   -0.0050    0.0069    0.0845
H         6.5636   -0.7119    0.1505    0.0289   -0.0193   -0.3158
H         4.1595   -5.1415    0.1810   -0.0035    0.0065    0.3251
H         6.6636   -5.0424    0.2843    0.0258   -0.0074   -0.4989
H        -5.2165   -0.0595    0.1415    0.0022   -0.0039    0.0108
H        -2.8123    4.3701    0.1706    0.0027   -0.0012   -0.0029
H        -5.3164    4.2710    0.2739   -0.0017    0.0027    0.0138
H        -6.4984    2.0935    0.2595   -0.0005   -0.0025   -0.0118
H         0.3559   -6.2665    0.2241    0.0034    0.0072    0.0697
H        -4.0801   -3.8731    0.2016   -0.0010    0.0001   -0.0541
H        -3.9765   -6.3769    0.3099    0.0013    0.0041    0.0906
H        -1.7960   -7.5547    0.3185   -0.0016   -0.0055   -0.0937
H         0.9891    5.4946    0.2174   -0.0038   -0.0055    0.0435
H         5.4267    3.1042    0.2032    0.0019   -0.0012   -0.0437
H         5.3215    5.6077    0.3106   -0.0005   -0.0033    0.0680
H         3.1404    6.7843    0.3129    0.0024    0.0052   -0.0595
H         7.8456   -2.8649    0.2681   -0.0226    0.0116    0.5015
    57
stable frequency at   1003.161 1/cm IR int. is 2.090 a.m.u.; force const. is 1.239 mDyne/Ang.
Fe        0.6742   -0.3860   -0.2512    0.0000   -0.0001    0.0000
N         3.9155    0.5774    0.0034    0.0023    0.0015    0.0000
N         1.6364   -3.6259    0.0222   -0.0018    0.0022   -0.0001
N        -0.2400   -2.0716   -0.0762    0.0088    0.0096   -0.0011
N        -1.0127    0.5279   -0.0841   -0.0068    0.0071    0.0007
N         1.5882    1.2996   -0.0761   -0.0084   -0.0091   -0.0010
N         2.3604   -1.2995   -0.0741    0.0055   -0.0064    0.0006
N        -0.2889    2.8541    0.0151    0.0017   -0.0022   -0.0001
N        -2.5678   -1.3490   -0.0039   -0.0024   -0.0016    0.0000
C        -2.6318    2.2074    0.0858    0.0029   -0.0056   -0.0005
C        -1.2138    1.9066   -0.0003    0.0002    0.0012   -0.0001
C         1.0023    2.5641    0.0125   -0.0009   -0.0018   -0.0000
C         2.0253    3.5896    0.1094   -0.0052    0.0083    0.0001
C        -3.3042    0.9681    0.0767    0.0062    0.0035   -0.0001
C        -2.2782   -0.0563   -0.0113   -0.0011    0.0007    0.0000
C        -0.6084   -5.7574    0.2030   -0.0484   -0.0148    0.0007
C        -3.1245   -4.3989    0.1900    0.0105   -0.0466    0.0025
C        -1.8131   -6.4652    0.2658   -0.0224    0.0726   -0.0008
C        -4.7020    0.9019    0.1386    0.0103   -0.0351   -0.0010
C        -3.3382    3.4149    0.1551    0.0331    0.0071   -0.0020
C        -5.4086    2.1097    0.2138   -0.0507   -0.0138    0.0006
C        -3.0555   -5.7944    0.2587    0.0755    0.0212   -0.0045
C        -1.6195   -2.2729    0.0041    0.0017    0.0007    0.0000
C        -1.9182   -3.6908    0.1037   -0.0085   -0.0030    0.0006
C         3.2652    2.9200    0.1027    0.0081    0.0028    0.0006
C         2.9671    1.5014    0.0066   -0.0016   -0.0008    0.0000
C        -4.7364    3.3486    0.2202   -0.0161    0.0523    0.0039
C         3.6255   -0.7151   -0.0006    0.0010   -0.0007    0.0000
C         4.6513   -1.7396    0.0908   -0.0052   -0.0029   -0.0001
C         2.5611   -2.6780    0.0096   -0.0005   -0.0010   -0.0000
C         3.9791   -2.9786    0.0994   -0.0028    0.0045   -0.0004
C        -0.6787   -4.3610    0.1117    0.0055   -0.0087    0.0002
C         0.3451   -3.3358    0.0162    0.0010    0.0019   -0.0000
C         1.9538    4.9862    0.1974    0.0461    0.0141    0.0007
C         4.4707    3.6292    0.1907   -0.0101    0.0443    0.0023
C         3.1581    5.6948    0.2620    0.0213   -0.0693   -0.0006
C         4.4009    5.0247    0.2573   -0.0719   -0.0201   -0.0045
C         6.0491   -1.6734    0.1498   -0.0082    0.0291   -0.0009
C         4.6854   -4.1862    0.1668   -0.0271   -0.0057   -0.0016
C         6.7557   -2.8811    0.2249    0.0416    0.0114    0.0006
C         6.0835   -4.1199    0.2324    0.0133   -0.0432    0.0031
H         6.5636   -0.7119    0.1505   -0.1148    0.0892   -0.0113
H         4.1595   -5.1415    0.1810   -0.1329    0.0496   -0.0048
H         6.6636   -5.0424    0.2843   -0.0255   -0.0719   -0.0059
H        -5.2165   -0.0595    0.1415    0.1403   -0.1085   -0.0144
H        -2.8123    4.3701    0.1706    0.1618   -0.0602   -0.0053
H        -5.3164    4.2710    0.2739    0.0310    0.0873   -0.0088
H        -6.4984    2.0935    0.2595   -0.0537   -0.0658    0.0094
H         0.3559   -6.2665    0.2241   -0.1518   -0.1996    0.0214
H        -4.0801   -3.8731    0.2016   -0.0850   -0.2297    0.0120
H        -3.9765   -6.3769    0.3099    0.1265   -0.0477    0.0119
H        -1.7960   -7.5547    0.3185   -0.1007    0.0764   -0.0157
H         0.9891    5.4946    0.2174    0.1447    0.1909    0.0204
H         5.4267    3.1042    0.2032    0.0807    0.2187    0.0111
H         5.3215    5.6077    0.3106   -0.1207    0.0455    0.0118
H         3.1404    6.7843    0.3129    0.0957   -0.0728   -0.0151
H         7.8456   -2.8649    0.2681    0.0441    0.0542    0.0067
    57
stable frequency at   1003.429 1/cm IR int. is 2.075 a.m.u.; force const. is 1.231 mDyne/Ang.
Fe        0.6742   -0.3860   -0.2512    0.0008    0.0011   -0.0000
N         3.9155    0.5774    0.0034    0.0001   -0.0003   -0.0001
N         1.6364   -3.6259    0.0222    0.0012   -0.0008    0.0001
N        -0.2400   -2.0716   -0.0762   -0.0071   -0.0121    0.0014
N        -1.0127    0.5279   -0.0841   -0.0013    0.0021    0.0002
N         1.5882    1.2996   -0.0761   -0.0071   -0.0120   -0.0014
N         2.3604   -1.2995   -0.0741   -0.0004    0.0015   -0.0001
N        -0.2889    2.8541    0.0151    0.0012   -0.0009   -0.0001
N        -2.5678   -1.3490   -0.0039    0.0001   -0.0004    0.0001
C        -2.6318    2.2074    0.0858    0.0016   -0.0008   -0.0002
C        -1.2138    1.9066   -0.0003    0.0013    0.0006    0.0000
C         1.0023    2.5641    0.0125   -0.0006   -0.0017    0.0001
C         2.0253    3.5896    0.1094   -0.0063    0.0099    0.0001
C        -3.3042    0.9681    0.0767    0.0009    0.0010    0.0000
C        -2.2782   -0.0563   -0.0113   -0.0007    0.0007   -0.0001
C        -0.6084   -5.7574    0.2030    0.0557    0.0185   -0.0007
C        -3.1245   -4.3989    0.1900   -0.0131    0.0549   -0.0031
C        -1.8131   -6.4652    0.2658    0.0263   -0.0858    0.0007
C        -4.7020    0.9019    0.1386    0.0013   -0.0066   -0.0002
C        -3.3382    3.4149    0.1551    0.0056    0.0006   -0.0002
C        -5.4086    2.1097    0.2138   -0.0078   -0.0026    0.0002
C        -3.0555   -5.7944    0.2587   -0.0872   -0.0241    0.0056
C        -1.6195   -2.2729    0.0041   -0.0020   -0.0023   -0.0001
C        -1.9182   -3.6908    0.1037    0.0102    0.0015   -0.0006
C         3.2652    2.9200    0.1027    0.0101    0.0016    0.0006
C         2.9671    1.5014    0.0066   -0.0020   -0.0023    0.0001
C        -4.7364    3.3486    0.2202   -0.0034    0.0095    0.0005
C         3.6255   -0.7151   -0.0006   -0.0005    0.0007    0.0001
C         4.6513   -1.7396    0.0908    0.0001    0.0006   -0.0000
C         2.5611   -2.6780    0.0096    0.0015    0.0005   -0.0000
C         3.9791   -2.9786    0.0994    0.0014   -0.0001    0.0001
C        -0.6787   -4.3610    0.1117   -0.0064    0.0100   -0.0002
C         0.3451   -3.3358    0.0162   -0.0005   -0.0017   -0.0001
C         1.9538    4.9862    0.1974    0.0553    0.0183    0.0008
C         4.4707    3.6292    0.1907   -0.0130    0.0543    0.0030
C         3.1581    5.6948    0.2620    0.0260   -0.0850   -0.0004
C         4.4009    5.0247    0.2573   -0.0865   -0.0240   -0.0058
C         6.0491   -1.6734    0.1498   -0.0001   -0.0024    0.0001
C         4.6854   -4.1862    0.1668    0.0014   -0.0004   -0.0001
C         6.7557   -2.8811    0.2249   -0.0015   -0.0008   -0.0001
C         6.0835   -4.1199    0.2324   -0.0014    0.0031    0.0001
H         6.5636   -0.7119    0.1505    0.0036   -0.0045    0.0002
H         4.1595   -5.1415    0.1810    0.0096   -0.0046    0.0016
H         6.6636   -5.0424    0.2843   -0.0005    0.0038   -0.0021
H        -5.2165   -0.0595    0.1415    0.0210   -0.0178   -0.0020
H        -2.8123    4.3701    0.1706    0.0296   -0.0119   -0.0020
H        -5.3164    4.2710    0.2739    0.0033    0.0145    0.0004
H        -6.4984    2.0935    0.2595   -0.0084   -0.0123    0.0009
H         0.3559   -6.2665    0.2241    0.1776    0.2368   -0.0261
H        -4.0801   -3.8731    0.2016    0.0987    0.2694   -0.0127
H        -3.9765   -6.3769    0.3099   -0.1475    0.0572   -0.0167
H        -1.7960   -7.5547    0.3185    0.1175   -0.0900    0.0206
H         0.9891    5.4946    0.2174    0.1761    0.2351    0.0257
H         5.4267    3.1042    0.2032    0.0976    0.2668    0.0123
H         5.3215    5.6077    0.3106   -0.1463    0.0566    0.0171
H         3.1404    6.7843    0.3129    0.1161   -0.0892   -0.0206
H         7.8456   -2.8649    0.2681   -0.0017   -0.0039    0.0005
    57
stable frequency at   1003.910 1/cm IR int. is 2.073 a.m.u.; force const. is 1.231 mDyne/Ang.
Fe        0.6742   -0.3860   -0.2512    0.0011   -0.0009   -0.0000
N         3.9155    0.5774    0.0034   -0.0008   -0.0012   -0.0001
N         1.6364   -3.6259    0.0222   -0.0002   -0.0003   -0.0001
N        -0.2400   -2.0716   -0.0762    0.0003    0.0004   -0.0001
N        -1.0127    0.5279   -0.0841   -0.0130    0.0072    0.0014
N         1.5882    1.2996   -0.0761    0.0016    0.0024    0.0003
N         2.3604   -1.2995   -0.0741   -0.0122    0.0071   -0.0014
N        -0.2889    2.8541    0.0151   -0.0004   -0.0002    0.0001
N        -2.5678   -1.3490   -0.0039   -0.0005   -0.0011    0.0001
C        -2.6318    2.2074    0.0858    0.0017   -0.0100   -0.0007
C        -1.2138    1.9066   -0.0003   -0.0022    0.0023   -0.0002
C         1.0023    2.5641    0.0125    0.0008    0.0003   -0.0001
C         2.0253    3.5896    0.1094    0.0011   -0.0015   -0.0000
C        -3.3042    0.9681    0.0767    0.0103    0.0062   -0.0001
C        -2.2782   -0.0563   -0.0113   -0.0016    0.0003   -0.0003
C        -0.6084   -5.7574    0.2030    0.0004    0.0009    0.0001
C        -3.1245   -4.3989    0.1900   -0.0008    0.0011   -0.0002
C        -1.8131   -6.4652    0.2658    0.0003   -0.0022   -0.0001
C        -4.7020    0.9019    0.1386    0.0197   -0.0584   -0.0017
C        -3.3382    3.4149    0.1551    0.0573    0.0131   -0.0035
C        -5.4086    2.1097    0.2138   -0.0876   -0.0238    0.0008
C        -3.0555   -5.7944    0.2587   -0.0011    0.0001    0.0003
C        -1.6195   -2.2729    0.0041    0.0008   -0.0013   -0.0000
C        -1.9182   -3.6908    0.1037    0.0004   -0.0011    0.0001
C         3.2652    2.9200    0.1027   -0.0013   -0.0014   -0.0002
C         2.9671    1.5014    0.0066    0.0011   -0.0009    0.0000
C        -4.7364    3.3486    0.2202   -0.0264    0.0876    0.0068
C         3.6255   -0.7151   -0.0006   -0.0014    0.0003    0.0002
C         4.6513   -1.7396    0.0908    0.0097    0.0058    0.0001
C         2.5611   -2.6780    0.0096   -0.0018    0.0022    0.0002
C         3.9791   -2.9786    0.0994    0.0019   -0.0093    0.0007
C        -0.6787   -4.3610    0.1117   -0.0000    0.0002   -0.0000
C         0.3451   -3.3358    0.0162    0.0006   -0.0001    0.0001
C         1.9538    4.9862    0.1974   -0.0091   -0.0023   -0.0002
C         4.4707    3.6292    0.1907    0.0014   -0.0082   -0.0003
C         3.1581    5.6948    0.2620   -0.0041    0.0123    0.0002
C         4.4009    5.0247    0.2573    0.0138    0.0042    0.0006
C         6.0491   -1.6734    0.1498    0.0183   -0.0551    0.0017
C         4.6854   -4.1862    0.1668    0.0538    0.0122    0.0035
C         6.7557   -2.8811    0.2249   -0.0824   -0.0223   -0.0007
C         6.0835   -4.1199    0.2324   -0.0249    0.0825   -0.0068
H         6.5636   -0.7119    0.1505    0.2298   -0.1741    0.0232
H         4.1595   -5.1415    0.1810    0.2608   -0.0960    0.0068
H         6.6636   -5.0424    0.2843    0.0513    0.1391    0.0181
H        -5.2165   -0.0595    0.1415    0.2443   -0.1849   -0.0251
H        -2.8123    4.3701    0.1706    0.2776   -0.1020   -0.0085
H        -5.3164    4.2710    0.2739    0.0544    0.1476   -0.0172
H        -6.4984    2.0935    0.2595   -0.0925   -0.1126    0.0174
H         0.3559   -6.2665    0.2241    0.0042    0.0077   -0.0016
H        -4.0801   -3.8731    0.2016    0.0003    0.0031    0.0007
H        -3.9765   -6.3769    0.3099   -0.0030    0.0028   -0.0021
H        -1.7960   -7.5547    0.3185    0.0015   -0.0022    0.0012
H         0.9891    5.4946    0.2174   -0.0259   -0.0324   -0.0027
H         5.4267    3.1042    0.2032   -0.0165   -0.0426   -0.0032
H         5.3215    5.6077    0.3106    0.0221   -0.0070   -0.0002
H         3.1404    6.7843    0.3129   -0.0188    0.0130    0.0019
H         7.8456   -2.8649    0.2681   -0.0870   -0.1054   -0.0165
    57
stable frequency at   1004.345 1/cm IR int. is 2.076 a.m.u.; force const. is 1.234 mDyne/Ang.
Fe        0.6742   -0.3860   -0.2512   -0.0001    0.0000   -0.0001
N         3.9155    0.5774    0.0034    0.0005    0.0009    0.0001
N         1.6364   -3.6259    0.0222    0.0003    0.0010    0.0000
N        -0.2400   -2.0716   -0.0762   -0.0026   -0.0066    0.0007
N        -1.0127    0.5279   -0.0841   -0.0093    0.0058    0.0008
N         1.5882    1.2996   -0.0761    0.0029    0.0071    0.0008
N         2.3604   -1.2995   -0.0741    0.0110   -0.0071    0.0011
N        -0.2889    2.8541    0.0151   -0.0003   -0.0008    0.0000
N        -2.5678   -1.3490   -0.0039   -0.0004   -0.0005    0.0001
C        -2.6318    2.2074    0.0858    0.0017   -0.0075   -0.0005
C        -1.2138    1.9066   -0.0003   -0.0021    0.0014   -0.0000
C         1.0023    2.5641    0.0125    0.0001    0.0013   -0.0001
C         2.0253    3.5896    0.1094    0.0035   -0.0056   -0.0001
C        -3.3042    0.9681    0.0767    0.0078    0.0045   -0.0001
C        -2.2782   -0.0563   -0.0113   -0.0016    0.0007   -0.0001
C        -0.6084   -5.7574    0.2030    0.0281    0.0100   -0.0005
C        -3.1245   -4.3989    0.1900   -0.0071    0.0287   -0.0014
C        -1.8131   -6.4652    0.2658    0.0137   -0.0444    0.0006
C        -4.7020    0.9019    0.1386    0.0145   -0.0432   -0.0014
C        -3.3382    3.4149    0.1551    0.0428    0.0097   -0.0022
C        -5.4086    2.1097    0.2138   -0.0652   -0.0180    0.0009
C        -3.0555   -5.7944    0.2587   -0.0445   -0.0122    0.0024
C        -1.6195   -2.2729    0.0041   -0.0012   -0.0019    0.0000
C        -1.9182   -3.6908    0.1037    0.0053    0.0002   -0.0002
C         3.2652    2.9200    0.1027   -0.0060   -0.0001   -0.0003
C         2.9671    1.5014    0.0066    0.0012    0.0024   -0.0000
C        -4.7364    3.3486    0.2202   -0.0196    0.0655    0.0046
C         3.6255   -0.7151   -0.0006    0.0020   -0.0008   -0.0002
C         4.6513   -1.7396    0.0908   -0.0091   -0.0057   -0.0002
C         2.5611   -2.6780    0.0096    0.0022   -0.0017   -0.0000
C         3.9791   -2.9786    0.0994   -0.0022    0.0087   -0.0006
C        -0.6787   -4.3610    0.1117   -0.0031    0.0051   -0.0001
C         0.3451   -3.3358    0.0162   -0.0001   -0.0012   -0.0001
C         1.9538    4.9862    0.1974   -0.0310   -0.0112   -0.0006
C         4.4707    3.6292    0.1907    0.0079   -0.0319   -0.0016
C         3.1581    5.6948    0.2620   -0.0151    0.0494    0.0006
C         4.4009    5.0247    0.2573    0.0493    0.0135    0.0030
C         6.0491   -1.6734    0.1498   -0.0172    0.0521   -0.0018
C         4.6854   -4.1862    0.1668   -0.0509   -0.0114   -0.0024
C         6.7557   -2.8811    0.2249    0.0777    0.0213    0.0016
C         6.0835   -4.1199    0.2324    0.0235   -0.0785    0.0047
H         6.5636   -0.7119    0.1505   -0.2166    0.1644   -0.0199
H         4.1595   -5.1415    0.1810   -0.2458    0.0904   -0.0118
H         6.6636   -5.0424    0.2843   -0.0492   -0.1316   -0.0040
H        -5.2165   -0.0595    0.1415    0.1807   -0.1369   -0.0176
H        -2.8123    4.3701    0.1706    0.2060   -0.0756   -0.0087
H        -5.3164    4.2710    0.2739    0.0407    0.1101   -0.0097
H        -6.4984    2.0935    0.2595   -0.0689   -0.0859    0.0110
H         0.3559   -6.2665    0.2241    0.0904    0.1216   -0.0126
H        -4.0801   -3.8731    0.2016    0.0503    0.1388   -0.0076
H        -3.9765   -6.3769    0.3099   -0.0751    0.0293   -0.0062
H        -1.7960   -7.5547    0.3185    0.0620   -0.0466    0.0092
H         0.9891    5.4946    0.2174   -0.1006   -0.1361   -0.0141
H         5.4267    3.1042    0.2032   -0.0558   -0.1542   -0.0082
H         5.3215    5.6077    0.3106    0.0833   -0.0324   -0.0075
H         3.1404    6.7843    0.3129   -0.0685    0.0518    0.0103
H         7.8456   -2.8649    0.2681    0.0823    0.1013    0.0095
    57
stable frequency at   1023.425 1/cm IR int. is 9.645 a.m.u.; force const. is 5.952 mDyne/Ang.
Fe        0.6742   -0.3860   -0.2512   -0.0000   -0.0000   -0.0000
N         3.9155    0.5774    0.0034    0.0493    0.0144    0.0005
N         1.6364   -3.6259    0.0222   -0.0151    0.0490   -0.0012
N        -0.2400   -2.0716   -0.0762    0.0700   -0.0384    0.0004
N        -1.0127    0.5279   -0.0841    0.0377    0.0680    0.0003
N         1.5882    1.2996   -0.0761   -0.0698    0.0387    0.0002
N         2.3604   -1.2995   -0.0741   -0.0373   -0.0671    0.0003
N        -0.2889    2.8541    0.0151    0.0148   -0.0491   -0.0011
N        -2.5678   -1.3490   -0.0039   -0.0492   -0.0147    0.0004
C        -2.6318    2.2074    0.0858    0.0347    0.0104   -0.0018
C        -1.2138    1.9066   -0.0003    0.0300   -0.0048   -0.0014
C         1.0023    2.5641    0.0125   -0.0217   -0.0217   -0.0020
C         2.0253    3.5896    0.1094   -0.0349   -0.0115   -0.0020
C        -3.3042    0.9681    0.0767   -0.0113    0.0349    0.0022
C        -2.2782   -0.0563   -0.0113   -0.0202    0.0225    0.0013
C        -0.6084   -5.7574    0.2030   -0.0335    0.0240   -0.0004
C        -3.1245   -4.3989    0.1900   -0.0389    0.0181    0.0004
C        -1.8131   -6.4652    0.2658    0.0042   -0.0327    0.0016
C        -4.7020    0.9019    0.1386   -0.0243   -0.0334    0.0001
C        -3.3382    3.4149    0.1551   -0.0188   -0.0395   -0.0007
C        -5.4086    2.1097    0.2138    0.0331    0.0044   -0.0013
C        -3.0555   -5.7944    0.2587    0.0245    0.0132   -0.0018
C        -1.6195   -2.2729    0.0041   -0.0061   -0.0303    0.0022
C        -1.9182   -3.6908    0.1037    0.0104   -0.0351    0.0020
C         3.2652    2.9200    0.1027   -0.0104    0.0349    0.0019
C         2.9671    1.5014    0.0066    0.0061    0.0301    0.0021
C        -4.7364    3.3486    0.2202   -0.0126    0.0241    0.0017
C         3.6255   -0.7151   -0.0006    0.0197   -0.0225    0.0014
C         4.6513   -1.7396    0.0908    0.0112   -0.0346    0.0022
C         2.5611   -2.6780    0.0096   -0.0297    0.0043   -0.0014
C         3.9791   -2.9786    0.0994   -0.0343   -0.0103   -0.0018
C        -0.6787   -4.3610    0.1117    0.0347    0.0114   -0.0019
C         0.3451   -3.3358    0.0162    0.0214    0.0215   -0.0020
C         1.9538    4.9862    0.1974    0.0334   -0.0239   -0.0003
C         4.4707    3.6292    0.1907    0.0391   -0.0181    0.0005
C         3.1581    5.6948    0.2620   -0.0041    0.0328    0.0016
C         4.4009    5.0247    0.2573   -0.0245   -0.0132   -0.0019
C         6.0491   -1.6734    0.1498    0.0242    0.0331    0.0000
C         4.6854   -4.1862    0.1668    0.0187    0.0393   -0.0006
C         6.7557   -2.8811    0.2249   -0.0329   -0.0044   -0.0012
C         6.0835   -4.1199    0.2324    0.0123   -0.0238    0.0016
H         6.5636   -0.7119    0.1505    0.0255    0.0326   -0.0011
H         4.1595   -5.1415    0.1810    0.0292    0.0343    0.0026
H         6.6636   -5.0424    0.2843   -0.0074   -0.0354   -0.0016
H        -5.2165   -0.0595    0.1415   -0.0254   -0.0330   -0.0008
H        -2.8123    4.3701    0.1706   -0.0292   -0.0345    0.0023
H        -5.3164    4.2710    0.2739    0.0070    0.0356   -0.0023
H        -6.4984    2.0935    0.2595    0.0324    0.0341   -0.0012
H         0.3559   -6.2665    0.2241   -0.0334    0.0242   -0.0035
H        -4.0801   -3.8731    0.2016   -0.0340    0.0280   -0.0005
H        -3.9765   -6.3769    0.3099    0.0357   -0.0056    0.0025
H        -1.7960   -7.5547    0.3185    0.0325   -0.0319    0.0022
H         0.9891    5.4946    0.2174    0.0336   -0.0237   -0.0031
H         5.4267    3.1042    0.2032    0.0345   -0.0276   -0.0003
H         5.3215    5.6077    0.3106   -0.0358    0.0058    0.0026
H         3.1404    6.7843    0.3129   -0.0323    0.0320    0.0021
H         7.8456   -2.8649    0.2681   -0.0322   -0.0344   -0.0012
    57
stable frequency at   1054.979 1/cm IR int. is 10.400 a.m.u.; force const. is 6.820 mDyne/Ang.
Fe        0.6742   -0.3860   -0.2512    0.0097   -0.0041    0.0000
N         3.9155    0.5774    0.0034    0.0395   -0.0164   -0.0004
N         1.6364   -3.6259    0.0222    0.0398   -0.0161   -0.0000
N        -0.2400   -2.0716   -0.0762   -0.1087    0.0543    0.0000
N        -1.0127    0.5279   -0.0841   -0.0377    0.0067    0.0053
N         1.5882    1.2996   -0.0761   -0.1084    0.0550   -0.0005
N         2.3604   -1.2995   -0.0741   -0.0379    0.0068   -0.0053
N        -0.2889    2.8541    0.0151    0.0400   -0.0160    0.0001
N        -2.5678   -1.3490   -0.0039    0.0394   -0.0165    0.0006
C        -2.6318    2.2074    0.0858    0.0206    0.0062   -0.0009
C        -1.2138    1.9066   -0.0003    0.0245    0.0245   -0.0014
C         1.0023    2.5641    0.0125    0.0019   -0.0461   -0.0032
C         2.0253    3.5896    0.1094   -0.0407   -0.0133   -0.0020
C        -3.3042    0.9681    0.0767    0.0086   -0.0304   -0.0016
C        -2.2782   -0.0563   -0.0113    0.0014   -0.0345   -0.0022
C        -0.6084   -5.7574    0.2030    0.0303   -0.0211    0.0001
C        -3.1245   -4.3989    0.1900    0.0323   -0.0141   -0.0001
C        -1.8131   -6.4652    0.2658   -0.0019    0.0313   -0.0017
C        -4.7020    0.9019    0.1386   -0.0016   -0.0059   -0.0001
C        -3.3382    3.4149    0.1551    0.0076    0.0123   -0.0000
C        -5.4086    2.1097    0.2138   -0.0095    0.0054    0.0007
C        -3.0555   -5.7944    0.2587   -0.0259   -0.0168    0.0021
C        -1.6195   -2.2729    0.0041    0.0353    0.0294   -0.0035
C        -1.9182   -3.6908    0.1037   -0.0131    0.0467   -0.0025
C         3.2652    2.9200    0.1027   -0.0132    0.0462    0.0024
C         2.9671    1.5014    0.0066    0.0348    0.0294    0.0035
C        -4.7364    3.3486    0.2202   -0.0067   -0.0008    0.0004
C         3.6255   -0.7151   -0.0006    0.0016   -0.0343    0.0022
C         4.6513   -1.7396    0.0908    0.0088   -0.0306    0.0016
C         2.5611   -2.6780    0.0096    0.0244    0.0241    0.0015
C         3.9791   -2.9786    0.0994    0.0208    0.0060    0.0009
C        -0.6787   -4.3610    0.1117   -0.0401   -0.0128    0.0019
C         0.3451   -3.3358    0.0162    0.0017   -0.0457    0.0033
C         1.9538    4.9862    0.1974    0.0303   -0.0209   -0.0001
C         4.4707    3.6292    0.1907    0.0326   -0.0139    0.0001
C         3.1581    5.6948    0.2620   -0.0021    0.0315    0.0016
C         4.4009    5.0247    0.2573   -0.0257   -0.0169   -0.0021
C         6.0491   -1.6734    0.1498   -0.0017   -0.0060    0.0001
C         4.6854   -4.1862    0.1668    0.0075    0.0124    0.0000
C         6.7557   -2.8811    0.2249   -0.0096    0.0053   -0.0006
C         6.0835   -4.1199    0.2324   -0.0066   -0.0006   -0.0004
H         6.5636   -0.7119    0.1505   -0.0422    0.0144   -0.0027
H         4.1595   -5.1415    0.1810   -0.0262    0.0323   -0.0028
H         6.6636   -5.0424    0.2843   -0.0146   -0.0046    0.0004
H        -5.2165   -0.0595    0.1415   -0.0420    0.0144    0.0028
H        -2.8123    4.3701    0.1706   -0.0249    0.0316    0.0032
H        -5.3164    4.2710    0.2739   -0.0153   -0.0053   -0.0000
H        -6.4984    2.0935    0.2595   -0.0103    0.0085    0.0004
H         0.3559   -6.2665    0.2241    0.0416   -0.0002    0.0018
H        -4.0801   -3.8731    0.2016    0.0146   -0.0468    0.0015
H        -3.9765   -6.3769    0.3099   -0.0351   -0.0019   -0.0028
H        -1.7960   -7.5547    0.3185   -0.0223    0.0307   -0.0010
H         0.9891    5.4946    0.2174    0.0424    0.0015   -0.0014
H         5.4267    3.1042    0.2032    0.0159   -0.0449   -0.0011
H         5.3215    5.6077    0.3106   -0.0343   -0.0030    0.0028
H         3.1404    6.7843    0.3129   -0.0231    0.0308    0.0007
H         7.8456   -2.8649    0.2681   -0.0104    0.0081   -0.0005
    57
stable frequency at   1055.991 1/cm IR int. is 9.916 a.m.u.; force const. is 6.515 mDyne/Ang.
Fe        0.6742   -0.3860   -0.2512   -0.0040   -0.0096    0.0000
N         3.9155    0.5774    0.0034   -0.0165   -0.0401    0.0002
N         1.6364   -3.6259    0.0222   -0.0166   -0.0399    0.0002
N        -0.2400   -2.0716   -0.0762    0.0054    0.0398   -0.0056
N        -1.0127    0.5279   -0.0841    0.0537    0.1061    0.0012
N         1.5882    1.2996   -0.0761    0.0078    0.0386    0.0055
N         2.3604   -1.2995   -0.0741    0.0529    0.1043   -0.0011
N        -0.2889    2.8541    0.0151   -0.0173   -0.0395   -0.0002
N        -2.5678   -1.3490   -0.0039   -0.0159   -0.0407   -0.0001
C        -2.6318    2.2074    0.0858    0.0474    0.0143   -0.0021
C        -1.2138    1.9066   -0.0003    0.0290   -0.0329   -0.0029
C         1.0023    2.5641    0.0125   -0.0339   -0.0018   -0.0022
C         2.0253    3.5896    0.1094   -0.0310   -0.0097   -0.0017
C        -3.3042    0.9681    0.0767   -0.0131    0.0428    0.0022
C        -2.2782   -0.0563   -0.0113   -0.0439   -0.0009    0.0020
C        -0.6084   -5.7574    0.2030   -0.0069    0.0021   -0.0002
C        -3.1245   -4.3989    0.1900    0.0126   -0.0075   -0.0001
C        -1.8131   -6.4652    0.2658    0.0050    0.0108   -0.0007
C        -4.7020    0.9019    0.1386   -0.0222   -0.0329   -0.0001
C        -3.3382    3.4149    0.1551   -0.0160   -0.0352   -0.0005
C        -5.4086    2.1097    0.2138    0.0323    0.0032   -0.0014
C        -3.0555   -5.7944    0.2587    0.0005    0.0064   -0.0001
C        -1.6195   -2.2729    0.0041    0.0252   -0.0241    0.0018
C        -1.9182   -3.6908    0.1037    0.0062   -0.0220    0.0015
C         3.2652    2.9200    0.1027    0.0062   -0.0229   -0.0015
C         2.9671    1.5014    0.0066    0.0238   -0.0246   -0.0017
C        -4.7364    3.3486    0.2202   -0.0160    0.0267    0.0020
C         3.6255   -0.7151   -0.0006   -0.0423   -0.0001   -0.0021
C         4.6513   -1.7396    0.0908   -0.0128    0.0428   -0.0025
C         2.5611   -2.6780    0.0096    0.0287   -0.0313    0.0028
C         3.9791   -2.9786    0.0994    0.0474    0.0145    0.0023
C        -0.6787   -4.3610    0.1117   -0.0316   -0.0099    0.0017
C         0.3451   -3.3358    0.0162   -0.0337   -0.0030    0.0022
C         1.9538    4.9862    0.1974   -0.0072    0.0024    0.0002
C         4.4707    3.6292    0.1907    0.0124   -0.0075    0.0002
C         3.1581    5.6948    0.2620    0.0047    0.0104    0.0006
C         4.4009    5.0247    0.2573    0.0011    0.0069    0.0004
C         6.0491   -1.6734    0.1498   -0.0226   -0.0334    0.0003
C         4.6854   -4.1862    0.1668   -0.0167   -0.0358    0.0010
C         6.7557   -2.8811    0.2249    0.0325    0.0036    0.0018
C         6.0835   -4.1199    0.2324   -0.0155    0.0265   -0.0033
H         6.5636   -0.7119    0.1505    0.0033   -0.0478    0.0028
H         4.1595   -5.1415    0.1810   -0.0528   -0.0166   -0.0077
H         6.6636   -5.0424    0.2843    0.0055    0.0403    0.0164
H        -5.2165   -0.0595    0.1415    0.0038   -0.0473   -0.0022
H        -2.8123    4.3701    0.1706   -0.0511   -0.0164    0.0036
H        -5.3164    4.2710    0.2739    0.0042    0.0391   -0.0028
H        -6.4984    2.0935    0.2595    0.0316    0.0315   -0.0003
H         0.3559   -6.2665    0.2241    0.0136    0.0435   -0.0028
H        -4.0801   -3.8731    0.2016    0.0328    0.0266   -0.0027
H        -3.9765   -6.3769    0.3099   -0.0016    0.0114   -0.0011
H        -1.7960   -7.5547    0.3185    0.0068    0.0117   -0.0008
H         0.9891    5.4946    0.2174    0.0132    0.0436    0.0027
H         5.4267    3.1042    0.2032    0.0326    0.0267    0.0026
H         5.3215    5.6077    0.3106   -0.0013    0.0123    0.0006
H         3.1404    6.7843    0.3129    0.0056    0.0112    0.0008
H         7.8456   -2.8649    0.2681    0.0319    0.0344   -0.0036
    57
stable frequency at   1068.346 1/cm IR int. is 7.381 a.m.u.; force const. is 4.963 mDyne/Ang.
Fe        0.6742   -0.3860   -0.2512    0.0000    0.0001    0.0000
N         3.9155    0.5774    0.0034   -0.0062    0.0254    0.0001
N         1.6364   -3.6259    0.0222    0.0246    0.0087   -0.0001
N        -0.2400   -2.0716   -0.0762   -0.0809    0.0420   -0.0003
N        -1.0127    0.5279   -0.0841    0.0446    0.0827    0.0005
N         1.5882    1.2996   -0.0761    0.0796   -0.0447   -0.0003
N         2.3604   -1.2995   -0.0741   -0.0434   -0.0805    0.0005
N        -0.2889    2.8541    0.0151   -0.0240   -0.0076   -0.0001
N        -2.5678   -1.3490   -0.0039    0.0066   -0.0242    0.0001
C        -2.6318    2.2074    0.0858    0.0163   -0.0079   -0.0015
C        -1.2138    1.9066   -0.0003    0.0155   -0.0591   -0.0035
C         1.0023    2.5641    0.0125   -0.0192    0.0571    0.0037
C         2.0253    3.5896    0.1094    0.0111    0.0156    0.0018
C        -3.3042    0.9681    0.0767   -0.0154    0.0092    0.0015
C        -2.2782   -0.0563   -0.0113   -0.0578   -0.0192    0.0029
C        -0.6084   -5.7574    0.2030   -0.0137    0.0013   -0.0002
C        -3.1245   -4.3989    0.1900   -0.0097    0.0112    0.0000
C        -1.8131   -6.4652    0.2658    0.0119    0.0122   -0.0008
C        -4.7020    0.9019    0.1386    0.0014    0.0159    0.0003
C        -3.3382    3.4149    0.1551    0.0132    0.0101   -0.0003
C        -5.4086    2.1097    0.2138    0.0129   -0.0133   -0.0009
C        -3.0555   -5.7944    0.2587   -0.0053   -0.0170    0.0011
C        -1.6195   -2.2729    0.0041    0.0584    0.0151   -0.0033
C        -1.9182   -3.6908    0.1037    0.0071    0.0176   -0.0019
C         3.2652    2.9200    0.1027   -0.0073   -0.0146   -0.0017
C         2.9671    1.5014    0.0066   -0.0579   -0.0143   -0.0033
C        -4.7364    3.3486    0.2202   -0.0183    0.0047    0.0011
C         3.6255   -0.7151   -0.0006    0.0549    0.0179    0.0028
C         4.6513   -1.7396    0.0908    0.0149   -0.0127    0.0015
C         2.5611   -2.6780    0.0096   -0.0151    0.0558   -0.0033
C         3.9791   -2.9786    0.0994   -0.0190    0.0054   -0.0015
C        -0.6787   -4.3610    0.1117   -0.0080   -0.0141    0.0016
C         0.3451   -3.3358    0.0162    0.0196   -0.0563    0.0038
C         1.9538    4.9862    0.1974    0.0141   -0.0019   -0.0002
C         4.4707    3.6292    0.1907    0.0085   -0.0109   -0.0000
C         3.1581    5.6948    0.2620   -0.0117   -0.0132   -0.0009
C         4.4009    5.0247    0.2573    0.0046    0.0165    0.0011
C         6.0491   -1.6734    0.1498    0.0007   -0.0103    0.0002
C         4.6854   -4.1862    0.1668   -0.0094   -0.0053   -0.0003
C         6.7557   -2.8811    0.2249   -0.0143    0.0109   -0.0009
C         6.0835   -4.1199    0.2324    0.0171   -0.0068    0.0011
H         6.5636   -0.7119    0.1505    0.0118   -0.0179    0.0015
H         4.1595   -5.1415    0.1810   -0.0213   -0.0004   -0.0009
H         6.6636   -5.0424    0.2843    0.0704    0.0261    0.0020
H        -5.2165   -0.0595    0.1415   -0.0177    0.0280    0.0023
H        -2.8123    4.3701    0.1706    0.0334    0.0010   -0.0016
H        -5.3164    4.2710    0.2739   -0.0837   -0.0357    0.0024
H        -6.4984    2.0935    0.2595    0.0146   -0.0943   -0.0050
H         0.3559   -6.2665    0.2241   -0.0244   -0.0157    0.0019
H        -4.0801   -3.8731    0.2016   -0.0051    0.0231   -0.0014
H        -3.9765   -6.3769    0.3099    0.0309   -0.0754    0.0025
H        -1.7960   -7.5547    0.3185    0.0867    0.0139   -0.0035
H         0.9891    5.4946    0.2174    0.0215    0.0087    0.0014
H         5.4267    3.1042    0.2032    0.0007   -0.0282   -0.0018
H         5.3215    5.6077    0.3106   -0.0326    0.0762    0.0023
H         3.1404    6.7843    0.3129   -0.0838   -0.0149   -0.0036
H         7.8456   -2.8649    0.2681   -0.0157    0.0769   -0.0044
    57
stable frequency at   1073.883 1/cm IR int. is 2.535 a.m.u.; force const. is 1.722 mDyne/Ang.
Fe        0.6742   -0.3860   -0.2512   -0.0008   -0.0014    0.0000
N         3.9155    0.5774    0.0034    0.0020    0.0033    0.0004
N         1.6364   -3.6259    0.0222    0.0020    0.0032   -0.0004
N        -0.2400   -2.0716   -0.0762   -0.0021   -0.0213    0.0008
N        -1.0127    0.5279   -0.0841    0.0279    0.0570    0.0005
N         1.5882    1.2996   -0.0761   -0.0082   -0.0178   -0.0007
N         2.3604   -1.2995   -0.0741    0.0313    0.0628   -0.0005
N        -0.2889    2.8541    0.0151    0.0039    0.0038    0.0004
N        -2.5678   -1.3490   -0.0039    0.0017    0.0053   -0.0004
C        -2.6318    2.2074    0.0858   -0.0170   -0.0281   -0.0005
C        -1.2138    1.9066   -0.0003    0.0168   -0.0492   -0.0038
C         1.0023    2.5641    0.0125   -0.0056    0.0076   -0.0003
C         2.0253    3.5896    0.1094    0.0197    0.0129    0.0016
C        -3.3042    0.9681    0.0767   -0.0111   -0.0348   -0.0001
C        -2.2782   -0.0563   -0.0113   -0.0493   -0.0119    0.0035
C        -0.6084   -5.7574    0.2030    0.0089   -0.0072    0.0004
C        -3.1245   -4.3989    0.1900   -0.0031   -0.0030    0.0003
C        -1.8131   -6.4652    0.2658    0.0012   -0.0069    0.0004
C        -4.7020    0.9019    0.1386    0.0180    0.0646    0.0008
C        -3.3382    3.4149    0.1551    0.0476    0.0528   -0.0002
C        -5.4086    2.1097    0.2138   -0.0086   -0.0323   -0.0005
C        -3.0555   -5.7944    0.2587   -0.0089    0.0010    0.0003
C        -1.6195   -2.2729    0.0041    0.0019   -0.0023    0.0009
C        -1.9182   -3.6908    0.1037   -0.0034    0.0264   -0.0018
C         3.2652    2.9200    0.1027   -0.0028    0.0275    0.0019
C         2.9671    1.5014    0.0066    0.0065   -0.0011   -0.0006
C        -4.7364    3.3486    0.2202   -0.0233   -0.0183    0.0005
C         3.6255   -0.7151   -0.0006   -0.0532   -0.0133   -0.0037
C         4.6513   -1.7396    0.0908   -0.0122   -0.0336    0.0001
C         2.5611   -2.6780    0.0096    0.0178   -0.0532    0.0041
C         3.9791   -2.9786    0.0994   -0.0157   -0.0284    0.0005
C        -0.6787   -4.3610    0.1117    0.0204    0.0141   -0.0018
C         0.3451   -3.3358    0.0162   -0.0071    0.0120   -0.0001
C         1.9538    4.9862    0.1974    0.0075   -0.0071   -0.0003
C         4.4707    3.6292    0.1907   -0.0040   -0.0019   -0.0003
C         3.1581    5.6948    0.2620    0.0024   -0.0061   -0.0003
C         4.4009    5.0247    0.2573   -0.0093   -0.0004   -0.0003
C         6.0491   -1.6734    0.1498    0.0178    0.0651   -0.0008
C         4.6854   -4.1862    0.1668    0.0482    0.0531    0.0005
C         6.7557   -2.8811    0.2249   -0.0077   -0.0331    0.0008
C         6.0835   -4.1199    0.2324   -0.0245   -0.0176   -0.0010
H         6.5636   -0.7119    0.1505   -0.0976    0.1316   -0.0118
H         4.1595   -5.1415    0.1810    0.1587   -0.0023    0.0082
H         6.6636   -5.0424    0.2843   -0.1904   -0.1196   -0.0025
H        -5.2165   -0.0595    0.1415   -0.0976    0.1311    0.0116
H        -2.8123    4.3701    0.1706    0.1567   -0.0019   -0.0091
H        -5.3164    4.2710    0.2739   -0.1855   -0.1183    0.0062
H        -6.4984    2.0935    0.2595   -0.0045   -0.2411   -0.0088
H         0.3559   -6.2665    0.2241   -0.0129   -0.0505    0.0035
H        -4.0801   -3.8731    0.2016   -0.0342   -0.0590    0.0044
H        -3.9765   -6.3769    0.3099   -0.0328    0.0374   -0.0016
H        -1.7960   -7.5547    0.3185    0.0144   -0.0077   -0.0004
H         0.9891    5.4946    0.2174   -0.0152   -0.0520   -0.0036
H         5.4267    3.1042    0.2032   -0.0341   -0.0557   -0.0043
H         5.3215    5.6077    0.3106   -0.0300    0.0307    0.0012
H         3.1404    6.7843    0.3129    0.0226   -0.0066    0.0008
H         7.8456   -2.8649    0.2681   -0.0033   -0.2464    0.0085
    57
stable frequency at   1074.799 1/cm IR int. is 2.581 a.m.u.; force const. is 1.756 mDyne/Ang.
Fe        0.6742   -0.3860   -0.2512    0.0009   -0.0006    0.0000
N         3.9155    0.5774    0.0034   -0.0058    0.0040   -0.0004
N         1.6364   -3.6259    0.0222   -0.0065    0.0031   -0.0005
N        -0.2400   -2.0716   -0.0762   -0.0553    0.0270   -0.0001
N        -1.0127    0.5279   -0.0841    0.0224   -0.0074   -0.0009
N         1.5882    1.2996   -0.0761   -0.0557    0.0279   -0.0001
N         2.3604   -1.2995   -0.0741    0.0224   -0.0066    0.0009
N        -0.2889    2.8541    0.0151   -0.0062    0.0033    0.0004
N        -2.5678   -1.3490   -0.0039   -0.0059    0.0041    0.0003
C        -2.6318    2.2074    0.0858   -0.0303   -0.0036    0.0015
C        -1.2138    1.9066   -0.0003    0.0001    0.0041   -0.0007
C         1.0023    2.5641    0.0125    0.0137   -0.0509   -0.0039
C         2.0253    3.5896    0.1094    0.0364   -0.0111   -0.0004
C        -3.3042    0.9681    0.0767   -0.0148    0.0233    0.0018
C        -2.2782   -0.0563   -0.0113   -0.0098   -0.0045   -0.0004
C        -0.6084   -5.7574    0.2030   -0.0657    0.0200   -0.0004
C        -3.1245   -4.3989    0.1900   -0.0551    0.0466   -0.0001
C        -1.8131   -6.4652    0.2658    0.0315   -0.0099    0.0001
C        -4.7020    0.9019    0.1386    0.0074    0.0095   -0.0001
C        -3.3382    3.4149    0.1551    0.0019   -0.0046   -0.0002
C        -5.4086    2.1097    0.2138    0.0077    0.0013   -0.0004
C        -3.0555   -5.7944    0.2587    0.0196   -0.0213    0.0004
C        -1.6195   -2.2729    0.0041    0.0511    0.0160   -0.0036
C        -1.9182   -3.6908    0.1037    0.0293   -0.0198   -0.0006
C         3.2652    2.9200    0.1027    0.0294   -0.0202    0.0007
C         2.9671    1.5014    0.0066    0.0512    0.0161    0.0036
C        -4.7364    3.3486    0.2202    0.0004   -0.0100   -0.0003
C         3.6255   -0.7151   -0.0006   -0.0100   -0.0045    0.0003
C         4.6513   -1.7396    0.0908   -0.0148    0.0231   -0.0018
C         2.5611   -2.6780    0.0096    0.0002    0.0034    0.0007
C         3.9791   -2.9786    0.0994   -0.0299   -0.0036   -0.0015
C        -0.6787   -4.3610    0.1117    0.0370   -0.0107    0.0005
C         0.3451   -3.3358    0.0162    0.0134   -0.0501    0.0040
C         1.9538    4.9862    0.1974   -0.0660    0.0201    0.0003
C         4.4707    3.6292    0.1907   -0.0550    0.0466    0.0000
C         3.1581    5.6948    0.2620    0.0317   -0.0096    0.0000
C         4.4009    5.0247    0.2573    0.0197   -0.0214   -0.0004
C         6.0491   -1.6734    0.1498    0.0074    0.0096    0.0000
C         4.6854   -4.1862    0.1668    0.0019   -0.0045    0.0002
C         6.7557   -2.8811    0.2249    0.0078    0.0013    0.0004
C         6.0835   -4.1199    0.2324    0.0003   -0.0099    0.0003
H         6.5636   -0.7119    0.1505    0.0548   -0.0144    0.0026
H         4.1595   -5.1415    0.1810    0.0621   -0.0383    0.0040
H         6.6636   -5.0424    0.2843   -0.0353   -0.0334   -0.0006
H        -5.2165   -0.0595    0.1415    0.0553   -0.0147   -0.0028
H        -2.8123    4.3701    0.1706    0.0631   -0.0389   -0.0042
H        -5.3164    4.2710    0.2739   -0.0353   -0.0335    0.0007
H        -6.4984    2.0935    0.2595    0.0085    0.0185    0.0003
H         0.3559   -6.2665    0.2241   -0.1305   -0.0936    0.0078
H        -4.0801   -3.8731    0.2016   -0.0019    0.1527   -0.0085
H        -3.9765   -6.3769    0.3099    0.1199   -0.1830    0.0074
H        -1.7960   -7.5547    0.3185    0.2403   -0.0054   -0.0056
H         0.9891    5.4946    0.2174   -0.1302   -0.0926   -0.0080
H         5.4267    3.1042    0.2032   -0.0011    0.1542    0.0083
H         5.3215    5.6077    0.3106    0.1206   -0.1838   -0.0068
H         3.1404    6.7843    0.3129    0.2410   -0.0050    0.0062
H         7.8456   -2.8649    0.2681    0.0086    0.0180   -0.0002
    57
stable frequency at   1085.378 1/cm IR int. is 1.932 a.m.u.; force const. is 1.341 mDyne/Ang.
Fe        0.6742   -0.3860   -0.2512    0.0000   -0.0000    0.0000
N         3.9155    0.5774    0.0034   -0.0070    0.0226    0.0002
N         1.6364   -3.6259    0.0222    0.0227    0.0065   -0.0002
N        -0.2400   -2.0716   -0.0762   -0.0323    0.0177   -0.0002
N        -1.0127    0.5279   -0.0841    0.0049    0.0079    0.0000
N         1.5882    1.2996   -0.0761    0.0320   -0.0179   -0.0001
N         2.3604   -1.2995   -0.0741   -0.0048   -0.0076   -0.0000
N        -0.2889    2.8541    0.0151   -0.0227   -0.0065   -0.0003
N        -2.5678   -1.3490   -0.0039    0.0069   -0.0226    0.0003
C        -2.6318    2.2074    0.0858    0.0256    0.0257   -0.0006
C        -1.2138    1.9066   -0.0003   -0.0170   -0.0013    0.0012
C         1.0023    2.5641    0.0125   -0.0117    0.0136    0.0006
C         2.0253    3.5896    0.1094    0.0275    0.0022    0.0011
C        -3.3042    0.9681    0.0767    0.0072    0.0364    0.0009
C        -2.2782   -0.0563   -0.0113    0.0081   -0.0150   -0.0013
C        -0.6084   -5.7574    0.2030    0.0313   -0.0094   -0.0000
C        -3.1245   -4.3989    0.1900    0.0256   -0.0221    0.0003
C        -1.8131   -6.4652    0.2658   -0.0124    0.0126   -0.0005
C        -4.7020    0.9019    0.1386   -0.0118   -0.0627   -0.0012
C        -3.3382    3.4149    0.1551   -0.0485   -0.0456    0.0007
C        -5.4086    2.1097    0.2138    0.0110    0.0312    0.0003
C        -3.0555   -5.7944    0.2587   -0.0154    0.0035    0.0005
C        -1.6195   -2.2729    0.0041    0.0178   -0.0025   -0.0004
C        -1.9182   -3.6908    0.1037   -0.0133    0.0239   -0.0012
C         3.2652    2.9200    0.1027    0.0133   -0.0236   -0.0011
C         2.9671    1.5014    0.0066   -0.0176    0.0026   -0.0004
C        -4.7364    3.3486    0.2202    0.0205    0.0220   -0.0000
C         3.6255   -0.7151   -0.0006   -0.0083    0.0148   -0.0013
C         4.6513   -1.7396    0.0908   -0.0071   -0.0366    0.0011
C         2.5611   -2.6780    0.0096    0.0171    0.0011    0.0013
C         3.9791   -2.9786    0.0994   -0.0257   -0.0258   -0.0007
C        -0.6787   -4.3610    0.1117   -0.0273   -0.0021    0.0010
C         0.3451   -3.3358    0.0162    0.0116   -0.0135    0.0006
C         1.9538    4.9862    0.1974   -0.0312    0.0093   -0.0001
C         4.4707    3.6292    0.1907   -0.0257    0.0221    0.0002
C         3.1581    5.6948    0.2620    0.0125   -0.0127   -0.0005
C         4.4009    5.0247    0.2573    0.0153   -0.0036    0.0005
C         6.0491   -1.6734    0.1498    0.0119    0.0628   -0.0013
C         4.6854   -4.1862    0.1668    0.0486    0.0458    0.0007
C         6.7557   -2.8811    0.2249   -0.0111   -0.0312    0.0004
C         6.0835   -4.1199    0.2324   -0.0205   -0.0220   -0.0001
H         6.5636   -0.7119    0.1505   -0.1438    0.1509   -0.0139
H         4.1595   -5.1415    0.1810    0.2062   -0.0359    0.0123
H         6.6636   -5.0424    0.2843   -0.1887   -0.1262   -0.0073
H        -5.2165   -0.0595    0.1415    0.1440   -0.1509   -0.0138
H        -2.8123    4.3701    0.1706   -0.2061    0.0360    0.0122
H        -5.3164    4.2710    0.2739    0.1888    0.1262   -0.0072
H        -6.4984    2.0935    0.2595    0.0069    0.2408    0.0090
H         0.3559   -6.2665    0.2241    0.0746    0.0689   -0.0051
H        -4.0801   -3.8731    0.2016   -0.0157   -0.1011    0.0060
H        -3.9765   -6.3769    0.3099   -0.0592    0.0738   -0.0038
H        -1.7960   -7.5547    0.3185   -0.1006    0.0107    0.0019
H         0.9891    5.4946    0.2174   -0.0749   -0.0697   -0.0052
H         5.4267    3.1042    0.2032    0.0153    0.1007    0.0059
H         5.3215    5.6077    0.3106    0.0590   -0.0736   -0.0036
H         3.1404    6.7843    0.3129    0.1012   -0.0108    0.0021
H         7.8456   -2.8649    0.2681   -0.0070   -0.2411    0.0092
    57
stable frequency at   1088.386 1/cm IR int. is 1.855 a.m.u.; force const. is 1.294 mDyne/Ang.
Fe        0.6742   -0.3860   -0.2512   -0.0000    0.0000   -0.0000
N         3.9155    0.5774    0.0034   -0.0021    0.0089   -0.0004
N         1.6364   -3.6259    0.0222    0.0085    0.0030    0.0003
N        -0.2400   -2.0716   -0.0762    0.0261   -0.0134    0.0001
N        -1.0127    0.5279   -0.0841    0.0217    0.0399    0.0003
N         1.5882    1.2996   -0.0761   -0.0258    0.0135   -0.0000
N         2.3604   -1.2995   -0.0741   -0.0222   -0.0408    0.0003
N        -0.2889    2.8541    0.0151   -0.0085   -0.0028    0.0003
N        -2.5678   -1.3490   -0.0039    0.0022   -0.0087   -0.0004
C        -2.6318    2.2074    0.0858    0.0065   -0.0096   -0.0007
C        -1.2138    1.9066   -0.0003    0.0162   -0.0257   -0.0021
C         1.0023    2.5641    0.0125   -0.0093   -0.0295   -0.0026
C         2.0253    3.5896    0.1094    0.0240   -0.0137   -0.0004
C        -3.3042    0.9681    0.0767   -0.0118    0.0003    0.0007
C        -2.2782   -0.0563   -0.0113   -0.0303   -0.0003    0.0019
C        -0.6084   -5.7574    0.2030    0.0597   -0.0081   -0.0003
C        -3.1245   -4.3989    0.1900    0.0406   -0.0471    0.0008
C        -1.8131   -6.4652    0.2658   -0.0324    0.0020    0.0003
C        -4.7020    0.9019    0.1386   -0.0005    0.0248    0.0007
C        -3.3382    3.4149    0.1551    0.0219    0.0136   -0.0006
C        -5.4086    2.1097    0.2138    0.0068   -0.0168   -0.0008
C        -3.0555   -5.7944    0.2587   -0.0161    0.0259   -0.0007
C        -1.6195   -2.2729    0.0041   -0.0198   -0.0241    0.0026
C        -1.9182   -3.6908    0.1037   -0.0245    0.0122    0.0002
C         3.2652    2.9200    0.1027    0.0245   -0.0126    0.0003
C         2.9671    1.5014    0.0066    0.0194    0.0241    0.0025
C        -4.7364    3.3486    0.2202   -0.0179   -0.0020    0.0008
C         3.6255   -0.7151   -0.0006    0.0308    0.0005    0.0020
C         4.6513   -1.7396    0.0908    0.0120   -0.0004    0.0007
C         2.5611   -2.6780    0.0096   -0.0164    0.0262   -0.0022
C         3.9791   -2.9786    0.0994   -0.0066    0.0097   -0.0007
C        -0.6787   -4.3610    0.1117   -0.0243    0.0135   -0.0004
C         0.3451   -3.3358    0.0162    0.0096    0.0294   -0.0026
C         1.9538    4.9862    0.1974   -0.0597    0.0082   -0.0004
C         4.4707    3.6292    0.1907   -0.0405    0.0471    0.0007
C         3.1581    5.6948    0.2620    0.0324   -0.0019    0.0003
C         4.4009    5.0247    0.2573    0.0162   -0.0258   -0.0006
C         6.0491   -1.6734    0.1498    0.0005   -0.0250    0.0007
C         4.6854   -4.1862    0.1668   -0.0221   -0.0137   -0.0006
C         6.7557   -2.8811    0.2249   -0.0069    0.0170   -0.0008
C         6.0835   -4.1199    0.2324    0.0180    0.0019    0.0008
H         6.5636   -0.7119    0.1505    0.0623   -0.0606    0.0057
H         4.1595   -5.1415    0.1810   -0.0859    0.0187   -0.0048
H         6.6636   -5.0424    0.2843    0.1072    0.0573    0.0042
H        -5.2165   -0.0595    0.1415   -0.0619    0.0602    0.0057
H        -2.8123    4.3701    0.1706    0.0851   -0.0186   -0.0048
H        -5.3164    4.2710    0.2739   -0.1064   -0.0569    0.0037
H        -6.4984    2.0935    0.2595    0.0090   -0.1263   -0.0056
H         0.3559   -6.2665    0.2241    0.1443    0.1423   -0.0115
H        -4.0801   -3.8731    0.2016   -0.0362   -0.1965    0.0124
H        -3.9765   -6.3769    0.3099   -0.1268    0.2032   -0.0089
H        -1.7960   -7.5547    0.3185   -0.2540   -0.0026    0.0070
H         0.9891    5.4946    0.2174   -0.1438   -0.1414   -0.0115
H         5.4267    3.1042    0.2032    0.0367    0.1975    0.0122
H         5.3215    5.6077    0.3106    0.1271   -0.2033   -0.0084
H         3.1404    6.7843    0.3129    0.2537    0.0028    0.0076
H         7.8456   -2.8649    0.2681   -0.0090    0.1276   -0.0058
    57
stable frequency at   1111.489 1/cm IR int. is 1.805 a.m.u.; force const. is 1.314 mDyne/Ang.
Fe        0.6742   -0.3860   -0.2512   -0.0010   -0.0013    0.0000
N         3.9155    0.5774    0.0034   -0.0039    0.0034    0.0003
N         1.6364   -3.6259    0.0222    0.0063    0.0001   -0.0002
N        -0.2400   -2.0716   -0.0762    0.0194    0.0477   -0.0037
N        -1.0127    0.5279   -0.0841   -0.0057   -0.0296   -0.0007
N         1.5882    1.2996   -0.0761    0.0201    0.0474    0.0036
N         2.3604   -1.2995   -0.0741   -0.0062   -0.0301    0.0007
N        -0.2889    2.8541    0.0151    0.0060   -0.0000    0.0002
N        -2.5678   -1.3490   -0.0039   -0.0037    0.0030   -0.0003
C        -2.6318    2.2074    0.0858   -0.0064   -0.0036    0.0006
C        -1.2138    1.9066   -0.0003    0.0140    0.0307    0.0009
C         1.0023    2.5641    0.0125    0.0102   -0.0161   -0.0004
C         2.0253    3.5896    0.1094   -0.0562   -0.0318   -0.0041
C        -3.3042    0.9681    0.0767   -0.0109    0.0126    0.0007
C        -2.2782   -0.0563   -0.0113    0.0135    0.0270   -0.0007
C        -0.6084   -5.7574    0.2030   -0.0131    0.0136   -0.0006
C        -3.1245   -4.3989    0.1900    0.0179   -0.0102   -0.0000
C        -1.8131   -6.4652    0.2658   -0.0171    0.0199   -0.0007
C        -4.7020    0.9019    0.1386   -0.0084    0.0247    0.0012
C        -3.3382    3.4149    0.1551    0.0234    0.0008   -0.0011
C        -5.4086    2.1097    0.2138    0.0087   -0.0163   -0.0008
C        -3.0555   -5.7944    0.2587    0.0251    0.0019   -0.0010
C        -1.6195   -2.2729    0.0041   -0.0083   -0.0049   -0.0001
C        -1.9182   -3.6908    0.1037    0.0036   -0.0673    0.0046
C         3.2652    2.9200    0.1027    0.0037   -0.0678   -0.0046
C         2.9671    1.5014    0.0066   -0.0088   -0.0049    0.0001
C        -4.7364    3.3486    0.2202   -0.0177   -0.0085    0.0005
C         3.6255   -0.7151   -0.0006    0.0138    0.0272    0.0006
C         4.6513   -1.7396    0.0908   -0.0107    0.0121   -0.0006
C         2.5611   -2.6780    0.0096    0.0141    0.0310   -0.0009
C         3.9791   -2.9786    0.0994   -0.0065   -0.0037   -0.0006
C        -0.6787   -4.3610    0.1117   -0.0567   -0.0319    0.0041
C         0.3451   -3.3358    0.0162    0.0103   -0.0164    0.0004
C         1.9538    4.9862    0.1974   -0.0130    0.0138    0.0006
C         4.4707    3.6292    0.1907    0.0178   -0.0104    0.0000
C         3.1581    5.6948    0.2620   -0.0173    0.0196    0.0006
C         4.4009    5.0247    0.2573    0.0252    0.0022    0.0010
C         6.0491   -1.6734    0.1498   -0.0083    0.0247   -0.0012
C         4.6854   -4.1862    0.1668    0.0236    0.0010    0.0011
C         6.7557   -2.8811    0.2249    0.0084   -0.0164    0.0008
C         6.0835   -4.1199    0.2324   -0.0177   -0.0085   -0.0004
H         6.5636   -0.7119    0.1505   -0.1077    0.0810   -0.0079
H         4.1595   -5.1415    0.1810    0.1850   -0.0852    0.0116
H         6.6636   -5.0424    0.2843   -0.1389   -0.0846   -0.0063
H        -5.2165   -0.0595    0.1415   -0.1067    0.0804    0.0081
H        -2.8123    4.3701    0.1706    0.1851   -0.0856   -0.0112
H        -5.3164    4.2710    0.2739   -0.1394   -0.0849    0.0050
H        -6.4984    2.0935    0.2595    0.0110   -0.1136   -0.0054
H         0.3559   -6.2665    0.2241    0.0953    0.2209   -0.0161
H        -4.0801   -3.8731    0.2016    0.1112    0.1559   -0.0129
H        -3.9765   -6.3769    0.3099    0.1044   -0.1180    0.0058
H        -1.7960   -7.5547    0.3185   -0.1941    0.0198    0.0034
H         0.9891    5.4946    0.2174    0.0958    0.2223    0.0160
H         5.4267    3.1042    0.2032    0.1104    0.1546    0.0131
H         5.3215    5.6077    0.3106    0.1040   -0.1166   -0.0054
H         3.1404    6.7843    0.3129   -0.1959    0.0194   -0.0037
H         7.8456   -2.8649    0.2681    0.0107   -0.1146    0.0058
    57
stable frequency at   1112.433 1/cm IR int. is 1.797 a.m.u.; force const. is 1.310 mDyne/Ang.
Fe        0.6742   -0.3860   -0.2512    0.0013   -0.0010    0.0000
N         3.9155    0.5774    0.0034   -0.0001    0.0063   -0.0002
N         1.6364   -3.6259    0.0222   -0.0035   -0.0039   -0.0002
N        -0.2400   -2.0716   -0.0762    0.0279   -0.0044   -0.0006
N        -1.0127    0.5279   -0.0841   -0.0481    0.0200    0.0032
N         1.5882    1.2996   -0.0761    0.0279   -0.0046    0.0007
N         2.3604   -1.2995   -0.0741   -0.0471    0.0193   -0.0032
N        -0.2889    2.8541    0.0151   -0.0037   -0.0040    0.0002
N        -2.5678   -1.3490   -0.0039   -0.0000    0.0065    0.0002
C        -2.6318    2.2074    0.0858    0.0680    0.0039   -0.0034
C        -1.2138    1.9066   -0.0003    0.0053   -0.0082    0.0002
C         1.0023    2.5641    0.0125   -0.0269    0.0117    0.0006
C         2.0253    3.5896    0.1094   -0.0116   -0.0113   -0.0008
C        -3.3042    0.9681    0.0767    0.0319   -0.0574   -0.0038
C        -2.2782   -0.0563   -0.0113    0.0163    0.0100    0.0000
C        -0.6084   -5.7574    0.2030   -0.0261   -0.0074    0.0008
C        -3.1245   -4.3989    0.1900   -0.0022    0.0244   -0.0012
C        -1.8131   -6.4652    0.2658    0.0165    0.0084   -0.0006
C        -4.7020    0.9019    0.1386   -0.0132   -0.0145    0.0000
C        -3.3382    3.4149    0.1551    0.0110    0.0177   -0.0001
C        -5.4086    2.1097    0.2138   -0.0205   -0.0159    0.0005
C        -3.0555   -5.7944    0.2587    0.0091   -0.0181    0.0006
C        -1.6195   -2.2729    0.0041   -0.0294    0.0149    0.0004
C        -1.9182   -3.6908    0.1037    0.0044   -0.0073    0.0008
C         3.2652    2.9200    0.1027    0.0045   -0.0074   -0.0008
C         2.9671    1.5014    0.0066   -0.0290    0.0149   -0.0005
C        -4.7364    3.3486    0.2202   -0.0028    0.0254    0.0012
C         3.6255   -0.7151   -0.0006    0.0161    0.0101    0.0000
C         4.6513   -1.7396    0.0908    0.0315   -0.0564    0.0037
C         2.5611   -2.6780    0.0096    0.0050   -0.0079   -0.0002
C         3.9791   -2.9786    0.0994    0.0671    0.0038    0.0034
C        -0.6787   -4.3610    0.1117   -0.0117   -0.0114    0.0008
C         0.3451   -3.3358    0.0162   -0.0266    0.0113   -0.0007
C         1.9538    4.9862    0.1974   -0.0260   -0.0074   -0.0009
C         4.4707    3.6292    0.1907   -0.0023    0.0244    0.0011
C         3.1581    5.6948    0.2620    0.0165    0.0083    0.0006
C         4.4009    5.0247    0.2573    0.0091   -0.0180   -0.0005
C         6.0491   -1.6734    0.1498   -0.0132   -0.0143   -0.0000
C         4.6854   -4.1862    0.1668    0.0109    0.0175    0.0001
C         6.7557   -2.8811    0.2249   -0.0203   -0.0159   -0.0005
C         6.0835   -4.1199    0.2324   -0.0027    0.0252   -0.0011
H         6.5636   -0.7119    0.1505   -0.2146    0.0918   -0.0131
H         4.1595   -5.1415    0.1810   -0.1536    0.1100   -0.0110
H         6.6636   -5.0424    0.2843    0.1171    0.1039    0.0035
H        -5.2165   -0.0595    0.1415   -0.2168    0.0928    0.0137
H        -2.8123    4.3701    0.1706   -0.1563    0.1118    0.0116
H        -5.3164    4.2710    0.2739    0.1186    0.1052   -0.0040
H        -6.4984    2.0935    0.2595   -0.0208   -0.1906   -0.0050
H         0.3559   -6.2665    0.2241   -0.0828   -0.1083    0.0085
H        -4.0801   -3.8731    0.2016    0.0863    0.1904   -0.0137
H        -3.9765   -6.3769    0.3099    0.0899   -0.1459    0.0064
H        -1.7960   -7.5547    0.3185    0.1191    0.0109   -0.0042
H         0.9891    5.4946    0.2174   -0.0826   -0.1084   -0.0085
H         5.4267    3.1042    0.2032    0.0857    0.1898    0.0134
H         5.3215    5.6077    0.3106    0.0894   -0.1450   -0.0062
H         3.1404    6.7843    0.3129    0.1193    0.0109    0.0043
H         7.8456   -2.8649    0.2681   -0.0205   -0.1888    0.0050
    57
stable frequency at   1118.360 1/cm IR int. is 2.322 a.m.u.; force const. is 1.711 mDyne/Ang.
Fe        0.6742   -0.3860   -0.2512   -0.0000    0.0000   -0.0005
N         3.9155    0.5774    0.0034   -0.0053   -0.0017    0.0010
N         1.6364   -3.6259    0.0222   -0.0016    0.0053    0.0008
N        -0.2400   -2.0716   -0.0762   -0.0257   -0.0484    0.0043
N        -1.0127    0.5279   -0.0841   -0.0480    0.0263    0.0038
N         1.5882    1.2996   -0.0761    0.0259    0.0485    0.0043
N         2.3604   -1.2995   -0.0741    0.0481   -0.0267    0.0039
N        -0.2889    2.8541    0.0151    0.0013   -0.0051    0.0008
N        -2.5678   -1.3490   -0.0039    0.0051    0.0019    0.0010
C        -2.6318    2.2074    0.0858    0.0591    0.0067   -0.0028
C        -1.2138    1.9066   -0.0003    0.0180    0.0022   -0.0007
C         1.0023    2.5641    0.0125   -0.0163   -0.0081   -0.0010
C         2.0253    3.5896    0.1094   -0.0527   -0.0265   -0.0034
C        -3.3042    0.9681    0.0767    0.0262   -0.0536   -0.0031
C        -2.2782   -0.0563   -0.0113    0.0074   -0.0163   -0.0007
C        -0.6084   -5.7574    0.2030    0.0186   -0.0074    0.0002
C        -3.1245   -4.3989    0.1900   -0.0154    0.0101    0.0000
C        -1.8131   -6.4652    0.2658    0.0047   -0.0181    0.0008
C        -4.7020    0.9019    0.1386   -0.0070   -0.0189   -0.0004
C        -3.3382    3.4149    0.1551    0.0109    0.0153   -0.0001
C        -5.4086    2.1097    0.2138   -0.0182   -0.0037    0.0007
C        -3.0555   -5.7944    0.2587   -0.0182   -0.0053    0.0009
C        -1.6195   -2.2729    0.0041   -0.0027    0.0177   -0.0010
C        -1.9182   -3.6908    0.1037   -0.0067    0.0589   -0.0039
C         3.2652    2.9200    0.1027    0.0069   -0.0595   -0.0038
C         2.9671    1.5014    0.0066    0.0029   -0.0178   -0.0009
C        -4.7364    3.3486    0.2202   -0.0063    0.0178    0.0010
C         3.6255   -0.7151   -0.0006   -0.0073    0.0165   -0.0008
C         4.6513   -1.7396    0.0908   -0.0264    0.0539   -0.0032
C         2.5611   -2.6780    0.0096   -0.0181   -0.0022   -0.0008
C         3.9791   -2.9786    0.0994   -0.0595   -0.0066   -0.0028
C        -0.6787   -4.3610    0.1117    0.0531    0.0265   -0.0034
C         0.3451   -3.3358    0.0162    0.0165    0.0079   -0.0009
C         1.9538    4.9862    0.1974   -0.0185    0.0078    0.0002
C         4.4707    3.6292    0.1907    0.0152   -0.0105    0.0000
C         3.1581    5.6948    0.2620   -0.0050    0.0180    0.0008
C         4.4009    5.0247    0.2573    0.0183    0.0057    0.0009
C         6.0491   -1.6734    0.1498    0.0071    0.0190   -0.0004
C         4.6854   -4.1862    0.1668   -0.0109   -0.0156   -0.0001
C         6.7557   -2.8811    0.2249    0.0183    0.0038    0.0008
C         6.0835   -4.1199    0.2324    0.0064   -0.0179    0.0009
H         6.5636   -0.7119    0.1505    0.1638   -0.0627    0.0098
H         4.1595   -5.1415    0.1810    0.1514   -0.1067    0.0104
H         6.6636   -5.0424    0.2843   -0.0915   -0.0822   -0.0005
H        -5.2165   -0.0595    0.1415   -0.1627    0.0623    0.0102
H        -2.8123    4.3701    0.1706   -0.1506    0.1060    0.0103
H        -5.3164    4.2710    0.2739    0.0911    0.0819   -0.0029
H        -6.4984    2.0935    0.2595   -0.0190   -0.1133   -0.0023
H         0.3559   -6.2665    0.2241   -0.0636   -0.1663    0.0118
H        -4.0801   -3.8731    0.2016   -0.1067   -0.1529    0.0125
H        -3.9765   -6.3769    0.3099   -0.0852    0.0960   -0.0041
H        -1.7960   -7.5547    0.3185    0.1182   -0.0187   -0.0009
H         0.9891    5.4946    0.2174    0.0647    0.1689    0.0119
H         5.4267    3.1042    0.2032    0.1053    0.1506    0.0125
H         5.3215    5.6077    0.3106    0.0843   -0.0939   -0.0037
H         3.1404    6.7843    0.3129   -0.1200    0.0185   -0.0012
H         7.8456   -2.8649    0.2681    0.0191    0.1140   -0.0027
    57
stable frequency at   1135.391 1/cm IR int. is 1.366 a.m.u.; force const. is 1.037 mDyne/Ang.
Fe        0.6742   -0.3860   -0.2512   -0.0001    0.0001    0.0000
N         3.9155    0.5774    0.0034   -0.0031    0.0100    0.0000
N         1.6364   -3.6259    0.0222   -0.0098   -0.0031    0.0000
N        -0.2400   -2.0716   -0.0762   -0.0170   -0.0328    0.0050
N        -1.0127    0.5279   -0.0841    0.0336   -0.0182   -0.0050
N         1.5882    1.2996   -0.0761    0.0181    0.0320    0.0049
N         2.3604   -1.2995   -0.0741   -0.0336    0.0183   -0.0047
N        -0.2889    2.8541    0.0151    0.0094    0.0033    0.0001
N        -2.5678   -1.3490   -0.0039    0.0027   -0.0099    0.0001
C        -2.6318    2.2074    0.0858   -0.0350   -0.0045    0.0018
C        -1.2138    1.9066   -0.0003   -0.0010    0.0173    0.0012
C         1.0023    2.5641    0.0125    0.0094   -0.0152   -0.0012
C         2.0253    3.5896    0.1094   -0.0298   -0.0143   -0.0021
C        -3.3042    0.9681    0.0767   -0.0150    0.0323    0.0020
C        -2.2782   -0.0563   -0.0113   -0.0151   -0.0088    0.0010
C        -0.6084   -5.7574    0.2030    0.0121   -0.0049   -0.0001
C        -3.1245   -4.3989    0.1900   -0.0094    0.0065   -0.0002
C        -1.8131   -6.4652    0.2658    0.0153   -0.0121    0.0003
C        -4.7020    0.9019    0.1386    0.0044    0.0131    0.0004
C        -3.3382    3.4149    0.1551   -0.0075   -0.0100    0.0001
C        -5.4086    2.1097    0.2138    0.0131    0.0138   -0.0002
C        -3.0555   -5.7944    0.2587   -0.0188    0.0065    0.0002
C        -1.6195   -2.2729    0.0041    0.0175    0.0001   -0.0009
C        -1.9182   -3.6908    0.1037   -0.0045    0.0337   -0.0024
C         3.2652    2.9200    0.1027    0.0046   -0.0338   -0.0022
C         2.9671    1.5014    0.0066   -0.0177   -0.0001   -0.0011
C        -4.7364    3.3486    0.2202   -0.0051   -0.0187   -0.0005
C         3.6255   -0.7151   -0.0006    0.0152    0.0092    0.0010
C         4.6513   -1.7396    0.0908    0.0152   -0.0325    0.0019
C         2.5611   -2.6780    0.0096    0.0007   -0.0177    0.0011
C         3.9791   -2.9786    0.0994    0.0354    0.0044    0.0017
C        -0.6787   -4.3610    0.1117    0.0303    0.0145   -0.0019
C         0.3451   -3.3358    0.0162   -0.0096    0.0155   -0.0014
C         1.9538    4.9862    0.1974   -0.0121    0.0050   -0.0001
C         4.4707    3.6292    0.1907    0.0093   -0.0065   -0.0002
C         3.1581    5.6948    0.2620   -0.0154    0.0119    0.0002
C         4.4009    5.0247    0.2573    0.0189   -0.0064    0.0003
C         6.0491   -1.6734    0.1498   -0.0045   -0.0132    0.0004
C         4.6854   -4.1862    0.1668    0.0074    0.0102    0.0001
C         6.7557   -2.8811    0.2249   -0.0133   -0.0144   -0.0003
C         6.0835   -4.1199    0.2324    0.0054    0.0192   -0.0001
H         6.5636   -0.7119    0.1505   -0.1767    0.0782   -0.0110
H         4.1595   -5.1415    0.1810   -0.1709    0.1087   -0.0106
H         6.6636   -5.0424    0.2843    0.1845    0.1337    0.0006
H        -5.2165   -0.0595    0.1415    0.1735   -0.0767   -0.0111
H        -2.8123    4.3701    0.1706    0.1679   -0.1069   -0.0112
H        -5.3164    4.2710    0.2739   -0.1798   -0.1309    0.0054
H        -6.4984    2.0935    0.2595    0.0121    0.2136    0.0062
H         0.3559   -6.2665    0.2241   -0.0791   -0.1780    0.0132
H        -4.0801   -3.8731    0.2016   -0.1065   -0.1697    0.0136
H        -3.9765   -6.3769    0.3099   -0.1342    0.1853   -0.0070
H        -1.7960   -7.5547    0.3185    0.2212   -0.0107   -0.0041
H         0.9891    5.4946    0.2174    0.0791    0.1784    0.0130
H         5.4267    3.1042    0.2032    0.1059    0.1693    0.0135
H         5.3215    5.6077    0.3106    0.1344   -0.1852   -0.0070
H         3.1404    6.7843    0.3129   -0.2219    0.0104   -0.0041
H         7.8456   -2.8649    0.2681   -0.0123   -0.2185    0.0071
    57
stable frequency at   1150.400 1/cm IR int. is 1.377 a.m.u.; force const. is 1.074 mDyne/Ang.
Fe        0.6742   -0.3860   -0.2512    0.0003    0.0003    0.0000
N         3.9155    0.5774    0.0034    0.0022    0.0023   -0.0003
N         1.6364   -3.6259    0.0222    0.0007    0.0021    0.0000
N        -0.2400   -2.0716   -0.0762   -0.0069   -0.0323    0.0026
N        -1.0127    0.5279   -0.0841    0.0035    0.0304    0.0009
N         1.5882    1.2996   -0.0761   -0.0078   -0.0333   -0.0027
N         2.3604   -1.2995   -0.0741    0.0030    0.0309   -0.0010
N        -0.2889    2.8541    0.0151    0.0008    0.0022   -0.0000
N        -2.5678   -1.3490   -0.0039    0.0021    0.0026    0.0002
C        -2.6318    2.2074    0.0858   -0.0078   -0.0126   -0.0003
C        -1.2138    1.9066   -0.0003    0.0051   -0.0330   -0.0021
C         1.0023    2.5641    0.0125   -0.0003    0.0231    0.0016
C         2.0253    3.5896    0.1094    0.0170    0.0191    0.0018
C        -3.3042    0.9681    0.0767    0.0071   -0.0291   -0.0011
C        -2.2782   -0.0563   -0.0113   -0.0193   -0.0164    0.0013
C        -0.6084   -5.7574    0.2030    0.0097   -0.0011    0.0004
C        -3.1245   -4.3989    0.1900    0.0004    0.0151   -0.0004
C        -1.8131   -6.4652    0.2658   -0.0316   -0.0038    0.0009
C        -4.7020    0.9019    0.1386    0.0190   -0.0045   -0.0010
C        -3.3382    3.4149    0.1551   -0.0060    0.0146    0.0008
C        -5.4086    2.1097    0.2138   -0.0099    0.0221    0.0010
C        -3.0555   -5.7944    0.2587    0.0137   -0.0370    0.0017
C        -1.6195   -2.2729    0.0041    0.0016    0.0126   -0.0006
C        -1.9182   -3.6908    0.1037    0.0005    0.0336   -0.0021
C         3.2652    2.9200    0.1027    0.0006    0.0350    0.0022
C         2.9671    1.5014    0.0066    0.0020    0.0132    0.0006
C        -4.7364    3.3486    0.2202    0.0008   -0.0069   -0.0003
C         3.6255   -0.7151   -0.0006   -0.0192   -0.0169   -0.0013
C         4.6513   -1.7396    0.0908    0.0076   -0.0296    0.0012
C         2.5611   -2.6780    0.0096    0.0054   -0.0329    0.0021
C         3.9791   -2.9786    0.0994   -0.0067   -0.0125    0.0003
C        -0.6787   -4.3610    0.1117    0.0162    0.0185   -0.0018
C         0.3451   -3.3358    0.0162   -0.0008    0.0228   -0.0016
C         1.9538    4.9862    0.1974    0.0101   -0.0011   -0.0003
C         4.4707    3.6292    0.1907    0.0003    0.0157    0.0004
C         3.1581    5.6948    0.2620   -0.0327   -0.0039   -0.0009
C         4.4009    5.0247    0.2573    0.0141   -0.0383   -0.0016
C         6.0491   -1.6734    0.1498    0.0190   -0.0048    0.0010
C         4.6854   -4.1862    0.1668   -0.0057    0.0146   -0.0008
C         6.7557   -2.8811    0.2249   -0.0099    0.0229   -0.0011
C         6.0835   -4.1199    0.2324   -0.0001   -0.0072    0.0002
H         6.5636   -0.7119    0.1505    0.1496   -0.0770    0.0095
H         4.1595   -5.1415    0.1810   -0.0723    0.0511   -0.0046
H         6.6636   -5.0424    0.2843   -0.0483   -0.0374   -0.0013
H        -5.2165   -0.0595    0.1415    0.1485   -0.0760   -0.0097
H        -2.8123    4.3701    0.1706   -0.0746    0.0521    0.0048
H        -5.3164    4.2710    0.2739   -0.0412   -0.0333    0.0013
H        -6.4984    2.0935    0.2595   -0.0124    0.1862    0.0074
H         0.3559   -6.2665    0.2241    0.0453    0.0613   -0.0059
H        -4.0801   -3.8731    0.2016    0.0701    0.1484   -0.0117
H        -3.9765   -6.3769    0.3099    0.1895   -0.3153    0.0123
H        -1.7960   -7.5547    0.3185   -0.3148   -0.0085    0.0082
H         0.9891    5.4946    0.2174    0.0466    0.0632    0.0061
H         5.4267    3.1042    0.2032    0.0710    0.1513    0.0119
H         5.3215    5.6077    0.3106    0.1953   -0.3247   -0.0119
H         3.1404    6.7843    0.3129   -0.3244   -0.0090   -0.0090
H         7.8456   -2.8649    0.2681   -0.0126    0.1935   -0.0077
    57
stable frequency at   1150.446 1/cm IR int. is 1.367 a.m.u.; force const. is 1.066 mDyne/Ang.
Fe        0.6742   -0.3860   -0.2512    0.0003   -0.0003   -0.0000
N         3.9155    0.5774    0.0034    0.0019   -0.0008   -0.0001
N         1.6364   -3.6259    0.0222    0.0018   -0.0023   -0.0002
N        -0.2400   -2.0716   -0.0762    0.0298   -0.0018   -0.0009
N        -1.0127    0.5279   -0.0841   -0.0335    0.0072    0.0023
N         1.5882    1.2996   -0.0761    0.0295   -0.0026    0.0009
N         2.3604   -1.2995   -0.0741   -0.0325    0.0065   -0.0023
N        -0.2889    2.8541    0.0151    0.0015   -0.0024    0.0002
N        -2.5678   -1.3490   -0.0039    0.0019   -0.0006    0.0001
C        -2.6318    2.2074    0.0858    0.0353    0.0001   -0.0017
C        -1.2138    1.9066   -0.0003    0.0129   -0.0013   -0.0003
C         1.0023    2.5641    0.0125   -0.0165    0.0179    0.0012
C         2.0253    3.5896    0.1094   -0.0283   -0.0076   -0.0010
C        -3.3042    0.9681    0.0767    0.0189   -0.0164   -0.0017
C        -2.2782   -0.0563   -0.0113    0.0239    0.0007   -0.0012
C        -0.6084   -5.7574    0.2030   -0.0055   -0.0180    0.0010
C        -3.1245   -4.3989    0.1900    0.0139    0.0059   -0.0009
C        -1.8131   -6.4652    0.2658    0.0222    0.0102   -0.0009
C        -4.7020    0.9019    0.1386   -0.0011   -0.0101   -0.0001
C        -3.3382    3.4149    0.1551    0.0154   -0.0016   -0.0007
C        -5.4086    2.1097    0.2138   -0.0025    0.0334    0.0011
C        -3.0555   -5.7944    0.2587   -0.0062   -0.0001    0.0002
C        -1.6195   -2.2729    0.0041   -0.0321   -0.0049    0.0018
C        -1.9182   -3.6908    0.1037   -0.0121    0.0060    0.0004
C         3.2652    2.9200    0.1027   -0.0120    0.0062   -0.0004
C         2.9671    1.5014    0.0066   -0.0315   -0.0047   -0.0019
C        -4.7364    3.3486    0.2202   -0.0384   -0.0153    0.0013
C         3.6255   -0.7151   -0.0006    0.0233    0.0008    0.0013
C         4.6513   -1.7396    0.0908    0.0184   -0.0158    0.0016
C         2.5611   -2.6780    0.0096    0.0125   -0.0006    0.0003
C         3.9791   -2.9786    0.0994    0.0344    0.0002    0.0017
C        -0.6787   -4.3610    0.1117   -0.0286   -0.0079    0.0010
C         0.3451   -3.3358    0.0162   -0.0162    0.0173   -0.0012
C         1.9538    4.9862    0.1974   -0.0054   -0.0179   -0.0010
C         4.4707    3.6292    0.1907    0.0138    0.0060    0.0009
C         3.1581    5.6948    0.2620    0.0216    0.0101    0.0009
C         4.4009    5.0247    0.2573   -0.0060   -0.0005   -0.0002
C         6.0491   -1.6734    0.1498   -0.0012   -0.0097    0.0001
C         4.6854   -4.1862    0.1668    0.0151   -0.0017    0.0007
C         6.7557   -2.8811    0.2249   -0.0023    0.0326   -0.0011
C         6.0835   -4.1199    0.2324   -0.0376   -0.0150   -0.0013
H         6.5636   -0.7119    0.1505    0.0554   -0.0424    0.0046
H         4.1595   -5.1415    0.1810    0.1457   -0.0701    0.0092
H         6.6636   -5.0424    0.2843   -0.3208   -0.1928   -0.0092
H        -5.2165   -0.0595    0.1415    0.0567   -0.0435   -0.0048
H        -2.8123    4.3701    0.1706    0.1471   -0.0705   -0.0094
H        -5.3164    4.2710    0.2739   -0.3271   -0.1966    0.0099
H        -6.4984    2.0935    0.2595   -0.0070    0.3286    0.0118
H         0.3559   -6.2665    0.2241   -0.0773   -0.1490    0.0118
H        -4.0801   -3.8731    0.2016    0.0495    0.0709   -0.0055
H        -3.9765   -6.3769    0.3099   -0.0337    0.0436   -0.0019
H        -1.7960   -7.5547    0.3185    0.1910    0.0130   -0.0054
H         0.9891    5.4946    0.2174   -0.0761   -0.1472   -0.0114
H         5.4267    3.1042    0.2032    0.0500    0.0722    0.0057
H         5.3215    5.6077    0.3106   -0.0312    0.0395    0.0018
H         3.1404    6.7843    0.3129    0.1856    0.0129    0.0057
H         7.8456   -2.8649    0.2681   -0.0068    0.3213   -0.0115
    57
stable frequency at   1151.687 1/cm IR int. is 1.468 a.m.u.; force const. is 1.147 mDyne/Ang.
Fe        0.6742   -0.3860   -0.2512   -0.0000    0.0000    0.0002
N         3.9155    0.5774    0.0034    0.0013    0.0013   -0.0007
N         1.6364   -3.6259    0.0222    0.0005   -0.0014   -0.0007
N        -0.2400   -2.0716   -0.0762    0.0161    0.0302   -0.0027
N        -1.0127    0.5279   -0.0841    0.0310   -0.0178   -0.0025
N         1.5882    1.2996   -0.0761   -0.0158   -0.0292   -0.0026
N         2.3604   -1.2995   -0.0741   -0.0311    0.0169   -0.0025
N        -0.2889    2.8541    0.0151   -0.0003    0.0013   -0.0007
N        -2.5678   -1.3490   -0.0039   -0.0012   -0.0015   -0.0007
C        -2.6318    2.2074    0.0858   -0.0354    0.0017    0.0019
C        -1.2138    1.9066   -0.0003   -0.0179    0.0019    0.0009
C         1.0023    2.5641    0.0125    0.0143    0.0086    0.0010
C         2.0253    3.5896    0.1094    0.0286    0.0193    0.0021
C        -3.3042    0.9681    0.0767   -0.0206    0.0314    0.0021
C        -2.2782   -0.0563   -0.0113   -0.0089    0.0143    0.0007
C        -0.6084   -5.7574    0.2030   -0.0135   -0.0039    0.0001
C        -3.1245   -4.3989    0.1900    0.0055   -0.0139    0.0002
C        -1.8131   -6.4652    0.2658    0.0309    0.0088   -0.0011
C        -4.7020    0.9019    0.1386   -0.0050    0.0137    0.0005
C        -3.3382    3.4149    0.1551   -0.0141   -0.0054    0.0004
C        -5.4086    2.1097    0.2138    0.0083   -0.0332   -0.0013
C        -3.0555   -5.7944    0.2587   -0.0098    0.0308   -0.0014
C        -1.6195   -2.2729    0.0041   -0.0001   -0.0177    0.0011
C        -1.9182   -3.6908    0.1037   -0.0014   -0.0344    0.0023
C         3.2652    2.9200    0.1027    0.0011    0.0336    0.0022
C         2.9671    1.5014    0.0066   -0.0003    0.0172    0.0010
C        -4.7364    3.3486    0.2202    0.0319    0.0114   -0.0011
C         3.6255   -0.7151   -0.0006    0.0095   -0.0138    0.0008
C         4.6513   -1.7396    0.0908    0.0204   -0.0305    0.0021
C         2.5611   -2.6780    0.0096    0.0179   -0.0009    0.0009
C         3.9791   -2.9786    0.0994    0.0356   -0.0014    0.0018
C        -0.6787   -4.3610    0.1117   -0.0296   -0.0200    0.0022
C         0.3451   -3.3358    0.0162   -0.0144   -0.0091    0.0010
C         1.9538    4.9862    0.1974    0.0132    0.0037    0.0001
C         4.4707    3.6292    0.1907   -0.0053    0.0135    0.0002
C         3.1581    5.6948    0.2620   -0.0296   -0.0085   -0.0011
C         4.4009    5.0247    0.2573    0.0093   -0.0297   -0.0013
C         6.0491   -1.6734    0.1498    0.0044   -0.0135    0.0005
C         4.6854   -4.1862    0.1668    0.0143    0.0050    0.0003
C         6.7557   -2.8811    0.2249   -0.0079    0.0325   -0.0014
C         6.0835   -4.1199    0.2324   -0.0320   -0.0112   -0.0008
H         6.5636   -0.7119    0.1505    0.0518   -0.0417    0.0044
H         4.1595   -5.1415    0.1810    0.0661   -0.0205    0.0048
H         6.6636   -5.0424    0.2843   -0.2484   -0.1468   -0.0112
H        -5.2165   -0.0595    0.1415   -0.0560    0.0440    0.0048
H        -2.8123    4.3701    0.1706   -0.0628    0.0184    0.0044
H        -5.3164    4.2710    0.2739    0.2485    0.1469   -0.0074
H        -6.4984    2.0935    0.2595    0.0126   -0.2876   -0.0106
H         0.3559   -6.2665    0.2241   -0.0433   -0.0546    0.0056
H        -4.0801   -3.8731    0.2016   -0.0212   -0.0680    0.0056
H        -3.9765   -6.3769    0.3099   -0.1395    0.2372   -0.0093
H        -1.7960   -7.5547    0.3185    0.2707    0.0133   -0.0076
H         0.9891    5.4946    0.2174    0.0409    0.0508    0.0053
H         5.4267    3.1042    0.2032    0.0199    0.0647    0.0052
H         5.3215    5.6077    0.3106    0.1338   -0.2275   -0.0084
H         3.1404    6.7843    0.3129   -0.2588   -0.0129   -0.0075
H         7.8456   -2.8649    0.2681   -0.0123    0.2827   -0.0098
    57
stable frequency at   1161.174 1/cm IR int. is 2.621 a.m.u.; force const. is 2.083 mDyne/Ang.
Fe        0.6742   -0.3860   -0.2512    0.0000   -0.0000    0.0000
N         3.9155    0.5774    0.0034    0.0048   -0.0178   -0.0001
N         1.6364   -3.6259    0.0222    0.0173    0.0049   -0.0001
N        -0.2400   -2.0716   -0.0762    0.0313    0.0568   -0.0060
N        -1.0127    0.5279   -0.0841   -0.0531    0.0301    0.0051
N         1.5882    1.2996   -0.0761   -0.0325   -0.0561   -0.0059
N         2.3604   -1.2995   -0.0741    0.0540   -0.0305    0.0052
N        -0.2889    2.8541    0.0151   -0.0172   -0.0050   -0.0001
N        -2.5678   -1.3490   -0.0039   -0.0048    0.0177   -0.0002
C        -2.6318    2.2074    0.0858    0.0413   -0.0042   -0.0022
C        -1.2138    1.9066   -0.0003    0.0111   -0.0355   -0.0022
C         1.0023    2.5641    0.0125   -0.0087    0.0344    0.0024
C         2.0253    3.5896    0.1094    0.0367    0.0276    0.0029
C        -3.3042    0.9681    0.0767    0.0254   -0.0347   -0.0025
C        -2.2782   -0.0563   -0.0113    0.0330    0.0099   -0.0017
C        -0.6084   -5.7574    0.2030   -0.0174   -0.0020    0.0001
C        -3.1245   -4.3989    0.1900    0.0085   -0.0160    0.0002
C        -1.8131   -6.4652    0.2658    0.0260    0.0129   -0.0012
C        -4.7020    0.9019    0.1386    0.0029   -0.0160   -0.0006
C        -3.3382    3.4149    0.1551    0.0147    0.0080   -0.0004
C        -5.4086    2.1097    0.2138   -0.0115    0.0249    0.0013
C        -3.0555   -5.7944    0.2587   -0.0033    0.0293   -0.0015
C        -1.6195   -2.2729    0.0041   -0.0355   -0.0125    0.0023
C        -1.9182   -3.6908    0.1037   -0.0041   -0.0454    0.0032
C         3.2652    2.9200    0.1027    0.0044    0.0452    0.0031
C         2.9671    1.5014    0.0066    0.0365    0.0126    0.0024
C        -4.7364    3.3486    0.2202   -0.0267   -0.0039    0.0012
C         3.6255   -0.7151   -0.0006   -0.0335   -0.0100   -0.0018
C         4.6513   -1.7396    0.0908   -0.0261    0.0355   -0.0025
C         2.5611   -2.6780    0.0096   -0.0113    0.0359   -0.0023
C         3.9791   -2.9786    0.0994   -0.0424    0.0043   -0.0023
C        -0.6787   -4.3610    0.1117   -0.0363   -0.0278    0.0029
C         0.3451   -3.3358    0.0162    0.0091   -0.0353    0.0026
C         1.9538    4.9862    0.1974    0.0173    0.0024    0.0001
C         4.4707    3.6292    0.1907   -0.0088    0.0158    0.0002
C         3.1581    5.6948    0.2620   -0.0262   -0.0130   -0.0012
C         4.4009    5.0247    0.2573    0.0033   -0.0291   -0.0015
C         6.0491   -1.6734    0.1498   -0.0029    0.0163   -0.0006
C         4.6854   -4.1862    0.1668   -0.0150   -0.0081   -0.0004
C         6.7557   -2.8811    0.2249    0.0118   -0.0256    0.0013
C         6.0835   -4.1199    0.2324    0.0276    0.0040    0.0011
H         6.5636   -0.7119    0.1505    0.0122    0.0111   -0.0002
H         4.1595   -5.1415    0.1810    0.0044   -0.0215    0.0005
H         6.6636   -5.0424    0.2843    0.1743    0.0948    0.0067
H        -5.2165   -0.0595    0.1415   -0.0128   -0.0103   -0.0001
H        -2.8123    4.3701    0.1706   -0.0062    0.0221    0.0006
H        -5.3164    4.2710    0.2739   -0.1677   -0.0910    0.0051
H        -6.4984    2.0935    0.2595   -0.0153    0.1913    0.0077
H         0.3559   -6.2665    0.2241   -0.0128    0.0124    0.0004
H        -4.0801   -3.8731    0.2016    0.0182   -0.0039    0.0003
H        -3.9765   -6.3769    0.3099   -0.0996    0.1843   -0.0073
H        -1.7960   -7.5547    0.3185    0.2056    0.0172   -0.0064
H         0.9891    5.4946    0.2174    0.0141   -0.0096    0.0007
H         5.4267    3.1042    0.2032   -0.0197    0.0014   -0.0000
H         5.3215    5.6077    0.3106    0.0994   -0.1836   -0.0068
H         3.1404    6.7843    0.3129   -0.2068   -0.0174   -0.0069
H         7.8456   -2.8649    0.2681    0.0157   -0.1985    0.0078
    57
stable frequency at   1179.654 1/cm IR int. is 2.287 a.m.u.; force const. is 1.875 mDyne/Ang.
Fe        0.6742   -0.3860   -0.2512    0.0000    0.0001   -0.0000
N         3.9155    0.5774    0.0034    0.0140    0.0024    0.0006
N         1.6364   -3.6259    0.0222   -0.0045    0.0132   -0.0008
N        -0.2400   -2.0716   -0.0762   -0.0387    0.0193   -0.0001
N        -1.0127    0.5279   -0.0841   -0.0229   -0.0388   -0.0002
N         1.5882    1.2996   -0.0761    0.0370   -0.0233   -0.0003
N         2.3604   -1.2995   -0.0741    0.0231    0.0380   -0.0000
N        -0.2889    2.8541    0.0151    0.0029   -0.0153   -0.0009
N        -2.5678   -1.3490   -0.0039   -0.0145   -0.0055    0.0007
C        -2.6318    2.2074    0.0858    0.0304    0.0333   -0.0003
C        -1.2138    1.9066   -0.0003   -0.0203    0.0451    0.0037
C         1.0023    2.5641    0.0125   -0.0083    0.0490    0.0037
C         2.0253    3.5896    0.1094   -0.0375    0.0126    0.0001
C        -3.3042    0.9681    0.0767    0.0124    0.0411    0.0006
C        -2.2782   -0.0563   -0.0113    0.0509    0.0078   -0.0035
C        -0.6084   -5.7574    0.2030   -0.0095    0.0268   -0.0014
C        -3.1245   -4.3989    0.1900   -0.0274   -0.0058    0.0012
C        -1.8131   -6.4652    0.2658   -0.0114   -0.0087    0.0006
C        -4.7020    0.9019    0.1386   -0.0291   -0.0116    0.0010
C        -3.3382    3.4149    0.1551    0.0069   -0.0294   -0.0013
C        -5.4086    2.1097    0.2138    0.0088   -0.0113   -0.0007
C        -3.0555   -5.7944    0.2587    0.0010    0.0130   -0.0007
C        -1.6195   -2.2729    0.0041    0.0437    0.0196   -0.0033
C        -1.9182   -3.6908    0.1037    0.0311   -0.0252    0.0002
C         3.2652    2.9200    0.1027   -0.0313    0.0294    0.0004
C         2.9671    1.5014    0.0066   -0.0419   -0.0191   -0.0033
C        -4.7364    3.3486    0.2202   -0.0152    0.0015    0.0007
C         3.6255   -0.7151   -0.0006   -0.0479   -0.0080   -0.0033
C         4.6513   -1.7396    0.0908   -0.0119   -0.0357    0.0006
C         2.5611   -2.6780    0.0096    0.0183   -0.0424    0.0034
C         3.9791   -2.9786    0.0994   -0.0271   -0.0298   -0.0004
C        -0.6787   -4.3610    0.1117    0.0396   -0.0103   -0.0000
C         0.3451   -3.3358    0.0162    0.0077   -0.0462    0.0036
C         1.9538    4.9862    0.1974    0.0113   -0.0271   -0.0014
C         4.4707    3.6292    0.1907    0.0273    0.0074    0.0013
C         3.1581    5.6948    0.2620    0.0101    0.0077    0.0006
C         4.4009    5.0247    0.2573   -0.0012   -0.0151   -0.0008
C         6.0491   -1.6734    0.1498    0.0260    0.0106    0.0009
C         4.6854   -4.1862    0.1668   -0.0064    0.0261   -0.0011
C         6.7557   -2.8811    0.2249   -0.0073    0.0100   -0.0006
C         6.0835   -4.1199    0.2324    0.0137   -0.0010    0.0006
H         6.5636   -0.7119    0.1505    0.1904   -0.0780    0.0110
H         4.1595   -5.1415    0.1810   -0.1665    0.1133   -0.0109
H         6.6636   -5.0424    0.2843    0.0499    0.0221    0.0017
H        -5.2165   -0.0595    0.1415   -0.2082    0.0850    0.0125
H        -2.8123    4.3701    0.1706    0.1831   -0.1254   -0.0121
H        -5.3164    4.2710    0.2739   -0.0542   -0.0234    0.0015
H        -6.4984    2.0935    0.2595    0.0090   -0.0528   -0.0023
H         0.3559   -6.2665    0.2241    0.0795    0.1930   -0.0142
H        -4.0801   -3.8731    0.2016   -0.1198   -0.1755    0.0142
H        -3.9765   -6.3769    0.3099   -0.0214    0.0475   -0.0013
H        -1.7960   -7.5547    0.3185   -0.0567   -0.0091    0.0017
H         0.9891    5.4946    0.2174   -0.0814   -0.2009   -0.0144
H         5.4267    3.1042    0.2032    0.1180    0.1748    0.0142
H         5.3215    5.6077    0.3106    0.0258   -0.0573   -0.0016
H         3.1404    6.7843    0.3129    0.0481    0.0078    0.0016
H         7.8456   -2.8649    0.2681   -0.0074    0.0461   -0.0021
    57
stable frequency at   1182.932 1/cm IR int. is 2.678 a.m.u.; force const. is 2.208 mDyne/Ang.
Fe        0.6742   -0.3860   -0.2512    0.0006   -0.0019    0.0000
N         3.9155    0.5774    0.0034   -0.0127    0.0417    0.0001
N         1.6364   -3.6259    0.0222   -0.0063    0.0216   -0.0017
N        -0.2400   -2.0716   -0.0762    0.0092    0.0359   -0.0030
N        -1.0127    0.5279   -0.0841   -0.0296    0.0223    0.0028
N         1.5882    1.2996   -0.0761    0.0110    0.0343    0.0030
N         2.3604   -1.2995   -0.0741   -0.0279    0.0254   -0.0029
N        -0.2889    2.8541    0.0151   -0.0093    0.0199    0.0016
N        -2.5678   -1.3490   -0.0039   -0.0126    0.0383   -0.0002
C        -2.6318    2.2074    0.0858    0.0053   -0.0284   -0.0014
C        -1.2138    1.9066   -0.0003    0.0219   -0.0354   -0.0032
C         1.0023    2.5641    0.0125   -0.0000   -0.0461   -0.0037
C         2.0253    3.5896    0.1094    0.0210   -0.0270   -0.0016
C        -3.3042    0.9681    0.0767    0.0130   -0.0634   -0.0025
C        -2.2782   -0.0563   -0.0113   -0.0059    0.0081    0.0008
C        -0.6084   -5.7574    0.2030   -0.0243    0.0244   -0.0012
C        -3.1245   -4.3989    0.1900   -0.0218   -0.0175    0.0015
C        -1.8131   -6.4652    0.2658    0.0022   -0.0009   -0.0001
C        -4.7020    0.9019    0.1386    0.0248   -0.0042   -0.0013
C        -3.3382    3.4149    0.1551    0.0087    0.0289    0.0006
C        -5.4086    2.1097    0.2138   -0.0198    0.0217    0.0015
C        -3.0555   -5.7944    0.2587    0.0058    0.0308   -0.0018
C        -1.6195   -2.2729    0.0041    0.0057    0.0117   -0.0011
C        -1.9182   -3.6908    0.1037    0.0283   -0.0642    0.0028
C         3.2652    2.9200    0.1027    0.0300   -0.0666   -0.0027
C         2.9671    1.5014    0.0066    0.0052    0.0127    0.0012
C        -4.7364    3.3486    0.2202   -0.0043   -0.0019    0.0001
C         3.6255   -0.7151   -0.0006   -0.0122    0.0082   -0.0012
C         4.6513   -1.7396    0.0908    0.0117   -0.0718    0.0028
C         2.5611   -2.6780    0.0096    0.0255   -0.0402    0.0037
C         3.9791   -2.9786    0.0994   -0.0008   -0.0341    0.0012
C        -0.6787   -4.3610    0.1117    0.0176   -0.0273    0.0018
C         0.3451   -3.3358    0.0162    0.0011   -0.0465    0.0038
C         1.9538    4.9862    0.1974   -0.0249    0.0259    0.0012
C         4.4707    3.6292    0.1907   -0.0235   -0.0178   -0.0016
C         3.1581    5.6948    0.2620    0.0016   -0.0020    0.0000
C         4.4009    5.0247    0.2573    0.0063    0.0318    0.0019
C         6.0491   -1.6734    0.1498    0.0299   -0.0022    0.0014
C         4.6854   -4.1862    0.1668    0.0077    0.0342   -0.0008
C         6.7557   -2.8811    0.2249   -0.0220    0.0236   -0.0017
C         6.0835   -4.1199    0.2324   -0.0016   -0.0026    0.0000
H         6.5636   -0.7119    0.1505    0.1162   -0.0508    0.0066
H         4.1595   -5.1415    0.1810   -0.1834    0.1403   -0.0121
H         6.6636   -5.0424    0.2843   -0.0250   -0.0153   -0.0016
H        -5.2165   -0.0595    0.1415    0.0853   -0.0389   -0.0051
H        -2.8123    4.3701    0.1706   -0.1561    0.1206    0.0106
H        -5.3164    4.2710    0.2739   -0.0335   -0.0184    0.0017
H        -6.4984    2.0935    0.2595   -0.0222    0.1116    0.0051
H         0.3559   -6.2665    0.2241    0.0723    0.2089   -0.0144
H        -4.0801   -3.8731    0.2016   -0.0700   -0.1095    0.0090
H        -3.9765   -6.3769    0.3099   -0.0475    0.1169   -0.0042
H        -1.7960   -7.5547    0.3185    0.0295    0.0012   -0.0010
H         0.9891    5.4946    0.2174    0.0738    0.2145    0.0145
H         5.4267    3.1042    0.2032   -0.0742   -0.1147   -0.0095
H         5.3215    5.6077    0.3106   -0.0483    0.1197    0.0040
H         3.1404    6.7843    0.3129    0.0263    0.0000    0.0008
H         7.8456   -2.8649    0.2681   -0.0244    0.1205   -0.0056
    57
stable frequency at   1183.444 1/cm IR int. is 2.546 a.m.u.; force const. is 2.101 mDyne/Ang.
Fe        0.6742   -0.3860   -0.2512   -0.0012   -0.0004   -0.0000
N         3.9155    0.5774    0.0034    0.0064    0.0280    0.0010
N         1.6364   -3.6259    0.0222    0.0501    0.0148   -0.0001
N        -0.2400   -2.0716   -0.0762    0.0186    0.0158   -0.0019
N        -1.0127    0.5279   -0.0841    0.0193   -0.0113   -0.0017
N         1.5882    1.2996   -0.0761    0.0111    0.0194    0.0019
N         2.3604   -1.2995   -0.0741    0.0267   -0.0023    0.0018
N        -0.2889    2.8541    0.0151    0.0005   -0.0003   -0.0000
N        -2.5678   -1.3490   -0.0039    0.0210   -0.0215   -0.0007
C        -2.6318    2.2074    0.0858   -0.0050    0.0125    0.0006
C        -1.2138    1.9066   -0.0003   -0.0099    0.0146    0.0014
C         1.0023    2.5641    0.0125   -0.0008   -0.0155   -0.0013
C         2.0253    3.5896    0.1094    0.0004   -0.0124   -0.0008
C        -3.3042    0.9681    0.0767   -0.0113    0.0349    0.0017
C        -2.2782   -0.0563   -0.0113   -0.0043   -0.0063    0.0001
C        -0.6084   -5.7574    0.2030    0.0095   -0.0435    0.0023
C        -3.1245   -4.3989    0.1900    0.0477    0.0013   -0.0018
C        -1.8131   -6.4652    0.2658    0.0235    0.0257   -0.0018
C        -4.7020    0.9019    0.1386   -0.0120    0.0045    0.0007
C        -3.3382    3.4149    0.1551   -0.0058   -0.0140   -0.0002
C        -5.4086    2.1097    0.2138    0.0120   -0.0119   -0.0009
C        -3.0555   -5.7944    0.2587   -0.0062   -0.0146    0.0010
C        -1.6195   -2.2729    0.0041   -0.0406   -0.0324    0.0041
C        -1.9182   -3.6908    0.1037   -0.0505    0.0357   -0.0000
C         3.2652    2.9200    0.1027    0.0079   -0.0338   -0.0019
C         2.9671    1.5014    0.0066   -0.0080    0.0009   -0.0003
C        -4.7364    3.3486    0.2202    0.0041    0.0017   -0.0001
C         3.6255   -0.7151   -0.0006   -0.0534    0.0048   -0.0041
C         4.6513   -1.7396    0.0908   -0.0233   -0.0538    0.0006
C         2.5611   -2.6780    0.0096    0.0243   -0.0190    0.0027
C         3.9791   -2.9786    0.0994   -0.0765   -0.0467   -0.0023
C        -0.6787   -4.3610    0.1117   -0.0871   -0.0016    0.0019
C         0.3451   -3.3358    0.0162    0.0108    0.0287   -0.0026
C         1.9538    4.9862    0.1974   -0.0118    0.0078    0.0003
C         4.4707    3.6292    0.1907   -0.0057   -0.0097   -0.0006
C         3.1581    5.6948    0.2620    0.0044    0.0013    0.0002
C         4.4009    5.0247    0.2573    0.0037    0.0156    0.0009
C         6.0491   -1.6734    0.1498    0.0410    0.0269    0.0010
C         4.6854   -4.1862    0.1668   -0.0166    0.0406   -0.0021
C         6.7557   -2.8811    0.2249   -0.0126    0.0075   -0.0007
C         6.0835   -4.1199    0.2324    0.0348   -0.0087    0.0019
H         6.5636   -0.7119    0.1505    0.2779   -0.0996    0.0151
H         4.1595   -5.1415    0.1810   -0.1860    0.1318   -0.0118
H         6.6636   -5.0424    0.2843    0.1177    0.0430    0.0037
H        -5.2165   -0.0595    0.1415   -0.0198    0.0100    0.0013
H        -2.8123    4.3701    0.1706    0.0659   -0.0543   -0.0047
H        -5.3164    4.2710    0.2739    0.0250    0.0137   -0.0008
H        -6.4984    2.0935    0.2595    0.0135   -0.0651   -0.0031
H         0.3559   -6.2665    0.2241   -0.0861   -0.2200    0.0166
H        -4.0801   -3.8731    0.2016    0.1767    0.2362   -0.0193
H        -3.9765   -6.3769    0.3099    0.0073   -0.0334    0.0002
H        -1.7960   -7.5547    0.3185    0.1189    0.0275   -0.0045
H         0.9891    5.4946    0.2174    0.0208    0.0711    0.0049
H         5.4267    3.1042    0.2032   -0.0065   -0.0135   -0.0015
H         5.3215    5.6077    0.3106   -0.0238    0.0603    0.0025
H         3.1404    6.7843    0.3129    0.0290    0.0026    0.0009
H         7.8456   -2.8649    0.2681   -0.0114    0.0216   -0.0018
    57
stable frequency at   1183.516 1/cm IR int. is 2.601 a.m.u.; force const. is 2.147 mDyne/Ang.
Fe        0.6742   -0.3860   -0.2512    0.0014    0.0006   -0.0000
N         3.9155    0.5774    0.0034   -0.0222    0.0126   -0.0011
N         1.6364   -3.6259    0.0222   -0.0107   -0.0050    0.0002
N        -0.2400   -2.0716   -0.0762   -0.0148   -0.0269    0.0026
N        -1.0127    0.5279   -0.0841   -0.0284    0.0044    0.0019
N         1.5882    1.2996   -0.0761   -0.0239   -0.0230   -0.0026
N         2.3604   -1.2995   -0.0741   -0.0240    0.0092   -0.0019
N        -0.2889    2.8541    0.0151   -0.0509   -0.0162   -0.0004
N        -2.5678   -1.3490   -0.0039   -0.0097   -0.0270    0.0013
C        -2.6318    2.2074    0.0858    0.0780    0.0465   -0.0021
C        -1.2138    1.9066   -0.0003   -0.0239    0.0174    0.0025
C         1.0023    2.5641    0.0125   -0.0106   -0.0237   -0.0021
C         2.0253    3.5896    0.1094    0.0892    0.0062    0.0024
C        -3.3042    0.9681    0.0767    0.0249    0.0515    0.0002
C        -2.2782   -0.0563   -0.0113    0.0546   -0.0044   -0.0041
C        -0.6084   -5.7574    0.2030    0.0123   -0.0014   -0.0000
C        -3.1245   -4.3989    0.1900   -0.0019    0.0112   -0.0004
C        -1.8131   -6.4652    0.2658   -0.0094   -0.0065    0.0005
C        -4.7020    0.9019    0.1386   -0.0405   -0.0278    0.0011
C        -3.3382    3.4149    0.1551    0.0173   -0.0400   -0.0022
C        -5.4086    2.1097    0.2138    0.0117   -0.0065   -0.0006
C        -3.0555   -5.7944    0.2587   -0.0030   -0.0156    0.0009
C        -1.6195   -2.2729    0.0041    0.0152    0.0044   -0.0009
C        -1.9182   -3.6908    0.1037   -0.0005    0.0328   -0.0022
C         3.2652    2.9200    0.1027    0.0488   -0.0244    0.0008
C         2.9671    1.5014    0.0066    0.0446    0.0329    0.0043
C        -4.7364    3.3486    0.2202   -0.0357    0.0086    0.0020
C         3.6255   -0.7151   -0.0006    0.0181    0.0047    0.0011
C         4.6513   -1.7396    0.0908    0.0162   -0.0176    0.0015
C         2.5611   -2.6780    0.0096    0.0024   -0.0065    0.0005
C         3.9791   -2.9786    0.0994    0.0226    0.0009    0.0010
C        -0.6787   -4.3610    0.1117    0.0157    0.0157   -0.0014
C         0.3451   -3.3358    0.0162   -0.0018    0.0150   -0.0012
C         1.9538    4.9862    0.1974   -0.0056    0.0418    0.0021
C         4.4707    3.6292    0.1907   -0.0468    0.0021   -0.0016
C         3.1581    5.6948    0.2620   -0.0256   -0.0268   -0.0019
C         4.4009    5.0247    0.2573    0.0051    0.0093    0.0007
C         6.0491   -1.6734    0.1498    0.0004   -0.0107    0.0004
C         4.6854   -4.1862    0.1668    0.0091    0.0022    0.0004
C         6.7557   -2.8811    0.2249   -0.0077    0.0085   -0.0006
C         6.0835   -4.1199    0.2324   -0.0120    0.0004   -0.0006
H         6.5636   -0.7119    0.1505   -0.0543    0.0174   -0.0028
H         4.1595   -5.1415    0.1810   -0.0085    0.0131   -0.0008
H         6.6636   -5.0424    0.2843   -0.0505   -0.0227   -0.0016
H        -5.2165   -0.0595    0.1415   -0.2810    0.1005    0.0160
H        -2.8123    4.3701    0.1706    0.1829   -0.1290   -0.0120
H        -5.3164    4.2710    0.2739   -0.1208   -0.0444    0.0036
H        -6.4984    2.0935    0.2595    0.0103   -0.0158   -0.0014
H         0.3559   -6.2665    0.2241   -0.0111   -0.0483    0.0032
H        -4.0801   -3.8731    0.2016   -0.0220   -0.0229    0.0015
H        -3.9765   -6.3769    0.3099    0.0270   -0.0650    0.0031
H        -1.7960   -7.5547    0.3185   -0.0561   -0.0084    0.0019
H         0.9891    5.4946    0.2174    0.0800    0.1989    0.0149
H         5.4267    3.1042    0.2032   -0.1780   -0.2366   -0.0194
H         5.3215    5.6077    0.3106    0.0010    0.0127   -0.0008
H         3.1404    6.7843    0.3129   -0.1320   -0.0292   -0.0051
H         7.8456   -2.8649    0.2681   -0.0093    0.0520   -0.0023
    57
stable frequency at   1278.713 1/cm IR int. is 1.727 a.m.u.; force const. is 1.664 mDyne/Ang.
Fe        0.6742   -0.3860   -0.2512    0.0001    0.0003   -0.0000
N         3.9155    0.5774    0.0034   -0.0008   -0.0149   -0.0003
N         1.6364   -3.6259    0.0222   -0.0064   -0.0096    0.0005
N        -0.2400   -2.0716   -0.0762    0.0049    0.0046   -0.0006
N        -1.0127    0.5279   -0.0841   -0.0069   -0.0082    0.0001
N         1.5882    1.2996   -0.0761    0.0052    0.0046    0.0006
N         2.3604   -1.2995   -0.0741   -0.0071   -0.0082   -0.0002
N        -0.2889    2.8541    0.0151   -0.0063   -0.0097   -0.0005
N        -2.5678   -1.3490   -0.0039   -0.0010   -0.0148    0.0004
C        -2.6318    2.2074    0.0858    0.0398   -0.0457   -0.0037
C        -1.2138    1.9066   -0.0003   -0.0156    0.0334    0.0024
C         1.0023    2.5641    0.0125   -0.0032   -0.0027   -0.0002
C         2.0253    3.5896    0.1094    0.0090   -0.0080   -0.0003
C        -3.3042    0.9681    0.0767   -0.0622    0.0150    0.0036
C        -2.2782   -0.0563   -0.0113    0.0433    0.0041   -0.0026
C        -0.6084   -5.7574    0.2030    0.0032   -0.0004   -0.0001
C        -3.1245   -4.3989    0.1900    0.0047    0.0196   -0.0011
C        -1.8131   -6.4652    0.2658   -0.0097   -0.0007    0.0002
C        -4.7020    0.9019    0.1386   -0.0362    0.0275    0.0026
C        -3.3382    3.4149    0.1551    0.0371   -0.0152   -0.0022
C        -5.4086    2.1097    0.2138    0.0248    0.0133   -0.0008
C        -3.0555   -5.7944    0.2587   -0.0074   -0.0087    0.0007
C        -1.6195   -2.2729    0.0041   -0.0162   -0.0124    0.0014
C        -1.9182   -3.6908    0.1037    0.0086    0.0230   -0.0017
C         3.2652    2.9200    0.1027    0.0094    0.0238    0.0018
C         2.9671    1.5014    0.0066   -0.0170   -0.0129   -0.0015
C        -4.7364    3.3486    0.2202    0.0014    0.0275    0.0011
C         3.6255   -0.7151   -0.0006    0.0438    0.0040    0.0027
C         4.6513   -1.7396    0.0908   -0.0628    0.0152   -0.0037
C         2.5611   -2.6780    0.0096   -0.0157    0.0334   -0.0025
C         3.9791   -2.9786    0.0994    0.0401   -0.0460    0.0037
C        -0.6787   -4.3610    0.1117    0.0091   -0.0070    0.0003
C         0.3451   -3.3358    0.0162   -0.0031   -0.0033    0.0003
C         1.9538    4.9862    0.1974    0.0027   -0.0009    0.0000
C         4.4707    3.6292    0.1907    0.0050    0.0203    0.0012
C         3.1581    5.6948    0.2620   -0.0101   -0.0003   -0.0002
C         4.4009    5.0247    0.2573   -0.0078   -0.0087   -0.0007
C         6.0491   -1.6734    0.1498   -0.0365    0.0278   -0.0026
C         4.6854   -4.1862    0.1668    0.0373   -0.0153    0.0022
C         6.7557   -2.8811    0.2249    0.0250    0.0135    0.0008
C         6.0835   -4.1199    0.2324    0.0014    0.0277   -0.0011
H         6.5636   -0.7119    0.1505    0.2480   -0.1244    0.0154
H         4.1595   -5.1415    0.1810   -0.2259    0.1286   -0.0146
H         6.6636   -5.0424    0.2843   -0.2083   -0.1033   -0.0047
H        -5.2165   -0.0595    0.1415    0.2460   -0.1235   -0.0157
H        -2.8123    4.3701    0.1706   -0.2245    0.1278    0.0147
H        -5.3164    4.2710    0.2739   -0.2068   -0.1026    0.0051
H        -6.4984    2.0935    0.2595    0.0294   -0.2360   -0.0092
H         0.3559   -6.2665    0.2241    0.0148    0.0204   -0.0015
H        -4.0801   -3.8731    0.2016   -0.0480   -0.0761    0.0056
H        -3.9765   -6.3769    0.3099    0.0267   -0.0643    0.0027
H        -1.7960   -7.5547    0.3185    0.0336   -0.0006   -0.0005
H         0.9891    5.4946    0.2174    0.0169    0.0247    0.0018
H         5.4267    3.1042    0.2032   -0.0504   -0.0803   -0.0060
H         5.3215    5.6077    0.3106    0.0287   -0.0683   -0.0027
H         3.1404    6.7843    0.3129    0.0377   -0.0001    0.0007
H         7.8456   -2.8649    0.2681    0.0297   -0.2380    0.0093
    57
stable frequency at   1279.062 1/cm IR int. is 1.723 a.m.u.; force const. is 1.660 mDyne/Ang.
Fe        0.6742   -0.3860   -0.2512   -0.0003    0.0000   -0.0000
N         3.9155    0.5774    0.0034    0.0109   -0.0085    0.0004
N         1.6364   -3.6259    0.0222    0.0116   -0.0009    0.0003
N        -0.2400   -2.0716   -0.0762    0.0062   -0.0038    0.0000
N        -1.0127    0.5279   -0.0841   -0.0029    0.0073    0.0005
N         1.5882    1.2996   -0.0761    0.0110   -0.0049    0.0001
N         2.3604   -1.2995   -0.0741   -0.0065    0.0031   -0.0006
N        -0.2889    2.8541    0.0151    0.0165    0.0009   -0.0002
N        -2.5678   -1.3490   -0.0039    0.0094   -0.0029   -0.0004
C        -2.6318    2.2074    0.0858   -0.0320    0.0183    0.0023
C        -1.2138    1.9066   -0.0003    0.0168   -0.0239   -0.0020
C         1.0023    2.5641    0.0125   -0.0041    0.0463    0.0033
C         2.0253    3.5896    0.1094   -0.0162   -0.0722   -0.0052
C        -3.3042    0.9681    0.0767    0.0217    0.0046   -0.0011
C        -2.2782   -0.0563   -0.0113   -0.0075   -0.0037    0.0004
C        -0.6084   -5.7574    0.2030   -0.0208   -0.0266    0.0018
C        -3.1245   -4.3989    0.1900    0.0107    0.0265   -0.0017
C        -1.8131   -6.4652    0.2658   -0.0100    0.0183   -0.0009
C        -4.7020    0.9019    0.1386    0.0089   -0.0030   -0.0005
C        -3.3382    3.4149    0.1551   -0.0287    0.0091    0.0016
C        -5.4086    2.1097    0.2138   -0.0055   -0.0132   -0.0001
C        -3.0555   -5.7944    0.2587   -0.0203    0.0020    0.0008
C        -1.6195   -2.2729    0.0041   -0.0261   -0.0108    0.0018
C        -1.9182   -3.6908    0.1037    0.0342    0.0288   -0.0029
C         3.2652    2.9200    0.1027    0.0518    0.0502    0.0049
C         2.9671    1.5014    0.0066   -0.0418   -0.0217   -0.0032
C        -4.7364    3.3486    0.2202    0.0087   -0.0134   -0.0009
C         3.6255   -0.7151   -0.0006    0.0127   -0.0040    0.0008
C         4.6513   -1.7396    0.0908   -0.0060    0.0130   -0.0007
C         2.5611   -2.6780    0.0096    0.0073   -0.0093    0.0008
C         3.9791   -2.9786    0.0994   -0.0117   -0.0011   -0.0005
C        -0.6787   -4.3610    0.1117   -0.0101   -0.0465    0.0033
C         0.3451   -3.3358    0.0162   -0.0041    0.0305   -0.0022
C         1.9538    4.9862    0.1974   -0.0309   -0.0421   -0.0028
C         4.4707    3.6292    0.1907    0.0184    0.0442    0.0028
C         3.1581    5.6948    0.2620   -0.0168    0.0285    0.0013
C         4.4009    5.0247    0.2573   -0.0324    0.0010   -0.0013
C         6.0491   -1.6734    0.1498   -0.0084    0.0088   -0.0007
C         4.6854   -4.1862    0.1668   -0.0111    0.0010   -0.0006
C         6.7557   -2.8811    0.2249    0.0059   -0.0070    0.0005
C         6.0835   -4.1199    0.2324    0.0086   -0.0005    0.0004
H         6.5636   -0.7119    0.1505    0.0313   -0.0120    0.0019
H         4.1595   -5.1415    0.1810    0.0267   -0.0201    0.0019
H         6.6636   -5.0424    0.2843    0.0151    0.0026    0.0012
H        -5.2165   -0.0595    0.1415   -0.0760    0.0430    0.0049
H        -2.8123    4.3701    0.1706    0.1285   -0.0772   -0.0084
H        -5.3164    4.2710    0.2739    0.1114    0.0499   -0.0035
H        -6.4984    2.0935    0.2595   -0.0067    0.0896    0.0034
H         0.3559   -6.2665    0.2241    0.0910    0.1846   -0.0129
H        -4.0801   -3.8731    0.2016   -0.0936   -0.1645    0.0121
H        -3.9765   -6.3769    0.3099    0.0777   -0.1537    0.0044
H        -1.7960   -7.5547    0.3185    0.1771    0.0220   -0.0047
H         0.9891    5.4946    0.2174    0.1408    0.2826    0.0195
H         5.4267    3.1042    0.2032   -0.1486   -0.2622   -0.0192
H         5.3215    5.6077    0.3106    0.1239   -0.2472   -0.0068
H         3.1404    6.7843    0.3129    0.2789    0.0343    0.0079
H         7.8456   -2.8649    0.2681    0.0069   -0.0187    0.0008
    57
stable frequency at   1279.117 1/cm IR int. is 1.718 a.m.u.; force const. is 1.657 mDyne/Ang.
Fe        0.6742   -0.3860   -0.2512    0.0001   -0.0000   -0.0000
N         3.9155    0.5774    0.0034   -0.0009   -0.0070   -0.0002
N         1.6364   -3.6259    0.0222   -0.0121   -0.0026   -0.0001
N        -0.2400   -2.0716   -0.0762   -0.0100    0.0036    0.0001
N        -1.0127    0.5279   -0.0841    0.0072    0.0053   -0.0003
N         1.5882    1.2996   -0.0761    0.0049   -0.0004    0.0001
N         2.3604   -1.2995   -0.0741   -0.0044   -0.0084    0.0001
N        -0.2889    2.8541    0.0151    0.0033    0.0031    0.0002
N        -2.5678   -1.3490   -0.0039   -0.0054    0.0110    0.0001
C        -2.6318    2.2074    0.0858   -0.0260    0.0288    0.0025
C        -1.2138    1.9066   -0.0003    0.0115   -0.0188   -0.0015
C         1.0023    2.5641    0.0125    0.0016    0.0128    0.0010
C         2.0253    3.5896    0.1094   -0.0057   -0.0219   -0.0017
C        -3.3042    0.9681    0.0767    0.0424   -0.0162   -0.0028
C        -2.2782   -0.0563   -0.0113   -0.0334    0.0018    0.0021
C        -0.6084   -5.7574    0.2030    0.0241    0.0352   -0.0023
C        -3.1245   -4.3989    0.1900   -0.0169   -0.0393    0.0025
C        -1.8131   -6.4652    0.2658    0.0150   -0.0235    0.0011
C        -4.7020    0.9019    0.1386    0.0278   -0.0199   -0.0019
C        -3.3382    3.4149    0.1551   -0.0223    0.0114    0.0014
C        -5.4086    2.1097    0.2138   -0.0186   -0.0071    0.0007
C        -3.0555   -5.7944    0.2587    0.0277    0.0012   -0.0012
C        -1.6195   -2.2729    0.0041    0.0352    0.0220   -0.0029
C        -1.9182   -3.6908    0.1037   -0.0419   -0.0463    0.0044
C         3.2652    2.9200    0.1027    0.0144    0.0214    0.0019
C         2.9671    1.5014    0.0066   -0.0140   -0.0121   -0.0013
C        -4.7364    3.3486    0.2202   -0.0026   -0.0186   -0.0006
C         3.6255   -0.7151   -0.0006    0.0313    0.0005    0.0019
C         4.6513   -1.7396    0.0908   -0.0463    0.0106   -0.0029
C         2.5611   -2.6780    0.0096   -0.0188    0.0283   -0.0023
C         3.9791   -2.9786    0.0994    0.0389   -0.0334    0.0033
C        -0.6787   -4.3610    0.1117    0.0141    0.0594   -0.0044
C         0.3451   -3.3358    0.0162    0.0012   -0.0376    0.0027
C         1.9538    4.9862    0.1974   -0.0079   -0.0137   -0.0009
C         4.4707    3.6292    0.1907    0.0077    0.0167    0.0011
C         3.1581    5.6948    0.2620   -0.0064    0.0088    0.0004
C         4.4009    5.0247    0.2573   -0.0110   -0.0020   -0.0006
C         6.0491   -1.6734    0.1498   -0.0273    0.0176   -0.0018
C         4.6854   -4.1862    0.1668    0.0341   -0.0143    0.0020
C         6.7557   -2.8811    0.2249    0.0180    0.0132    0.0005
C         6.0835   -4.1199    0.2324   -0.0029    0.0224   -0.0010
H         6.5636   -0.7119    0.1505    0.1761   -0.0915    0.0111
H         4.1595   -5.1415    0.1810   -0.1849    0.1055   -0.0118
H         6.6636   -5.0424    0.2843   -0.1717   -0.0828   -0.0047
H        -5.2165   -0.0595    0.1415   -0.1666    0.0841    0.0107
H        -2.8123    4.3701    0.1706    0.1405   -0.0774   -0.0090
H        -5.3164    4.2710    0.2739    0.1359    0.0683   -0.0034
H        -6.4984    2.0935    0.2595   -0.0219    0.1640    0.0065
H         0.3559   -6.2665    0.2241   -0.1159   -0.2287    0.0159
H        -4.0801   -3.8731    0.2016    0.1261    0.2224   -0.0161
H        -3.9765   -6.3769    0.3099   -0.1050    0.2122   -0.0065
H        -1.7960   -7.5547    0.3185   -0.2328   -0.0281    0.0061
H         0.9891    5.4946    0.2174    0.0426    0.0815    0.0056
H         5.4267    3.1042    0.2032   -0.0487   -0.0867   -0.0061
H         5.3215    5.6077    0.3106    0.0413   -0.0851   -0.0026
H         3.1404    6.7843    0.3129    0.0886    0.0105    0.0025
H         7.8456   -2.8649    0.2681    0.0213   -0.1822    0.0072
    57
stable frequency at   1284.837 1/cm IR int. is 1.763 a.m.u.; force const. is 1.715 mDyne/Ang.
Fe        0.6742   -0.3860   -0.2512   -0.0000   -0.0000    0.0000
N         3.9155    0.5774    0.0034    0.0158    0.0042    0.0007
N         1.6364   -3.6259    0.0222   -0.0046    0.0151   -0.0008
N        -0.2400   -2.0716   -0.0762   -0.0142    0.0061    0.0000
N        -1.0127    0.5279   -0.0841   -0.0068   -0.0135   -0.0001
N         1.5882    1.2996   -0.0761    0.0137   -0.0067    0.0000
N         2.3604   -1.2995   -0.0741    0.0071    0.0135   -0.0001
N        -0.2889    2.8541    0.0151    0.0047   -0.0156   -0.0008
N        -2.5678   -1.3490   -0.0039   -0.0161   -0.0041    0.0007
C        -2.6318    2.2074    0.0858    0.0273   -0.0313   -0.0026
C        -1.2138    1.9066   -0.0003   -0.0131    0.0345    0.0024
C         1.0023    2.5641    0.0125   -0.0078    0.0364    0.0025
C         2.0253    3.5896    0.1094   -0.0060   -0.0434   -0.0031
C        -3.3042    0.9681    0.0767   -0.0402    0.0048    0.0023
C        -2.2782   -0.0563   -0.0113    0.0345    0.0082   -0.0020
C        -0.6084   -5.7574    0.2030    0.0178    0.0261   -0.0017
C        -3.1245   -4.3989    0.1900   -0.0126   -0.0298    0.0019
C        -1.8131   -6.4652    0.2658    0.0134   -0.0158    0.0007
C        -4.7020    0.9019    0.1386   -0.0241    0.0169    0.0017
C        -3.3382    3.4149    0.1551    0.0277   -0.0116   -0.0017
C        -5.4086    2.1097    0.2138    0.0146    0.0123   -0.0004
C        -3.0555   -5.7944    0.2587    0.0205   -0.0014   -0.0008
C        -1.6195   -2.2729    0.0041    0.0368    0.0151   -0.0025
C        -1.9182   -3.6908    0.1037   -0.0331   -0.0307    0.0031
C         3.2652    2.9200    0.1027    0.0331    0.0299    0.0030
C         2.9671    1.5014    0.0066   -0.0358   -0.0144   -0.0024
C        -4.7364    3.3486    0.2202    0.0014    0.0189    0.0007
C         3.6255   -0.7151   -0.0006   -0.0351   -0.0078   -0.0020
C         4.6513   -1.7396    0.0908    0.0406   -0.0053    0.0024
C         2.5611   -2.6780    0.0096    0.0133   -0.0342    0.0024
C         3.9791   -2.9786    0.0994   -0.0275    0.0315   -0.0027
C        -0.6787   -4.3610    0.1117    0.0054    0.0434   -0.0031
C         0.3451   -3.3358    0.0162    0.0077   -0.0354    0.0025
C         1.9538    4.9862    0.1974   -0.0180   -0.0262   -0.0017
C         4.4707    3.6292    0.1907    0.0124    0.0293    0.0018
C         3.1581    5.6948    0.2620   -0.0132    0.0159    0.0007
C         4.4009    5.0247    0.2573   -0.0203    0.0016   -0.0008
C         6.0491   -1.6734    0.1498    0.0245   -0.0170    0.0017
C         4.6854   -4.1862    0.1668   -0.0278    0.0117   -0.0017
C         6.7557   -2.8811    0.2249   -0.0149   -0.0123   -0.0004
C         6.0835   -4.1199    0.2324   -0.0014   -0.0190    0.0007
H         6.5636   -0.7119    0.1505   -0.1636    0.0838   -0.0102
H         4.1595   -5.1415    0.1810    0.1605   -0.0912    0.0102
H         6.6636   -5.0424    0.2843    0.1499    0.0754    0.0039
H        -5.2165   -0.0595    0.1415    0.1623   -0.0831   -0.0103
H        -2.8123    4.3701    0.1706   -0.1597    0.0908    0.0103
H        -5.3164    4.2710    0.2739   -0.1488   -0.0749    0.0039
H        -6.4984    2.0935    0.2595    0.0177   -0.1637   -0.0062
H         0.3559   -6.2665    0.2241   -0.0881   -0.1733    0.0120
H        -4.0801   -3.8731    0.2016    0.0968    0.1706   -0.0124
H        -3.9765   -6.3769    0.3099   -0.0823    0.1621   -0.0051
H        -1.7960   -7.5547    0.3185   -0.1785   -0.0193    0.0045
H         0.9891    5.4946    0.2174    0.0877    0.1732    0.0119
H         5.4267    3.1042    0.2032   -0.0959   -0.1694   -0.0124
H         5.3215    5.6077    0.3106    0.0818   -0.1604   -0.0048
H         3.1404    6.7843    0.3129    0.1785    0.0195    0.0048
H         7.8456   -2.8649    0.2681   -0.0180    0.1656   -0.0063
    57
stable frequency at   1286.659 1/cm IR int. is 7.146 a.m.u.; force const. is 6.970 mDyne/Ang.
Fe        0.6742   -0.3860   -0.2512   -0.0000    0.0000    0.0000
N         3.9155    0.5774    0.0034   -0.0040    0.0134    0.0000
N         1.6364   -3.6259    0.0222   -0.0146   -0.0037   -0.0000
N        -0.2400   -2.0716   -0.0762    0.0235    0.0447   -0.0036
N        -1.0127    0.5279   -0.0841   -0.0463    0.0251    0.0031
N         1.5882    1.2996   -0.0761   -0.0234   -0.0441   -0.0035
N         2.3604   -1.2995   -0.0741    0.0449   -0.0244    0.0032
N        -0.2889    2.8541    0.0151    0.0146    0.0046    0.0001
N        -2.5678   -1.3490   -0.0039    0.0037   -0.0137    0.0001
C        -2.6318    2.2074    0.0858   -0.0456   -0.0125    0.0020
C        -1.2138    1.9066   -0.0003    0.0467   -0.0496   -0.0048
C         1.0023    2.5641    0.0125    0.0115    0.0658    0.0051
C         2.0253    3.5896    0.1094   -0.0449   -0.0164   -0.0023
C        -3.3042    0.9681    0.0767   -0.0121    0.0437    0.0021
C        -2.2782   -0.0563   -0.0113    0.0656   -0.0120   -0.0044
C        -0.6084   -5.7574    0.2030    0.0221    0.0236   -0.0018
C        -3.1245   -4.3989    0.1900    0.0061    0.0285   -0.0017
C        -1.8131   -6.4652    0.2658   -0.0177   -0.0159    0.0012
C        -4.7020    0.9019    0.1386   -0.0228    0.0216    0.0018
C        -3.3382    3.4149    0.1551   -0.0320    0.0084    0.0018
C        -5.4086    2.1097    0.2138    0.0141   -0.0201   -0.0013
C        -3.0555   -5.7944    0.2587   -0.0016   -0.0241    0.0013
C        -1.6195   -2.2729    0.0041   -0.0465   -0.0441    0.0048
C        -1.9182   -3.6908    0.1037   -0.0132    0.0435   -0.0024
C         3.2652    2.9200    0.1027    0.0128   -0.0428   -0.0022
C         2.9671    1.5014    0.0066    0.0464    0.0434    0.0047
C        -4.7364    3.3486    0.2202    0.0251   -0.0020   -0.0013
C         3.6255   -0.7151   -0.0006   -0.0636    0.0116   -0.0044
C         4.6513   -1.7396    0.0908    0.0120   -0.0424    0.0021
C         2.5611   -2.6780    0.0096   -0.0457    0.0479   -0.0048
C         3.9791   -2.9786    0.0994    0.0447    0.0119    0.0020
C        -0.6787   -4.3610    0.1117    0.0448    0.0166   -0.0022
C         0.3451   -3.3358    0.0162   -0.0111   -0.0667    0.0052
C         1.9538    4.9862    0.1974   -0.0220   -0.0237   -0.0018
C         4.4707    3.6292    0.1907   -0.0059   -0.0285   -0.0017
C         3.1581    5.6948    0.2620    0.0178    0.0159    0.0012
C         4.4009    5.0247    0.2573    0.0015    0.0240    0.0013
C         6.0491   -1.6734    0.1498    0.0222   -0.0212    0.0018
C         4.6854   -4.1862    0.1668    0.0314   -0.0082    0.0018
C         6.7557   -2.8811    0.2249   -0.0138    0.0196   -0.0013
C         6.0835   -4.1199    0.2324   -0.0246    0.0021   -0.0012
H         6.5636   -0.7119    0.1505   -0.0645    0.0238   -0.0039
H         4.1595   -5.1415    0.1810   -0.0623    0.0443   -0.0044
H         6.6636   -5.0424    0.2843   -0.0528   -0.0136   -0.0029
H        -5.2165   -0.0595    0.1415    0.0652   -0.0242   -0.0041
H        -2.8123    4.3701    0.1706    0.0629   -0.0447   -0.0045
H        -5.3164    4.2710    0.2739    0.0536    0.0137   -0.0019
H        -6.4984    2.0935    0.2595    0.0163   -0.0444   -0.0027
H         0.3559   -6.2665    0.2241   -0.0283   -0.0743    0.0050
H        -4.0801   -3.8731    0.2016   -0.0376   -0.0488    0.0039
H        -3.9765   -6.3769    0.3099    0.0087   -0.0438    0.0024
H        -1.7960   -7.5547    0.3185   -0.0600   -0.0185    0.0031
H         0.9891    5.4946    0.2174    0.0280    0.0733    0.0048
H         5.4267    3.1042    0.2032    0.0380    0.0494    0.0040
H         5.3215    5.6077    0.3106   -0.0088    0.0437    0.0022
H         3.1404    6.7843    0.3129    0.0595    0.0185    0.0032
H         7.8456   -2.8649    0.2681   -0.0160    0.0433   -0.0025
    57
stable frequency at   1295.760 1/cm IR int. is 9.255 a.m.u.; force const. is 9.155 mDyne/Ang.
Fe        0.6742   -0.3860   -0.2512    0.0006    0.0012    0.0000
N         3.9155    0.5774    0.0034   -0.0293   -0.0117   -0.0014
N         1.6364   -3.6259    0.0222    0.0077   -0.0321    0.0017
N        -0.2400   -2.0716   -0.0762   -0.0384   -0.0719    0.0078
N        -1.0127    0.5279   -0.0841   -0.0003   -0.0031   -0.0002
N         1.5882    1.2996   -0.0761   -0.0389   -0.0720   -0.0077
N         2.3604   -1.2995   -0.0741   -0.0000   -0.0034    0.0002
N        -0.2889    2.8541    0.0151    0.0080   -0.0319   -0.0017
N        -2.5678   -1.3490   -0.0039   -0.0294   -0.0116    0.0013
C        -2.6318    2.2074    0.0858   -0.0109   -0.0135    0.0001
C        -1.2138    1.9066   -0.0003    0.0209    0.0220    0.0003
C         1.0023    2.5641    0.0125    0.0047    0.1018    0.0081
C         2.0253    3.5896    0.1094   -0.0522   -0.0135   -0.0022
C        -3.3042    0.9681    0.0767   -0.0051   -0.0172   -0.0003
C        -2.2782   -0.0563   -0.0113    0.0045    0.0298    0.0002
C        -0.6084   -5.7574    0.2030   -0.0119   -0.0173    0.0013
C        -3.1245   -4.3989    0.1900   -0.0070   -0.0176    0.0012
C        -1.8131   -6.4652    0.2658    0.0098    0.0122   -0.0008
C        -4.7020    0.9019    0.1386    0.0019    0.0061    0.0002
C        -3.3382    3.4149    0.1551    0.0036    0.0047   -0.0001
C        -5.4086    2.1097    0.2138   -0.0015    0.0043    0.0002
C        -3.0555   -5.7944    0.2587    0.0037    0.0153   -0.0010
C        -1.6195   -2.2729    0.0041    0.0799    0.0593   -0.0076
C        -1.9182   -3.6908    0.1037    0.0185   -0.0493    0.0024
C         3.2652    2.9200    0.1027    0.0185   -0.0496   -0.0023
C         2.9671    1.5014    0.0066    0.0804    0.0599    0.0077
C        -4.7364    3.3486    0.2202    0.0047    0.0013   -0.0002
C         3.6255   -0.7151   -0.0006    0.0046    0.0296   -0.0002
C         4.6513   -1.7396    0.0908   -0.0057   -0.0171    0.0003
C         2.5611   -2.6780    0.0096    0.0201    0.0228   -0.0003
C         3.9791   -2.9786    0.0994   -0.0100   -0.0138   -0.0001
C        -0.6787   -4.3610    0.1117   -0.0519   -0.0137    0.0021
C         0.3451   -3.3358    0.0162    0.0048    0.1018   -0.0082
C         1.9538    4.9862    0.1974   -0.0120   -0.0175   -0.0013
C         4.4707    3.6292    0.1907   -0.0070   -0.0180   -0.0013
C         3.1581    5.6948    0.2620    0.0101    0.0123    0.0009
C         4.4009    5.0247    0.2573    0.0037    0.0155    0.0009
C         6.0491   -1.6734    0.1498    0.0016    0.0062   -0.0002
C         4.6854   -4.1862    0.1668    0.0045    0.0042    0.0001
C         6.7557   -2.8811    0.2249   -0.0013    0.0047   -0.0002
C         6.0835   -4.1199    0.2324    0.0044    0.0017    0.0003
H         6.5636   -0.7119    0.1505    0.0542   -0.0219    0.0034
H         4.1595   -5.1415    0.1810   -0.0473    0.0328   -0.0031
H         6.6636   -5.0424    0.2843   -0.0207   -0.0141   -0.0040
H        -5.2165   -0.0595    0.1415    0.0521   -0.0206   -0.0033
H        -2.8123    4.3701    0.1706   -0.0442    0.0311    0.0033
H        -5.3164    4.2710    0.2739   -0.0178   -0.0126    0.0009
H        -6.4984    2.0935    0.2595   -0.0009   -0.0209   -0.0009
H         0.3559   -6.2665    0.2241    0.0117    0.0293   -0.0022
H        -4.0801   -3.8731    0.2016    0.0128    0.0165   -0.0016
H        -3.9765   -6.3769    0.3099   -0.0151    0.0473   -0.0021
H        -1.7960   -7.5547    0.3185    0.0591    0.0143   -0.0025
H         0.9891    5.4946    0.2174    0.0116    0.0292    0.0022
H         5.4267    3.1042    0.2032    0.0135    0.0176    0.0017
H         5.3215    5.6077    0.3106   -0.0156    0.0483    0.0021
H         3.1404    6.7843    0.3129    0.0586    0.0144    0.0027
H         7.8456   -2.8649    0.2681   -0.0007   -0.0238    0.0013
    57
stable frequency at   1296.352 1/cm IR int. is 9.299 a.m.u.; force const. is 9.207 mDyne/Ang.
Fe        0.6742   -0.3860   -0.2512    0.0012   -0.0006    0.0000
N         3.9155    0.5774    0.0034   -0.0316   -0.0071   -0.0014
N         1.6364   -3.6259    0.0222   -0.0106    0.0296   -0.0016
N        -0.2400   -2.0716   -0.0762   -0.0035   -0.0006    0.0002
N        -1.0127    0.5279   -0.0841   -0.0725    0.0392    0.0071
N         1.5882    1.2996   -0.0761   -0.0028    0.0009   -0.0001
N         2.3604   -1.2995   -0.0741   -0.0727    0.0394   -0.0072
N        -0.2889    2.8541    0.0151   -0.0110    0.0300    0.0016
N        -2.5678   -1.3490   -0.0039   -0.0321   -0.0071    0.0013
C        -2.6318    2.2074    0.0858   -0.0494   -0.0191    0.0017
C        -1.2138    1.9066   -0.0003    0.0597   -0.0815   -0.0076
C         1.0023    2.5641    0.0125    0.0285   -0.0060    0.0000
C         2.0253    3.5896    0.1094   -0.0161    0.0056   -0.0000
C        -3.3042    0.9681    0.0767   -0.0105    0.0508    0.0020
C        -2.2782   -0.0563   -0.0113    0.1006   -0.0047   -0.0070
C        -0.6084   -5.7574    0.2030    0.0054   -0.0017   -0.0001
C        -3.1245   -4.3989    0.1900    0.0037   -0.0054    0.0003
C        -1.8131   -6.4652    0.2658    0.0052    0.0015   -0.0002
C        -4.7020    0.9019    0.1386   -0.0171    0.0117    0.0013
C        -3.3382    3.4149    0.1551   -0.0195    0.0086    0.0013
C        -5.4086    2.1097    0.2138    0.0110   -0.0117   -0.0009
C        -3.0555   -5.7944    0.2587    0.0018   -0.0037    0.0001
C        -1.6195   -2.2729    0.0041    0.0236   -0.0185    0.0000
C        -1.9182   -3.6908    0.1037   -0.0132    0.0084   -0.0001
C         3.2652    2.9200    0.1027   -0.0139    0.0095    0.0001
C         2.9671    1.5014    0.0066    0.0219   -0.0196   -0.0000
C        -4.7364    3.3486    0.2202    0.0160   -0.0032   -0.0009
C         3.6255   -0.7151   -0.0006    0.1009   -0.0051    0.0071
C         4.6513   -1.7396    0.0908   -0.0106    0.0510   -0.0021
C         2.5611   -2.6780    0.0096    0.0603   -0.0818    0.0078
C         3.9791   -2.9786    0.0994   -0.0500   -0.0186   -0.0019
C        -0.6787   -4.3610    0.1117   -0.0173    0.0055    0.0000
C         0.3451   -3.3358    0.0162    0.0285   -0.0039   -0.0001
C         1.9538    4.9862    0.1974    0.0061   -0.0009    0.0002
C         4.4707    3.6292    0.1907    0.0040   -0.0044   -0.0002
C         3.1581    5.6948    0.2620    0.0045    0.0011    0.0001
C         4.4009    5.0247    0.2573    0.0019   -0.0045   -0.0002
C         6.0491   -1.6734    0.1498   -0.0173    0.0121   -0.0013
C         4.6854   -4.1862    0.1668   -0.0202    0.0086   -0.0013
C         6.7557   -2.8811    0.2249    0.0112   -0.0120    0.0009
C         6.0835   -4.1199    0.2324    0.0164   -0.0035    0.0008
H         6.5636   -0.7119    0.1505    0.0251   -0.0095    0.0019
H         4.1595   -5.1415    0.1810    0.0250   -0.0171    0.0021
H         6.6636   -5.0424    0.2843    0.0517    0.0174    0.0026
H        -5.2165   -0.0595    0.1415    0.0247   -0.0095   -0.0019
H        -2.8123    4.3701    0.1706    0.0222   -0.0152   -0.0019
H        -5.3164    4.2710    0.2739    0.0499    0.0167   -0.0019
H        -6.4984    2.0935    0.2595    0.0127   -0.0488   -0.0026
H         0.3559   -6.2665    0.2241   -0.0208   -0.0513    0.0040
H        -4.0801   -3.8731    0.2016    0.0336    0.0488   -0.0042
H        -3.9765   -6.3769    0.3099   -0.0145    0.0225   -0.0014
H        -1.7960   -7.5547    0.3185   -0.0240    0.0009    0.0008
H         0.9891    5.4946    0.2174   -0.0215   -0.0533   -0.0040
H         5.4267    3.1042    0.2032    0.0324    0.0472    0.0041
H         5.3215    5.6077    0.3106   -0.0146    0.0219    0.0013
H         3.1404    6.7843    0.3129   -0.0246    0.0005   -0.0010
H         7.8456   -2.8649    0.2681    0.0130   -0.0487    0.0025
    57
stable frequency at   1323.809 1/cm IR int. is 11.854 a.m.u.; force const. is 12.240 mDyne/Ang.
Fe        0.6742   -0.3860   -0.2512    0.0000    0.0000    0.0001
N         3.9155    0.5774    0.0034   -0.0352   -0.0103   -0.0014
N         1.6364   -3.6259    0.0222   -0.0108    0.0353   -0.0018
N        -0.2400   -2.0716   -0.0762    0.0270    0.0502   -0.0046
N        -1.0127    0.5279   -0.0841    0.0498   -0.0271   -0.0041
N         1.5882    1.2996   -0.0761   -0.0272   -0.0503   -0.0046
N         2.3604   -1.2995   -0.0741   -0.0507    0.0276   -0.0043
N        -0.2889    2.8541    0.0151    0.0106   -0.0350   -0.0018
N        -2.5678   -1.3490   -0.0039    0.0348    0.0102   -0.0014
C        -2.6318    2.2074    0.0858    0.0231    0.0297   -0.0001
C        -1.2138    1.9066   -0.0003   -0.0294    0.0622    0.0045
C         1.0023    2.5641    0.0125   -0.0085    0.0696    0.0048
C         2.0253    3.5896    0.1094   -0.0375    0.0112   -0.0002
C        -3.3042    0.9681    0.0767   -0.0128   -0.0355   -0.0004
C        -2.2782   -0.0563   -0.0113   -0.0678   -0.0091    0.0039
C        -0.6084   -5.7574    0.2030    0.0150    0.0233   -0.0018
C        -3.1245   -4.3989    0.1900    0.0108    0.0251   -0.0018
C        -1.8131   -6.4652    0.2658   -0.0236   -0.0049    0.0007
C        -4.7020    0.9019    0.1386    0.0228   -0.0142   -0.0016
C        -3.3382    3.4149    0.1551    0.0247   -0.0115   -0.0016
C        -5.4086    2.1097    0.2138   -0.0038    0.0238    0.0009
C        -3.0555   -5.7944    0.2587    0.0090   -0.0229    0.0009
C        -1.6195   -2.2729    0.0041   -0.0623   -0.0307    0.0044
C        -1.9182   -3.6908    0.1037   -0.0295    0.0249   -0.0005
C         3.2652    2.9200    0.1027    0.0295   -0.0247   -0.0004
C         2.9671    1.5014    0.0066    0.0626    0.0305    0.0044
C        -4.7364    3.3486    0.2202   -0.0223   -0.0096    0.0007
C         3.6255   -0.7151   -0.0006    0.0692    0.0088    0.0041
C         4.6513   -1.7396    0.0908    0.0122    0.0359   -0.0005
C         2.5611   -2.6780    0.0096    0.0304   -0.0632    0.0046
C         3.9791   -2.9786    0.0994   -0.0238   -0.0295   -0.0002
C        -0.6787   -4.3610    0.1117    0.0372   -0.0111   -0.0001
C         0.3451   -3.3358    0.0162    0.0088   -0.0696    0.0049
C         1.9538    4.9862    0.1974   -0.0150   -0.0234   -0.0018
C         4.4707    3.6292    0.1907   -0.0107   -0.0252   -0.0018
C         3.1581    5.6948    0.2620    0.0237    0.0050    0.0007
C         4.4009    5.0247    0.2573   -0.0091    0.0229    0.0008
C         6.0491   -1.6734    0.1498   -0.0228    0.0143   -0.0016
C         4.6854   -4.1862    0.1668   -0.0247    0.0114   -0.0016
C         6.7557   -2.8811    0.2249    0.0041   -0.0235    0.0009
C         6.0835   -4.1199    0.2324    0.0222    0.0093    0.0008
H         6.5636   -0.7119    0.1505    0.0203   -0.0081    0.0015
H         4.1595   -5.1415    0.1810    0.0191   -0.0131    0.0019
H         6.6636   -5.0424    0.2843   -0.0016   -0.0063   -0.0016
H        -5.2165   -0.0595    0.1415   -0.0197    0.0078    0.0016
H        -2.8123    4.3701    0.1706   -0.0183    0.0125    0.0012
H        -5.3164    4.2710    0.2739    0.0031    0.0068    0.0003
H        -6.4984    2.0935    0.2595   -0.0038   -0.0071    0.0002
H         0.3559   -6.2665    0.2241   -0.0084   -0.0223    0.0015
H        -4.0801   -3.8731    0.2016   -0.0136   -0.0183    0.0015
H        -3.9765   -6.3769    0.3099   -0.0075    0.0024    0.0009
H        -1.7960   -7.5547    0.3185    0.0029   -0.0051    0.0011
H         0.9891    5.4946    0.2174    0.0083    0.0220    0.0015
H         5.4267    3.1042    0.2032    0.0138    0.0184    0.0015
H         5.3215    5.6077    0.3106    0.0075   -0.0024    0.0009
H         3.1404    6.7843    0.3129   -0.0031    0.0051    0.0011
H         7.8456   -2.8649    0.2681    0.0041    0.0058    0.0003
    57
stable frequency at   1358.301 1/cm IR int. is 7.180 a.m.u.; force const. is 7.805 mDyne/Ang.
Fe        0.6742   -0.3860   -0.2512    0.0004   -0.0002   -0.0000
N         3.9155    0.5774    0.0034    0.0113   -0.0136    0.0002
N         1.6364   -3.6259    0.0222    0.0160   -0.0030    0.0003
N        -0.2400   -2.0716   -0.0762   -0.0027    0.0020   -0.0000
N        -1.0127    0.5279   -0.0841   -0.0036    0.0022   -0.0004
N         1.5882    1.2996   -0.0761   -0.0028    0.0017   -0.0000
N         2.3604   -1.2995   -0.0741   -0.0041    0.0025    0.0004
N        -0.2889    2.8541    0.0151    0.0160   -0.0034   -0.0003
N        -2.5678   -1.3490   -0.0039    0.0117   -0.0134   -0.0002
C        -2.6318    2.2074    0.0858    0.0238   -0.0604   -0.0032
C        -1.2138    1.9066   -0.0003   -0.0103    0.0094    0.0015
C         1.0023    2.5641    0.0125   -0.0265   -0.0087   -0.0009
C         2.0253    3.5896    0.1094    0.0134   -0.0014    0.0003
C        -3.3042    0.9681    0.0767    0.0648    0.0117   -0.0028
C        -2.2782   -0.0563   -0.0113   -0.0150    0.0060    0.0016
C        -0.6084   -5.7574    0.2030    0.0004    0.0111   -0.0006
C        -3.1245   -4.3989    0.1900   -0.0064    0.0010    0.0001
C        -1.8131   -6.4652    0.2658   -0.0023   -0.0019    0.0002
C        -4.7020    0.9019    0.1386   -0.0626    0.0461    0.0044
C        -3.3382    3.4149    0.1551   -0.0735    0.0279    0.0042
C        -5.4086    2.1097    0.2138   -0.0031   -0.0872   -0.0026
C        -3.0555   -5.7944    0.2587    0.0057   -0.0047    0.0000
C        -1.6195   -2.2729    0.0041   -0.0069    0.0281   -0.0012
C        -1.9182   -3.6908    0.1037    0.0018   -0.0123    0.0008
C         3.2652    2.9200    0.1027    0.0019   -0.0124   -0.0007
C         2.9671    1.5014    0.0066   -0.0065    0.0282    0.0011
C        -4.7364    3.3486    0.2202    0.0724    0.0500   -0.0017
C         3.6255   -0.7151   -0.0006   -0.0138    0.0061   -0.0015
C         4.6513   -1.7396    0.0908    0.0634    0.0117    0.0027
C         2.5611   -2.6780    0.0096   -0.0098    0.0084   -0.0015
C         3.9791   -2.9786    0.0994    0.0231   -0.0594    0.0031
C        -0.6787   -4.3610    0.1117    0.0136   -0.0015   -0.0003
C         0.3451   -3.3358    0.0162   -0.0263   -0.0091    0.0009
C         1.9538    4.9862    0.1974    0.0005    0.0112    0.0006
C         4.4707    3.6292    0.1907   -0.0064    0.0011   -0.0001
C         3.1581    5.6948    0.2620   -0.0024   -0.0020   -0.0002
C         4.4009    5.0247    0.2573    0.0057   -0.0048   -0.0000
C         6.0491   -1.6734    0.1498   -0.0621    0.0458   -0.0043
C         4.6854   -4.1862    0.1668   -0.0729    0.0276   -0.0042
C         6.7557   -2.8811    0.2249   -0.0027   -0.0861    0.0026
C         6.0835   -4.1199    0.2324    0.0715    0.0491    0.0017
H         6.5636   -0.7119    0.1505    0.0669   -0.0229    0.0036
H         4.1595   -5.1415    0.1810    0.0560   -0.0427    0.0038
H         6.6636   -5.0424    0.2843   -0.0837   -0.0482   -0.0021
H        -5.2165   -0.0595    0.1415    0.0657   -0.0224   -0.0036
H        -2.8123    4.3701    0.1706    0.0553   -0.0424   -0.0035
H        -5.3164    4.2710    0.2739   -0.0861   -0.0492    0.0018
H        -6.4984    2.0935    0.2595   -0.0059    0.0982    0.0030
H         0.3559   -6.2665    0.2241   -0.0064   -0.0008   -0.0002
H        -4.0801   -3.8731    0.2016   -0.0068    0.0015    0.0004
H        -3.9765   -6.3769    0.3099   -0.0164    0.0298   -0.0004
H        -1.7960   -7.5547    0.3185   -0.0232   -0.0020    0.0004
H         0.9891    5.4946    0.2174   -0.0066   -0.0012    0.0002
H         5.4267    3.1042    0.2032   -0.0070    0.0011   -0.0004
H         5.3215    5.6077    0.3106   -0.0164    0.0298    0.0003
H         3.1404    6.7843    0.3129   -0.0232   -0.0020   -0.0004
H         7.8456   -2.8649    0.2681   -0.0055    0.0960   -0.0032
    57
stable frequency at   1359.769 1/cm IR int. is 7.300 a.m.u.; force const. is 7.953 mDyne/Ang.
Fe        0.6742   -0.3860   -0.2512   -0.0003   -0.0004    0.0000
N         3.9155    0.5774    0.0034   -0.0026   -0.0165   -0.0003
N         1.6364   -3.6259    0.0222   -0.0136   -0.0106    0.0004
N        -0.2400   -2.0716   -0.0762    0.0026    0.0045    0.0003
N        -1.0127    0.5279   -0.0841    0.0019    0.0028    0.0000
N         1.5882    1.2996   -0.0761    0.0026    0.0044   -0.0003
N         2.3604   -1.2995   -0.0741    0.0019    0.0029   -0.0000
N        -0.2889    2.8541    0.0151   -0.0135   -0.0107   -0.0004
N        -2.5678   -1.3490   -0.0039   -0.0025   -0.0164    0.0004
C        -2.6318    2.2074    0.0858   -0.0119   -0.0015    0.0006
C        -1.2138    1.9066   -0.0003    0.0264    0.0056   -0.0008
C         1.0023    2.5641    0.0125    0.0061    0.0132    0.0016
C         2.0253    3.5896    0.1094    0.0161   -0.0640   -0.0038
C        -3.3042    0.9681    0.0767   -0.0017   -0.0123   -0.0004
C        -2.2782   -0.0563   -0.0113   -0.0081    0.0254    0.0007
C        -0.6084   -5.7574    0.2030    0.0459    0.0608   -0.0046
C        -3.1245   -4.3989    0.1900    0.0263    0.0729   -0.0048
C        -1.8131   -6.4652    0.2658   -0.0878    0.0024    0.0014
C        -4.7020    0.9019    0.1386    0.0106   -0.0005   -0.0005
C        -3.3382    3.4149    0.1551    0.0012    0.0057    0.0001
C        -5.4086    2.1097    0.2138   -0.0016    0.0025    0.0002
C        -3.0555   -5.7944    0.2587    0.0500   -0.0733    0.0021
C        -1.6195   -2.2729    0.0041    0.0078    0.0095   -0.0015
C        -1.9182   -3.6908    0.1037   -0.0621   -0.0199    0.0034
C         3.2652    2.9200    0.1027   -0.0623   -0.0201   -0.0034
C         2.9671    1.5014    0.0066    0.0078    0.0097    0.0015
C        -4.7364    3.3486    0.2202   -0.0047   -0.0056    0.0000
C         3.6255   -0.7151   -0.0006   -0.0081    0.0253   -0.0008
C         4.6513   -1.7396    0.0908   -0.0017   -0.0122    0.0004
C         2.5611   -2.6780    0.0096    0.0264    0.0056    0.0009
C         3.9791   -2.9786    0.0994   -0.0118   -0.0016   -0.0007
C        -0.6787   -4.3610    0.1117    0.0161   -0.0639    0.0040
C         0.3451   -3.3358    0.0162    0.0062    0.0130   -0.0016
C         1.9538    4.9862    0.1974    0.0459    0.0608    0.0045
C         4.4707    3.6292    0.1907    0.0263    0.0730    0.0048
C         3.1581    5.6948    0.2620   -0.0881    0.0023   -0.0016
C         4.4009    5.0247    0.2573    0.0501   -0.0733   -0.0020
C         6.0491   -1.6734    0.1498    0.0106   -0.0006    0.0004
C         4.6854   -4.1862    0.1668    0.0013    0.0057   -0.0001
C         6.7557   -2.8811    0.2249   -0.0016    0.0025   -0.0002
C         6.0835   -4.1199    0.2324   -0.0047   -0.0055    0.0000
H         6.5636   -0.7119    0.1505   -0.0008    0.0061   -0.0001
H         4.1595   -5.1415    0.1810    0.0004    0.0068   -0.0003
H         6.6636   -5.0424    0.2843    0.0279    0.0151   -0.0003
H        -5.2165   -0.0595    0.1415   -0.0008    0.0061    0.0001
H        -2.8123    4.3701    0.1706    0.0006    0.0067    0.0005
H        -5.3164    4.2710    0.2739    0.0281    0.0153   -0.0005
H        -6.4984    2.0935    0.2595   -0.0016    0.0212    0.0006
H         0.3559   -6.2665    0.2241   -0.0159   -0.0569    0.0028
H        -4.0801   -3.8731    0.2016   -0.0393   -0.0466    0.0030
H        -3.9765   -6.3769    0.3099   -0.0516    0.0877    0.0001
H        -1.7960   -7.5547    0.3185    0.1012    0.0054    0.0001
H         0.9891    5.4946    0.2174   -0.0156   -0.0568   -0.0027
H         5.4267    3.1042    0.2032   -0.0391   -0.0465   -0.0031
H         5.3215    5.6077    0.3106   -0.0515    0.0875   -0.0002
H         3.1404    6.7843    0.3129    0.1021    0.0055    0.0001
H         7.8456   -2.8649    0.2681   -0.0016    0.0209   -0.0005
    57
stable frequency at   1382.114 1/cm IR int. is 7.552 a.m.u.; force const. is 8.500 mDyne/Ang.
Fe        0.6742   -0.3860   -0.2512    0.0000   -0.0000   -0.0001
N         3.9155    0.5774    0.0034   -0.0201   -0.0062   -0.0008
N         1.6364   -3.6259    0.0222   -0.0059    0.0202   -0.0010
N        -0.2400   -2.0716   -0.0762    0.0045    0.0085   -0.0010
N        -1.0127    0.5279   -0.0841    0.0090   -0.0048   -0.0009
N         1.5882    1.2996   -0.0761   -0.0046   -0.0085   -0.0010
N         2.3604   -1.2995   -0.0741   -0.0091    0.0048   -0.0010
N        -0.2889    2.8541    0.0151    0.0057   -0.0202   -0.0010
N        -2.5678   -1.3490   -0.0039    0.0200    0.0065   -0.0008
C        -2.6318    2.2074    0.0858    0.0244   -0.0392   -0.0025
C        -1.2138    1.9066   -0.0003   -0.0118    0.0352    0.0024
C         1.0023    2.5641    0.0125   -0.0097    0.0360    0.0025
C         2.0253    3.5896    0.1094    0.0046   -0.0482   -0.0031
C        -3.3042    0.9681    0.0767    0.0470    0.0010   -0.0023
C        -2.2782   -0.0563   -0.0113   -0.0363   -0.0096    0.0021
C        -0.6084   -5.7574    0.2030   -0.0263   -0.0350    0.0026
C        -3.1245   -4.3989    0.1900   -0.0147   -0.0420    0.0027
C        -1.8131   -6.4652    0.2658    0.0631   -0.0073   -0.0008
C        -4.7020    0.9019    0.1386   -0.0351    0.0254    0.0024
C        -3.3382    3.4149    0.1551   -0.0409    0.0151    0.0023
C        -5.4086    2.1097    0.2138   -0.0072   -0.0598   -0.0015
C        -3.0555   -5.7944    0.2587   -0.0408    0.0498   -0.0013
C        -1.6195   -2.2729    0.0041   -0.0350   -0.0113    0.0022
C        -1.9182   -3.6908    0.1037    0.0426    0.0222   -0.0028
C         3.2652    2.9200    0.1027   -0.0426   -0.0221   -0.0028
C         2.9671    1.5014    0.0066    0.0352    0.0110    0.0023
C        -4.7364    3.3486    0.2202    0.0472    0.0389   -0.0009
C         3.6255   -0.7151   -0.0006    0.0364    0.0093    0.0021
C         4.6513   -1.7396    0.0908   -0.0476   -0.0010   -0.0023
C         2.5611   -2.6780    0.0096    0.0120   -0.0353    0.0024
C         3.9791   -2.9786    0.0994   -0.0248    0.0399   -0.0025
C        -0.6787   -4.3610    0.1117   -0.0048    0.0484   -0.0031
C         0.3451   -3.3358    0.0162    0.0099   -0.0359    0.0026
C         1.9538    4.9862    0.1974    0.0262    0.0347    0.0026
C         4.4707    3.6292    0.1907    0.0147    0.0418    0.0027
C         3.1581    5.6948    0.2620   -0.0631    0.0072   -0.0009
C         4.4009    5.0247    0.2573    0.0407   -0.0495   -0.0011
C         6.0491   -1.6734    0.1498    0.0359   -0.0261    0.0024
C         4.6854   -4.1862    0.1668    0.0418   -0.0155    0.0023
C         6.7557   -2.8811    0.2249    0.0072    0.0609   -0.0016
C         6.0835   -4.1199    0.2324   -0.0480   -0.0395   -0.0009
H         6.5636   -0.7119    0.1505   -0.0145    0.0009   -0.0005
H         4.1595   -5.1415    0.1810   -0.0086    0.0118   -0.0006
H         6.6636   -5.0424    0.2843    0.0722    0.0349    0.0017
H        -5.2165   -0.0595    0.1415    0.0131   -0.0005   -0.0004
H        -2.8123    4.3701    0.1706    0.0076   -0.0112   -0.0006
H        -5.3164    4.2710    0.2739   -0.0715   -0.0346    0.0015
H        -6.4984    2.0935    0.2595   -0.0101    0.0754    0.0026
H         0.3559   -6.2665    0.2241   -0.0043    0.0069    0.0004
H        -4.0801   -3.8731    0.2016    0.0090    0.0013    0.0003
H        -3.9765   -6.3769    0.3099    0.0380   -0.0766    0.0006
H        -1.7960   -7.5547    0.3185   -0.0826   -0.0105    0.0007
H         0.9891    5.4946    0.2174    0.0046   -0.0067    0.0004
H         5.4267    3.1042    0.2032   -0.0088   -0.0011    0.0002
H         5.3215    5.6077    0.3106   -0.0375    0.0758    0.0004
H         3.1404    6.7843    0.3129    0.0833    0.0105    0.0009
H         7.8456   -2.8649    0.2681    0.0101   -0.0766    0.0028
    57
stable frequency at   1394.946 1/cm IR int. is 4.788 a.m.u.; force const. is 5.490 mDyne/Ang.
Fe        0.6742   -0.3860   -0.2512   -0.0001    0.0000    0.0000
N         3.9155    0.5774    0.0034    0.0014   -0.0020   -0.0000
N         1.6364   -3.6259    0.0222    0.0024   -0.0002   -0.0000
N        -0.2400   -2.0716   -0.0762   -0.0003   -0.0007    0.0019
N        -1.0127    0.5279   -0.0841    0.0009   -0.0006   -0.0021
N         1.5882    1.2996   -0.0761    0.0005    0.0005    0.0018
N         2.3604   -1.2995   -0.0741   -0.0007    0.0004   -0.0018
N        -0.2889    2.8541    0.0151   -0.0020    0.0003    0.0000
N        -2.5678   -1.3490   -0.0039   -0.0013    0.0016   -0.0000
C        -2.6318    2.2074    0.0858   -0.0084    0.0589    0.0026
C        -1.2138    1.9066   -0.0003    0.0096   -0.0180   -0.0010
C         1.0023    2.5641    0.0125    0.0010    0.0191    0.0012
C         2.0253    3.5896    0.1094    0.0284   -0.0527   -0.0029
C        -3.3042    0.9681    0.0767   -0.0545   -0.0251    0.0020
C        -2.2782   -0.0563   -0.0113    0.0206    0.0016   -0.0009
C        -0.6084   -5.7574    0.2030   -0.0117   -0.0175    0.0013
C        -3.1245   -4.3989    0.1900   -0.0082   -0.0202    0.0013
C        -1.8131   -6.4652    0.2658    0.0635   -0.0169   -0.0003
C        -4.7020    0.9019    0.1386    0.0219   -0.0135   -0.0014
C        -3.3382    3.4149    0.1551    0.0239   -0.0106   -0.0014
C        -5.4086    2.1097    0.2138    0.0161    0.0642    0.0012
C        -3.0555   -5.7944    0.2587   -0.0490    0.0445   -0.0008
C        -1.6195   -2.2729    0.0041   -0.0154   -0.0110    0.0011
C        -1.9182   -3.6908    0.1037    0.0596    0.0052   -0.0025
C         3.2652    2.9200    0.1027   -0.0595   -0.0056   -0.0024
C         2.9671    1.5014    0.0066    0.0153    0.0118    0.0011
C        -4.7364    3.3486    0.2202   -0.0458   -0.0487    0.0005
C         3.6255   -0.7151   -0.0006   -0.0206   -0.0011   -0.0010
C         4.6513   -1.7396    0.0908    0.0546    0.0246    0.0020
C         2.5611   -2.6780    0.0096   -0.0100    0.0178   -0.0011
C         3.9791   -2.9786    0.0994    0.0091   -0.0590    0.0025
C        -0.6787   -4.3610    0.1117   -0.0281    0.0529   -0.0029
C         0.3451   -3.3358    0.0162   -0.0016   -0.0193    0.0012
C         1.9538    4.9862    0.1974    0.0116    0.0176    0.0012
C         4.4707    3.6292    0.1907    0.0080    0.0200    0.0013
C         3.1581    5.6948    0.2620   -0.0635    0.0167   -0.0004
C         4.4009    5.0247    0.2573    0.0490   -0.0443   -0.0006
C         6.0491   -1.6734    0.1498   -0.0228    0.0144   -0.0014
C         4.6854   -4.1862    0.1668   -0.0250    0.0110   -0.0014
C         6.7557   -2.8811    0.2249   -0.0158   -0.0650    0.0013
C         6.0835   -4.1199    0.2324    0.0464    0.0489    0.0006
H         6.5636   -0.7119    0.1505   -0.0542    0.0316   -0.0035
H         4.1595   -5.1415    0.1810   -0.0563    0.0279   -0.0032
H         6.6636   -5.0424    0.2843   -0.0991   -0.0396   -0.0058
H        -5.2165   -0.0595    0.1415    0.0573   -0.0329   -0.0038
H        -2.8123    4.3701    0.1706    0.0587   -0.0294   -0.0035
H        -5.3164    4.2710    0.2739    0.0996    0.0394   -0.0027
H        -6.4984    2.0935    0.2595    0.0212   -0.1029   -0.0044
H         0.3559   -6.2665    0.2241   -0.0400   -0.0695    0.0056
H        -4.0801   -3.8731    0.2016   -0.0351   -0.0706    0.0055
H        -3.9765   -6.3769    0.3099    0.0416   -0.1041    0.0023
H        -1.7960   -7.5547    0.3185   -0.1091   -0.0224    0.0023
H         0.9891    5.4946    0.2174    0.0399    0.0696    0.0056
H         5.4267    3.1042    0.2032    0.0352    0.0708    0.0055
H         5.3215    5.6077    0.3106   -0.0418    0.1044    0.0019
H         3.1404    6.7843    0.3129    0.1090    0.0223    0.0028
H         7.8456   -2.8649    0.2681   -0.0209    0.1029   -0.0043
    57
stable frequency at   1415.093 1/cm IR int. is 2.552 a.m.u.; force const. is 3.011 mDyne/Ang.
Fe        0.6742   -0.3860   -0.2512    0.0007    0.0010    0.0000
N         3.9155    0.5774    0.0034   -0.0043   -0.0166    0.0003
N         1.6364   -3.6259    0.0222   -0.0134   -0.0113   -0.0001
N        -0.2400   -2.0716   -0.0762    0.0018    0.0058   -0.0002
N        -1.0127    0.5279   -0.0841   -0.0041   -0.0087   -0.0000
N         1.5882    1.2996   -0.0761    0.0019    0.0058    0.0002
N         2.3604   -1.2995   -0.0741   -0.0040   -0.0088    0.0000
N        -0.2889    2.8541    0.0151   -0.0134   -0.0114    0.0000
N        -2.5678   -1.3490   -0.0039   -0.0042   -0.0167   -0.0002
C        -2.6318    2.2074    0.0858   -0.0134   -0.0225    0.0000
C        -1.2138    1.9066   -0.0003    0.0448    0.0249   -0.0005
C         1.0023    2.5641    0.0125   -0.0111   -0.0175   -0.0011
C         2.0253    3.5896    0.1094   -0.0564    0.0316    0.0005
C        -3.3042    0.9681    0.0767   -0.0049   -0.0124   -0.0003
C        -2.2782   -0.0563   -0.0113   -0.0066    0.0557    0.0009
C        -0.6084   -5.7574    0.2030    0.0293    0.0419   -0.0031
C        -3.1245   -4.3989    0.1900    0.0223    0.0470   -0.0032
C        -1.8131   -6.4652    0.2658    0.0319   -0.0351    0.0013
C        -4.7020    0.9019    0.1386    0.0183    0.0047   -0.0007
C        -3.3382    3.4149    0.1551    0.0026    0.0142    0.0003
C        -5.4086    2.1097    0.2138   -0.0028   -0.0151   -0.0003
C        -3.0555   -5.7944    0.2587   -0.0482    0.0094    0.0009
C        -1.6195   -2.2729    0.0041   -0.0043   -0.0271    0.0013
C        -1.9182   -3.6908    0.1037    0.0542   -0.0270    0.0000
C         3.2652    2.9200    0.1027    0.0544   -0.0272    0.0000
C         2.9671    1.5014    0.0066   -0.0042   -0.0274   -0.0012
C        -4.7364    3.3486    0.2202   -0.0091   -0.0011    0.0004
C         3.6255   -0.7151   -0.0006   -0.0067    0.0559   -0.0011
C         4.6513   -1.7396    0.0908   -0.0047   -0.0122    0.0003
C         2.5611   -2.6780    0.0096    0.0446    0.0249    0.0007
C         3.9791   -2.9786    0.0994   -0.0136   -0.0227   -0.0001
C        -0.6787   -4.3610    0.1117   -0.0560    0.0317   -0.0006
C         0.3451   -3.3358    0.0162   -0.0110   -0.0176    0.0011
C         1.9538    4.9862    0.1974    0.0295    0.0423    0.0031
C         4.4707    3.6292    0.1907    0.0225    0.0474    0.0033
C         3.1581    5.6948    0.2620    0.0319   -0.0352   -0.0012
C         4.4009    5.0247    0.2573   -0.0483    0.0093   -0.0010
C         6.0491   -1.6734    0.1498    0.0184    0.0045    0.0006
C         4.6854   -4.1862    0.1668    0.0028    0.0141   -0.0002
C         6.7557   -2.8811    0.2249   -0.0030   -0.0151    0.0003
C         6.0835   -4.1199    0.2324   -0.0090   -0.0009   -0.0004
H         6.5636   -0.7119    0.1505   -0.0208    0.0281   -0.0019
H         4.1595   -5.1415    0.1810   -0.0062    0.0212   -0.0009
H         6.6636   -5.0424    0.2843    0.0389    0.0309    0.0005
H        -5.2165   -0.0595    0.1415   -0.0201    0.0278    0.0019
H        -2.8123    4.3701    0.1706   -0.0052    0.0208    0.0009
H        -5.3164    4.2710    0.2739    0.0399    0.0314   -0.0010
H        -6.4984    2.0935    0.2595   -0.0038    0.0788    0.0025
H         0.3559   -6.2665    0.2241   -0.1073   -0.2125    0.0153
H        -4.0801   -3.8731    0.2016   -0.1155   -0.2099    0.0155
H        -3.9765   -6.3769    0.3099    0.0422   -0.1450    0.0051
H        -1.7960   -7.5547    0.3185   -0.1339   -0.0441    0.0049
H         0.9891    5.4946    0.2174   -0.1077   -0.2137   -0.0152
H         5.4267    3.1042    0.2032   -0.1160   -0.2114   -0.0156
H         5.3215    5.6077    0.3106    0.0425   -0.1457   -0.0049
H         3.1404    6.7843    0.3129   -0.1342   -0.0444   -0.0051
H         7.8456   -2.8649    0.2681   -0.0040    0.0788   -0.0025
    57
stable frequency at   1415.595 1/cm IR int. is 2.562 a.m.u.; force const. is 3.025 mDyne/Ang.
Fe        0.6742   -0.3860   -0.2512   -0.0010    0.0007   -0.0000
N         3.9155    0.5774    0.0034    0.0108   -0.0125   -0.0003
N         1.6364   -3.6259    0.0222    0.0142   -0.0042   -0.0002
N        -0.2400   -2.0716   -0.0762    0.0084   -0.0043    0.0000
N        -1.0127    0.5279   -0.0841   -0.0057    0.0021    0.0001
N         1.5882    1.2996   -0.0761    0.0087   -0.0038    0.0000
N         2.3604   -1.2995   -0.0741   -0.0053    0.0019   -0.0000
N        -0.2889    2.8541    0.0151    0.0142   -0.0046    0.0002
N        -2.5678   -1.3490   -0.0039    0.0111   -0.0123    0.0004
C        -2.6318    2.2074    0.0858    0.0286    0.0586    0.0007
C        -1.2138    1.9066   -0.0003    0.0283   -0.0041   -0.0010
C         1.0023    2.5641    0.0125   -0.0531   -0.0069   -0.0012
C         2.0253    3.5896    0.1094    0.0107   -0.0046    0.0001
C        -3.3042    0.9681    0.0767   -0.0350   -0.0596   -0.0002
C        -2.2782   -0.0563   -0.0113    0.0178   -0.0121   -0.0007
C        -0.6084   -5.7574    0.2030   -0.0048    0.0174   -0.0009
C        -3.1245   -4.3989    0.1900   -0.0141    0.0018    0.0004
C        -1.8131   -6.4652    0.2658    0.0141   -0.0023   -0.0001
C        -4.7020    0.9019    0.1386   -0.0413    0.0300    0.0029
C        -3.3382    3.4149    0.1551   -0.0470    0.0218    0.0029
C        -5.4086    2.1097    0.2138    0.0360    0.0336   -0.0007
C        -3.0555   -5.7944    0.2587    0.0017   -0.0088    0.0004
C        -1.6195   -2.2729    0.0041   -0.0249    0.0441   -0.0013
C        -1.9182   -3.6908    0.1037    0.0212   -0.0124    0.0002
C         3.2652    2.9200    0.1027    0.0230   -0.0132   -0.0001
C         2.9671    1.5014    0.0066   -0.0247    0.0426    0.0010
C        -4.7364    3.3486    0.2202   -0.0108   -0.0499   -0.0012
C         3.6255   -0.7151   -0.0006    0.0176   -0.0107    0.0008
C         4.6513   -1.7396    0.0908   -0.0347   -0.0572    0.0001
C         2.5611   -2.6780    0.0096    0.0270   -0.0046    0.0010
C         3.9791   -2.9786    0.0994    0.0268    0.0571   -0.0007
C        -0.6787   -4.3610    0.1117    0.0124   -0.0056   -0.0000
C         0.3451   -3.3358    0.0162   -0.0516   -0.0062    0.0010
C         1.9538    4.9862    0.1974   -0.0038    0.0190    0.0010
C         4.4707    3.6292    0.1907   -0.0133    0.0035   -0.0003
C         3.1581    5.6948    0.2620    0.0152   -0.0036    0.0001
C         4.4009    5.0247    0.2573    0.0001   -0.0086   -0.0004
C         6.0491   -1.6734    0.1498   -0.0386    0.0281   -0.0027
C         4.6854   -4.1862    0.1668   -0.0439    0.0205   -0.0027
C         6.7557   -2.8811    0.2249    0.0347    0.0337    0.0006
C         6.0835   -4.1199    0.2324   -0.0117   -0.0488    0.0011
H         6.5636   -0.7119    0.1505    0.2081   -0.1056    0.0128
H         4.1595   -5.1415    0.1810    0.2049   -0.1130    0.0128
H         6.6636   -5.0424    0.2843    0.1440    0.0417    0.0046
H        -5.2165   -0.0595    0.1415    0.2177   -0.1104   -0.0137
H        -2.8123    4.3701    0.1706    0.2142   -0.1184   -0.0136
H        -5.3164    4.2710    0.2739    0.1485    0.0427   -0.0048
H        -6.4984    2.0935    0.2595    0.0452   -0.1359   -0.0065
H         0.3559   -6.2665    0.2241   -0.0259   -0.0179    0.0013
H        -4.0801   -3.8731    0.2016   -0.0184   -0.0020    0.0009
H        -3.9765   -6.3769    0.3099   -0.0306    0.0398   -0.0012
H        -1.7960   -7.5547    0.3185   -0.0737   -0.0033    0.0013
H         0.9891    5.4946    0.2174   -0.0298   -0.0253   -0.0018
H         5.4267    3.1042    0.2032   -0.0225   -0.0094   -0.0015
H         5.3215    5.6077    0.3106   -0.0293    0.0349    0.0010
H         3.1404    6.7843    0.3129   -0.0790   -0.0048   -0.0016
H         7.8456   -2.8649    0.2681    0.0435   -0.1316    0.0063
    57
stable frequency at   1419.477 1/cm IR int. is 2.376 a.m.u.; force const. is 2.820 mDyne/Ang.
Fe        0.6742   -0.3860   -0.2512   -0.0000    0.0000    0.0000
N         3.9155    0.5774    0.0034    0.0092    0.0032   -0.0004
N         1.6364   -3.6259    0.0222    0.0029   -0.0088   -0.0003
N        -0.2400   -2.0716   -0.0762    0.0036    0.0066   -0.0005
N        -1.0127    0.5279   -0.0841    0.0061   -0.0037   -0.0004
N         1.5882    1.2996   -0.0761   -0.0031   -0.0068   -0.0005
N         2.3604   -1.2995   -0.0741   -0.0064    0.0037   -0.0004
N        -0.2889    2.8541    0.0151   -0.0022    0.0085   -0.0003
N        -2.5678   -1.3490   -0.0039   -0.0085   -0.0042   -0.0004
C        -2.6318    2.2074    0.0858   -0.0268   -0.0376   -0.0001
C        -1.2138    1.9066   -0.0003   -0.0288   -0.0115    0.0005
C         1.0023    2.5641    0.0125    0.0305    0.0050    0.0008
C         2.0253    3.5896    0.1094    0.0390   -0.0123    0.0003
C        -3.3042    0.9681    0.0767    0.0150    0.0426    0.0006
C        -2.2782   -0.0563   -0.0113   -0.0054    0.0331    0.0006
C        -0.6084   -5.7574    0.2030    0.0265    0.0426   -0.0031
C        -3.1245   -4.3989    0.1900    0.0204    0.0457   -0.0031
C        -1.8131   -6.4652    0.2658    0.0126   -0.0254    0.0011
C        -4.7020    0.9019    0.1386    0.0421   -0.0268   -0.0028
C        -3.3382    3.4149    0.1551    0.0454   -0.0199   -0.0027
C        -5.4086    2.1097    0.2138   -0.0262   -0.0152    0.0008
C        -3.0555   -5.7944    0.2587   -0.0281   -0.0052    0.0011
C        -1.6195   -2.2729    0.0041    0.0125   -0.0297    0.0010
C        -1.9182   -3.6908    0.1037    0.0329   -0.0246    0.0005
C         3.2652    2.9200    0.1027   -0.0313    0.0238    0.0005
C         2.9671    1.5014    0.0066   -0.0141    0.0319    0.0010
C        -4.7364    3.3486    0.2202   -0.0035    0.0300    0.0012
C         3.6255   -0.7151   -0.0006    0.0062   -0.0334    0.0007
C         4.6513   -1.7396    0.0908   -0.0168   -0.0454    0.0006
C         2.5611   -2.6780    0.0096    0.0305    0.0116    0.0007
C         3.9791   -2.9786    0.0994    0.0279    0.0403   -0.0001
C        -0.6787   -4.3610    0.1117   -0.0386    0.0122    0.0002
C         0.3451   -3.3358    0.0162   -0.0334   -0.0053    0.0008
C         1.9538    4.9862    0.1974   -0.0267   -0.0415   -0.0030
C         4.4707    3.6292    0.1907   -0.0211   -0.0453   -0.0031
C         3.1581    5.6948    0.2620   -0.0116    0.0252    0.0011
C         4.4009    5.0247    0.2573    0.0279    0.0047    0.0011
C         6.0491   -1.6734    0.1498   -0.0438    0.0280   -0.0029
C         4.6854   -4.1862    0.1668   -0.0474    0.0210   -0.0028
C         6.7557   -2.8811    0.2249    0.0279    0.0170    0.0008
C         6.0835   -4.1199    0.2324    0.0026   -0.0326    0.0012
H         6.5636   -0.7119    0.1505    0.1771   -0.0923    0.0109
H         4.1595   -5.1415    0.1810    0.1739   -0.0980    0.0108
H         6.6636   -5.0424    0.2843    0.1052    0.0258    0.0043
H        -5.2165   -0.0595    0.1415   -0.1676    0.0875    0.0106
H        -2.8123    4.3701    0.1706   -0.1641    0.0928    0.0106
H        -5.3164    4.2710    0.2739   -0.0974   -0.0233    0.0031
H        -6.4984    2.0935    0.2595   -0.0327    0.1014    0.0050
H         0.3559   -6.2665    0.2241   -0.0838   -0.1619    0.0114
H        -4.0801   -3.8731    0.2016   -0.0896   -0.1591    0.0117
H        -3.9765   -6.3769    0.3099    0.0228   -0.0944    0.0034
H        -1.7960   -7.5547    0.3185   -0.0977   -0.0318    0.0039
H         0.9891    5.4946    0.2174    0.0816    0.1598    0.0111
H         5.4267    3.1042    0.2032    0.0877    0.1578    0.0116
H         5.3215    5.6077    0.3106   -0.0244    0.0958    0.0033
H         3.1404    6.7843    0.3129    0.0924    0.0315    0.0039
H         7.8456   -2.8649    0.2681    0.0349   -0.1074    0.0052
    57
stable frequency at   1443.741 1/cm IR int. is 4.042 a.m.u.; force const. is 4.964 mDyne/Ang.
Fe        0.6742   -0.3860   -0.2512   -0.0000    0.0000    0.0000
N         3.9155    0.5774    0.0034    0.0246    0.0093    0.0003
N         1.6364   -3.6259    0.0222   -0.0068    0.0253   -0.0006
N        -0.2400   -2.0716   -0.0762   -0.0186    0.0102   -0.0000
N        -1.0127    0.5279   -0.0841   -0.0103   -0.0189   -0.0002
N         1.5882    1.2996   -0.0761    0.0187   -0.0101    0.0001
N         2.3604   -1.2995   -0.0741    0.0103    0.0190   -0.0002
N        -0.2889    2.8541    0.0151    0.0068   -0.0253   -0.0006
N        -2.5678   -1.3490   -0.0039   -0.0245   -0.0097    0.0003
C        -2.6318    2.2074    0.0858    0.0027   -0.0400   -0.0014
C        -1.2138    1.9066   -0.0003    0.0473    0.0449    0.0005
C         1.0023    2.5641    0.0125   -0.0614    0.0118    0.0001
C         2.0253    3.5896    0.1094    0.0137   -0.0329   -0.0018
C        -3.3042    0.9681    0.0767   -0.0363   -0.0151    0.0013
C        -2.2782   -0.0563   -0.0113    0.0131    0.0642   -0.0002
C        -0.6084   -5.7574    0.2030    0.0172   -0.0235    0.0012
C        -3.1245   -4.3989    0.1900    0.0258   -0.0085   -0.0005
C        -1.8131   -6.4652    0.2658   -0.0325   -0.0090    0.0011
C        -4.7020    0.9019    0.1386    0.0228    0.0215   -0.0003
C        -3.3382    3.4149    0.1551    0.0099    0.0288    0.0004
C        -5.4086    2.1097    0.2138    0.0125   -0.0387   -0.0018
C        -3.0555   -5.7944    0.2587   -0.0086    0.0340   -0.0014
C        -1.6195   -2.2729    0.0041    0.0427   -0.0466    0.0005
C        -1.9182   -3.6908    0.1037   -0.0375    0.0005    0.0012
C         3.2652    2.9200    0.1027    0.0375    0.0000    0.0013
C         2.9671    1.5014    0.0066   -0.0431    0.0467    0.0002
C        -4.7364    3.3486    0.2202   -0.0404   -0.0100    0.0015
C         3.6255   -0.7151   -0.0006   -0.0128   -0.0640   -0.0000
C         4.6513   -1.7396    0.0908    0.0355    0.0153    0.0012
C         2.5611   -2.6780    0.0096   -0.0474   -0.0448    0.0004
C         3.9791   -2.9786    0.0994   -0.0023    0.0392   -0.0013
C        -0.6787   -4.3610    0.1117   -0.0132    0.0327   -0.0019
C         0.3451   -3.3358    0.0162    0.0614   -0.0119    0.0003
C         1.9538    4.9862    0.1974   -0.0175    0.0233    0.0011
C         4.4707    3.6292    0.1907   -0.0261    0.0083   -0.0006
C         3.1581    5.6948    0.2620    0.0327    0.0093    0.0012
C         4.4009    5.0247    0.2573    0.0088   -0.0342   -0.0014
C         6.0491   -1.6734    0.1498   -0.0224   -0.0211   -0.0003
C         4.6854   -4.1862    0.1668   -0.0095   -0.0284    0.0004
C         6.7557   -2.8811    0.2249   -0.0121    0.0377   -0.0018
C         6.0835   -4.1199    0.2324    0.0394    0.0099    0.0015
H         6.5636   -0.7119    0.1505   -0.0025   -0.0383    0.0014
H         4.1595   -5.1415    0.1810   -0.0224   -0.0278   -0.0004
H         6.6636   -5.0424    0.2843   -0.1191   -0.0932   -0.0027
H        -5.2165   -0.0595    0.1415    0.0022    0.0392    0.0014
H        -2.8123    4.3701    0.1706    0.0225    0.0285   -0.0003
H        -5.3164    4.2710    0.2739    0.1214    0.0953   -0.0026
H        -6.4984    2.0935    0.2595    0.0124    0.1588    0.0042
H         0.3559   -6.2665    0.2241    0.0387    0.0058   -0.0010
H        -4.0801   -3.8731    0.2016    0.0266   -0.0177    0.0001
H        -3.9765   -6.3769    0.3099    0.0809   -0.1024    0.0028
H        -1.7960   -7.5547    0.3185    0.1384   -0.0087   -0.0019
H         0.9891    5.4946    0.2174   -0.0383   -0.0048   -0.0010
H         5.4267    3.1042    0.2032   -0.0263    0.0187    0.0001
H         5.3215    5.6077    0.3106   -0.0817    0.1034    0.0026
H         3.1404    6.7843    0.3129   -0.1388    0.0089   -0.0022
H         7.8456   -2.8649    0.2681   -0.0121   -0.1551    0.0042
    57
stable frequency at   1453.342 1/cm IR int. is 3.366 a.m.u.; force const. is 4.189 mDyne/Ang.
Fe        0.6742   -0.3860   -0.2512    0.0001   -0.0001   -0.0000
N         3.9155    0.5774    0.0034    0.0039   -0.0040    0.0000
N         1.6364   -3.6259    0.0222    0.0057    0.0026   -0.0000
N        -0.2400   -2.0716   -0.0762   -0.0014    0.0003   -0.0023
N        -1.0127    0.5279   -0.0841    0.0000   -0.0012    0.0026
N         1.5882    1.2996   -0.0761    0.0013    0.0000   -0.0022
N         2.3604   -1.2995   -0.0741   -0.0001    0.0016    0.0021
N        -0.2889    2.8541    0.0151   -0.0053   -0.0024   -0.0001
N        -2.5678   -1.3490   -0.0039   -0.0035    0.0053   -0.0000
C        -2.6318    2.2074    0.0858    0.0513    0.0158   -0.0020
C        -1.2138    1.9066   -0.0003   -0.0128    0.0035    0.0006
C         1.0023    2.5641    0.0125   -0.0141   -0.0105   -0.0009
C         2.0253    3.5896    0.1094    0.0545    0.0147    0.0026
C        -3.3042    0.9681    0.0767    0.0199   -0.0548   -0.0029
C        -2.2782   -0.0563   -0.0113   -0.0119    0.0166    0.0009
C        -0.6084   -5.7574    0.2030    0.0345    0.0546   -0.0039
C        -3.1245   -4.3989    0.1900    0.0302    0.0586   -0.0041
C        -1.8131   -6.4652    0.2658   -0.0100   -0.0204    0.0012
C        -4.7020    0.9019    0.1386   -0.0508    0.0295    0.0032
C        -3.3382    3.4149    0.1551   -0.0554    0.0254    0.0033
C        -5.4086    2.1097    0.2138    0.0161   -0.0054   -0.0009
C        -3.0555   -5.7944    0.2587   -0.0129   -0.0170    0.0012
C        -1.6195   -2.2729    0.0041    0.0064    0.0119   -0.0009
C        -1.9182   -3.6908    0.1037    0.0126   -0.0560    0.0034
C         3.2652    2.9200    0.1027   -0.0097    0.0566    0.0033
C         2.9671    1.5014    0.0066   -0.0073   -0.0129   -0.0009
C        -4.7364    3.3486    0.2202    0.0207   -0.0102   -0.0013
C         3.6255   -0.7151   -0.0006    0.0103   -0.0182    0.0009
C         4.6513   -1.7396    0.0908   -0.0154    0.0559   -0.0026
C         2.5611   -2.6780    0.0096    0.0139   -0.0046    0.0008
C         3.9791   -2.9786    0.0994   -0.0552   -0.0129   -0.0023
C        -0.6787   -4.3610    0.1117   -0.0564   -0.0176    0.0027
C         0.3451   -3.3358    0.0162    0.0145    0.0116   -0.0008
C         1.9538    4.9862    0.1974   -0.0355   -0.0527   -0.0038
C         4.4707    3.6292    0.1907   -0.0309   -0.0562   -0.0040
C         3.1581    5.6948    0.2620    0.0136    0.0214    0.0014
C         4.4009    5.0247    0.2573    0.0127    0.0133    0.0010
C         6.0491   -1.6734    0.1498    0.0508   -0.0332    0.0033
C         4.6854   -4.1862    0.1668    0.0544   -0.0285    0.0033
C         6.7557   -2.8811    0.2249   -0.0192    0.0103   -0.0012
C         6.0835   -4.1199    0.2324   -0.0146    0.0118   -0.0013
H         6.5636   -0.7119    0.1505   -0.1404    0.0711   -0.0085
H         4.1595   -5.1415    0.1810   -0.1394    0.0744   -0.0089
H         6.6636   -5.0424    0.2843   -0.0632   -0.0143    0.0019
H        -5.2165   -0.0595    0.1415    0.1348   -0.0725   -0.0085
H        -2.8123    4.3701    0.1706    0.1336   -0.0758   -0.0087
H        -5.3164    4.2710    0.2739    0.0464    0.0015   -0.0016
H        -6.4984    2.0935    0.2595    0.0203   -0.0593   -0.0028
H         0.3559   -6.2665    0.2241   -0.0747   -0.1473    0.0102
H        -4.0801   -3.8731    0.2016   -0.0796   -0.1478    0.0106
H        -3.9765   -6.3769    0.3099    0.0137   -0.0662    0.0027
H        -1.7960   -7.5547    0.3185   -0.0501   -0.0252    0.0029
H         0.9891    5.4946    0.2174    0.0701    0.1439    0.0097
H         5.4267    3.1042    0.2032    0.0756    0.1453    0.0104
H         5.3215    5.6077    0.3106   -0.0204    0.0721    0.0029
H         3.1404    6.7843    0.3129    0.0366    0.0260    0.0024
H         7.8456   -2.8649    0.2681   -0.0236    0.0424   -0.0026
    57
stable frequency at   1453.781 1/cm IR int. is 2.750 a.m.u.; force const. is 3.424 mDyne/Ang.
Fe        0.6742   -0.3860   -0.2512   -0.0002   -0.0004    0.0000
N         3.9155    0.5774    0.0034    0.0028    0.0130    0.0003
N         1.6364   -3.6259    0.0222    0.0078    0.0092   -0.0004
N        -0.2400   -2.0716   -0.0762    0.0007    0.0016   -0.0000
N        -1.0127    0.5279   -0.0841    0.0017    0.0033   -0.0001
N         1.5882    1.2996   -0.0761    0.0010    0.0014    0.0002
N         2.3604   -1.2995   -0.0741    0.0019    0.0036   -0.0001
N        -0.2889    2.8541    0.0151    0.0087    0.0091    0.0004
N        -2.5678   -1.3490   -0.0039    0.0024    0.0128   -0.0003
C        -2.6318    2.2074    0.0858   -0.0388    0.0501    0.0036
C        -1.2138    1.9066   -0.0003    0.0031   -0.0249   -0.0014
C         1.0023    2.5641    0.0125    0.0046    0.0013    0.0002
C         2.0253    3.5896    0.1094   -0.0237   -0.0041   -0.0009
C        -3.3042    0.9681    0.0767    0.0608   -0.0026   -0.0031
C        -2.2782   -0.0563   -0.0113   -0.0216   -0.0123    0.0011
C        -0.6084   -5.7574    0.2030    0.0101    0.0150   -0.0011
C        -3.1245   -4.3989    0.1900    0.0101    0.0145   -0.0011
C        -1.8131   -6.4652    0.2658    0.0019   -0.0089    0.0004
C        -4.7020    0.9019    0.1386   -0.0124   -0.0438   -0.0009
C        -3.3382    3.4149    0.1551   -0.0259   -0.0363    0.0001
C        -5.4086    2.1097    0.2138   -0.0356    0.0767    0.0041
C        -3.0555   -5.7944    0.2587   -0.0095    0.0029    0.0001
C        -1.6195   -2.2729    0.0041   -0.0005    0.0026   -0.0002
C        -1.9182   -3.6908    0.1037    0.0066   -0.0190    0.0010
C         3.2652    2.9200    0.1027    0.0096   -0.0218   -0.0010
C         2.9671    1.5014    0.0066   -0.0015    0.0043    0.0002
C        -4.7364    3.3486    0.2202    0.0818    0.0124   -0.0034
C         3.6255   -0.7151   -0.0006   -0.0218   -0.0122   -0.0011
C         4.6513   -1.7396    0.0908    0.0605   -0.0061    0.0032
C         2.5611   -2.6780    0.0096    0.0009   -0.0246    0.0013
C         3.9791   -2.9786    0.0994   -0.0333    0.0500   -0.0033
C        -0.6787   -4.3610    0.1117   -0.0197   -0.0002    0.0005
C         0.3451   -3.3358    0.0162    0.0047   -0.0004   -0.0001
C         1.9538    4.9862    0.1974    0.0110    0.0198    0.0014
C         4.4707    3.6292    0.1907    0.0107    0.0197    0.0014
C         3.1581    5.6948    0.2620    0.0040   -0.0091   -0.0004
C         4.4009    5.0247    0.2573   -0.0098   -0.0014   -0.0003
C         6.0491   -1.6734    0.1498   -0.0162   -0.0401    0.0007
C         4.6854   -4.1862    0.1668   -0.0292   -0.0335   -0.0004
C         6.7557   -2.8811    0.2249   -0.0331    0.0738   -0.0038
C         6.0835   -4.1199    0.2324    0.0807    0.0114    0.0033
H         6.5636   -0.7119    0.1505   -0.0155   -0.0508    0.0011
H         4.1595   -5.1415    0.1810   -0.0223   -0.0474    0.0003
H         6.6636   -5.0424    0.2843   -0.1926   -0.1667   -0.0037
H        -5.2165   -0.0595    0.1415   -0.0266   -0.0465   -0.0004
H        -2.8123    4.3701    0.1706   -0.0333   -0.0429    0.0003
H        -5.3164    4.2710    0.2739   -0.2022   -0.1722    0.0039
H        -6.4984    2.0935    0.2595   -0.0363   -0.2635   -0.0061
H         0.3559   -6.2665    0.2241   -0.0252   -0.0508    0.0035
H        -4.0801   -3.8731    0.2016   -0.0248   -0.0520    0.0036
H        -3.9765   -6.3769    0.3099    0.0131   -0.0351    0.0017
H        -1.7960   -7.5547    0.3185   -0.0165   -0.0108    0.0008
H         0.9891    5.4946    0.2174   -0.0325   -0.0607   -0.0042
H         5.4267    3.1042    0.2032   -0.0321   -0.0611   -0.0043
H         5.3215    5.6077    0.3106    0.0076   -0.0321   -0.0016
H         3.1404    6.7843    0.3129   -0.0302   -0.0113   -0.0011
H         7.8456   -2.8649    0.2681   -0.0334   -0.2597    0.0063
    57
stable frequency at   1454.741 1/cm IR int. is 2.777 a.m.u.; force const. is 3.463 mDyne/Ang.
Fe        0.6742   -0.3860   -0.2512    0.0000   -0.0000   -0.0000
N         3.9155    0.5774    0.0034   -0.0044    0.0050    0.0000
N         1.6364   -3.6259    0.0222    0.0063   -0.0003    0.0000
N        -0.2400   -2.0716   -0.0762    0.0033   -0.0020   -0.0001
N        -1.0127    0.5279   -0.0841    0.0003    0.0007    0.0001
N         1.5882    1.2996   -0.0761   -0.0034    0.0021   -0.0001
N         2.3604   -1.2995   -0.0741   -0.0002   -0.0004    0.0001
N        -0.2889    2.8541    0.0151   -0.0064    0.0009    0.0000
N        -2.5678   -1.3490   -0.0039    0.0041   -0.0040    0.0000
C        -2.6318    2.2074    0.0858    0.0329   -0.0324   -0.0028
C        -1.2138    1.9066   -0.0003   -0.0140    0.0101    0.0011
C         1.0023    2.5641    0.0125    0.0089   -0.0163   -0.0010
C         2.0253    3.5896    0.1094    0.0043    0.0472    0.0033
C        -3.3042    0.9681    0.0767   -0.0431    0.0049    0.0024
C        -2.2782   -0.0563   -0.0113    0.0151   -0.0061   -0.0009
C        -0.6084   -5.7574    0.2030   -0.0280    0.0131   -0.0004
C        -3.1245   -4.3989    0.1900   -0.0249    0.0193   -0.0000
C        -1.8131   -6.4652    0.2658    0.0518    0.0231   -0.0022
C        -4.7020    0.9019    0.1386    0.0045    0.0324    0.0009
C        -3.3382    3.4149    0.1551    0.0186    0.0245   -0.0002
C        -5.4086    2.1097    0.2138    0.0275   -0.0557   -0.0030
C        -3.0555   -5.7944    0.2587    0.0085   -0.0565    0.0026
C        -1.6195   -2.2729    0.0041   -0.0179    0.0005    0.0008
C        -1.9182   -3.6908    0.1037    0.0367    0.0245   -0.0028
C         3.2652    2.9200    0.1027   -0.0382   -0.0268   -0.0030
C         2.9671    1.5014    0.0066    0.0188   -0.0003    0.0009
C        -4.7364    3.3486    0.2202   -0.0597   -0.0087    0.0025
C         3.6255   -0.7151   -0.0006   -0.0161    0.0055   -0.0010
C         4.6513   -1.7396    0.0908    0.0461   -0.0058    0.0025
C         2.5611   -2.6780    0.0096    0.0138   -0.0114    0.0011
C         3.9791   -2.9786    0.0994   -0.0337    0.0351   -0.0029
C        -0.6787   -4.3610    0.1117   -0.0052   -0.0449    0.0032
C         0.3451   -3.3358    0.0162   -0.0081    0.0155   -0.0010
C         1.9538    4.9862    0.1974    0.0300   -0.0129   -0.0003
C         4.4707    3.6292    0.1907    0.0268   -0.0196    0.0001
C         3.1581    5.6948    0.2620   -0.0543   -0.0248   -0.0024
C         4.4009    5.0247    0.2573   -0.0095    0.0596    0.0026
C         6.0491   -1.6734    0.1498   -0.0060   -0.0340    0.0009
C         4.6854   -4.1862    0.1668   -0.0206   -0.0259   -0.0002
C         6.7557   -2.8811    0.2249   -0.0288    0.0594   -0.0032
C         6.0835   -4.1199    0.2324    0.0636    0.0090    0.0026
H         6.5636   -0.7119    0.1505   -0.0235   -0.0324    0.0002
H         4.1595   -5.1415    0.1810   -0.0264   -0.0306   -0.0002
H         6.6636   -5.0424    0.2843   -0.1529   -0.1317   -0.0030
H        -5.2165   -0.0595    0.1415    0.0246    0.0289   -0.0001
H        -2.8123    4.3701    0.1706    0.0271    0.0273   -0.0003
H        -5.3164    4.2710    0.2739    0.1444    0.1239   -0.0030
H        -6.4984    2.0935    0.2595    0.0282    0.1843    0.0042
H         0.3559   -6.2665    0.2241   -0.0381    0.0078    0.0004
H        -4.0801   -3.8731    0.2016   -0.0318    0.0201   -0.0001
H        -3.9765   -6.3769    0.3099   -0.1171    0.1349   -0.0037
H        -1.7960   -7.5547    0.3185   -0.1816    0.0232    0.0019
H         0.9891    5.4946    0.2174    0.0387   -0.0110    0.0003
H         5.4267    3.1042    0.2032    0.0322   -0.0237   -0.0001
H         5.3215    5.6077    0.3106    0.1240   -0.1436   -0.0036
H         3.1404    6.7843    0.3129    0.1900   -0.0249    0.0023
H         7.8456   -2.8649    0.2681   -0.0295   -0.1977    0.0047
    57
stable frequency at   1455.754 1/cm IR int. is 2.825 a.m.u.; force const. is 3.527 mDyne/Ang.
Fe        0.6742   -0.3860   -0.2512   -0.0004    0.0002   -0.0000
N         3.9155    0.5774    0.0034    0.0101   -0.0096    0.0002
N         1.6364   -3.6259    0.0222    0.0140   -0.0032    0.0003
N        -0.2400   -2.0716   -0.0762    0.0038   -0.0021    0.0001
N        -1.0127    0.5279   -0.0841    0.0014   -0.0006   -0.0002
N         1.5882    1.2996   -0.0761    0.0035   -0.0020    0.0001
N         2.3604   -1.2995   -0.0741    0.0014   -0.0008    0.0001
N        -0.2889    2.8541    0.0151    0.0141   -0.0030   -0.0003
N        -2.5678   -1.3490   -0.0039    0.0107   -0.0098   -0.0002
C        -2.6318    2.2074    0.0858   -0.0222   -0.0097    0.0007
C        -1.2138    1.9066   -0.0003    0.0051    0.0016   -0.0002
C         1.0023    2.5641    0.0125   -0.0141    0.0220    0.0013
C         2.0253    3.5896    0.1094   -0.0055   -0.0622   -0.0042
C        -3.3042    0.9681    0.0767   -0.0033    0.0243    0.0009
C        -2.2782   -0.0563   -0.0113    0.0011   -0.0063   -0.0002
C        -0.6084   -5.7574    0.2030   -0.0428    0.0148   -0.0003
C        -3.1245   -4.3989    0.1900   -0.0378    0.0244    0.0002
C        -1.8131   -6.4652    0.2658    0.0753    0.0347   -0.0033
C        -4.7020    0.9019    0.1386    0.0185   -0.0108   -0.0012
C        -3.3382    3.4149    0.1551    0.0185   -0.0103   -0.0012
C        -5.4086    2.1097    0.2138   -0.0087   -0.0036    0.0003
C        -3.0555   -5.7944    0.2587    0.0129   -0.0804    0.0036
C        -1.6195   -2.2729    0.0041   -0.0274    0.0004    0.0012
C        -1.9182   -3.6908    0.1037    0.0525    0.0390   -0.0042
C         3.2652    2.9200    0.1027    0.0514    0.0354    0.0040
C         2.9671    1.5014    0.0066   -0.0260    0.0006   -0.0012
C        -4.7364    3.3486    0.2202   -0.0006    0.0095    0.0003
C         3.6255   -0.7151   -0.0006    0.0000   -0.0047    0.0001
C         4.6513   -1.7396    0.0908   -0.0008    0.0215   -0.0007
C         2.5611   -2.6780    0.0096    0.0051    0.0016    0.0002
C         3.9791   -2.9786    0.0994   -0.0211   -0.0081   -0.0007
C        -0.6787   -4.3610    0.1117   -0.0030   -0.0630    0.0043
C         0.3451   -3.3358    0.0162   -0.0153    0.0220   -0.0014
C         1.9538    4.9862    0.1974   -0.0400    0.0169    0.0004
C         4.4707    3.6292    0.1907   -0.0353    0.0266   -0.0001
C         3.1581    5.6948    0.2620    0.0725    0.0329    0.0032
C         4.4009    5.0247    0.2573    0.0121   -0.0791   -0.0035
C         6.0491   -1.6734    0.1498    0.0162   -0.0106    0.0011
C         4.6854   -4.1862    0.1668    0.0154   -0.0100    0.0010
C         6.7557   -2.8811    0.2249   -0.0091   -0.0021   -0.0004
C         6.0835   -4.1199    0.2324    0.0026    0.0095   -0.0002
H         6.5636   -0.7119    0.1505   -0.0535    0.0272   -0.0032
H         4.1595   -5.1415    0.1810   -0.0540    0.0265   -0.0032
H         6.6636   -5.0424    0.2843   -0.0346   -0.0122   -0.0014
H        -5.2165   -0.0595    0.1415   -0.0583    0.0312    0.0037
H        -2.8123    4.3701    0.1706   -0.0586    0.0306    0.0035
H        -5.3164    4.2710    0.2739   -0.0312   -0.0078    0.0014
H        -6.4984    2.0935    0.2595   -0.0108    0.0267    0.0012
H         0.3559   -6.2665    0.2241   -0.0496    0.0220   -0.0002
H        -4.0801   -3.8731    0.2016   -0.0423    0.0359   -0.0007
H        -3.9765   -6.3769    0.3099   -0.1695    0.1981   -0.0052
H        -1.7960   -7.5547    0.3185   -0.2586    0.0352    0.0026
H         0.9891    5.4946    0.2174   -0.0515    0.0147   -0.0004
H         5.4267    3.1042    0.2032   -0.0448    0.0280    0.0000
H         5.3215    5.6077    0.3106   -0.1644    0.1895    0.0045
H         3.1404    6.7843    0.3129   -0.2534    0.0329   -0.0031
H         7.8456   -2.8649    0.2681   -0.0110    0.0181   -0.0009
    57
stable frequency at   1469.299 1/cm IR int. is 4.932 a.m.u.; force const. is 6.273 mDyne/Ang.
Fe        0.6742   -0.3860   -0.2512    0.0000    0.0000   -0.0000
N         3.9155    0.5774    0.0034   -0.0159   -0.0081    0.0001
N         1.6364   -3.6259    0.0222    0.0026   -0.0171    0.0001
N        -0.2400   -2.0716   -0.0762    0.0156   -0.0084    0.0001
N        -1.0127    0.5279   -0.0841    0.0083    0.0157    0.0001
N         1.5882    1.2996   -0.0761   -0.0156    0.0083   -0.0000
N         2.3604   -1.2995   -0.0741   -0.0085   -0.0159    0.0001
N        -0.2889    2.8541    0.0151   -0.0029    0.0167    0.0001
N        -2.5678   -1.3490   -0.0039    0.0157    0.0080    0.0001
C        -2.6318    2.2074    0.0858    0.0324   -0.0098   -0.0021
C        -1.2138    1.9066   -0.0003   -0.0593   -0.0241    0.0010
C         1.0023    2.5641    0.0125    0.0602    0.0143    0.0017
C         2.0253    3.5896    0.1094   -0.0218   -0.0330   -0.0028
C        -3.3042    0.9681    0.0767   -0.0251    0.0226    0.0020
C        -2.2782   -0.0563   -0.0113    0.0116   -0.0655   -0.0012
C        -0.6084   -5.7574    0.2030    0.0267    0.0079   -0.0008
C        -3.1245   -4.3989    0.1900    0.0094   -0.0244    0.0009
C        -1.8131   -6.4652    0.2658   -0.0471   -0.0274    0.0024
C        -4.7020    0.9019    0.1386   -0.0098    0.0216    0.0012
C        -3.3382    3.4149    0.1551    0.0228    0.0041   -0.0010
C        -5.4086    2.1097    0.2138    0.0234   -0.0391   -0.0023
C        -3.0555   -5.7944    0.2587   -0.0036    0.0537   -0.0026
C        -1.6195   -2.2729    0.0041   -0.0211    0.0592   -0.0021
C        -1.9182   -3.6908    0.1037   -0.0162   -0.0385    0.0031
C         3.2652    2.9200    0.1027    0.0159    0.0388    0.0030
C         2.9671    1.5014    0.0066    0.0216   -0.0597   -0.0019
C        -4.7364    3.3486    0.2202   -0.0450   -0.0017    0.0020
C         3.6255   -0.7151   -0.0006   -0.0117    0.0661   -0.0014
C         4.6513   -1.7396    0.0908    0.0254   -0.0228    0.0021
C         2.5611   -2.6780    0.0096    0.0601    0.0247    0.0011
C         3.9791   -2.9786    0.0994   -0.0326    0.0098   -0.0021
C        -0.6787   -4.3610    0.1117    0.0222    0.0331   -0.0028
C         0.3451   -3.3358    0.0162   -0.0606   -0.0142    0.0015
C         1.9538    4.9862    0.1974   -0.0267   -0.0082   -0.0009
C         4.4707    3.6292    0.1907   -0.0094    0.0242    0.0008
C         3.1581    5.6948    0.2620    0.0468    0.0275    0.0024
C         4.4009    5.0247    0.2573    0.0038   -0.0536   -0.0025
C         6.0491   -1.6734    0.1498    0.0097   -0.0217    0.0012
C         4.6854   -4.1862    0.1668   -0.0230   -0.0041   -0.0010
C         6.7557   -2.8811    0.2249   -0.0235    0.0393   -0.0023
C         6.0835   -4.1199    0.2324    0.0452    0.0017    0.0020
H         6.5636   -0.7119    0.1505   -0.0190   -0.0102   -0.0006
H         4.1595   -5.1415    0.1810    0.0013   -0.0212    0.0009
H         6.6636   -5.0424    0.2843   -0.0784   -0.0791   -0.0016
H        -5.2165   -0.0595    0.1415    0.0193    0.0099   -0.0007
H        -2.8123    4.3701    0.1706   -0.0012    0.0210    0.0009
H        -5.3164    4.2710    0.2739    0.0781    0.0788   -0.0015
H        -6.4984    2.0935    0.2595    0.0240    0.1093    0.0020
H         0.3559   -6.2665    0.2241    0.0156   -0.0225    0.0010
H        -4.0801   -3.8731    0.2016    0.0246   -0.0060   -0.0004
H        -3.9765   -6.3769    0.3099    0.0969   -0.0991    0.0027
H        -1.7960   -7.5547    0.3185    0.1354   -0.0280   -0.0008
H         0.9891    5.4946    0.2174   -0.0151    0.0232    0.0010
H         5.4267    3.1042    0.2032   -0.0241    0.0067   -0.0004
H         5.3215    5.6077    0.3106   -0.0968    0.0991    0.0025
H         3.1404    6.7843    0.3129   -0.1344    0.0281   -0.0011
H         7.8456   -2.8649    0.2681   -0.0241   -0.1099    0.0022
    57
stable frequency at   1487.155 1/cm IR int. is 7.870 a.m.u.; force const. is 10.256 mDyne/Ang.
Fe        0.6742   -0.3860   -0.2512   -0.0010   -0.0021    0.0000
N         3.9155    0.5774    0.0034   -0.0045    0.0618    0.0001
N         1.6364   -3.6259    0.0222    0.0477    0.0258   -0.0003
N        -0.2400   -2.0716   -0.0762    0.0005   -0.0012   -0.0000
N        -1.0127    0.5279   -0.0841    0.0055    0.0116    0.0000
N         1.5882    1.2996   -0.0761    0.0005   -0.0012    0.0001
N         2.3604   -1.2995   -0.0741    0.0055    0.0116   -0.0000
N        -0.2889    2.8541    0.0151    0.0474    0.0257    0.0004
N        -2.5678   -1.3490   -0.0039   -0.0044    0.0618   -0.0004
C        -2.6318    2.2074    0.0858    0.0282    0.0006   -0.0018
C        -1.2138    1.9066   -0.0003   -0.0800   -0.0371    0.0012
C         1.0023    2.5641    0.0125    0.0168    0.0219    0.0015
C         2.0253    3.5896    0.1094   -0.0493   -0.0216   -0.0026
C        -3.3042    0.9681    0.0767   -0.0136    0.0259    0.0019
C        -2.2782   -0.0563   -0.0113    0.0101   -0.0989   -0.0016
C        -0.6084   -5.7574    0.2030    0.0176    0.0350   -0.0025
C        -3.1245   -4.3989    0.1900    0.0195    0.0331   -0.0024
C        -1.8131   -6.4652    0.2658    0.0011   -0.0111    0.0005
C        -4.7020    0.9019    0.1386   -0.0129    0.0107    0.0010
C        -3.3382    3.4149    0.1551    0.0151   -0.0039   -0.0008
C        -5.4086    2.1097    0.2138    0.0150   -0.0219   -0.0014
C        -3.0555   -5.7944    0.2587   -0.0099   -0.0047    0.0005
C        -1.6195   -2.2729    0.0041    0.0087    0.0236   -0.0013
C        -1.9182   -3.6908    0.1037    0.0099   -0.0520    0.0028
C         3.2652    2.9200    0.1027    0.0100   -0.0514   -0.0027
C         2.9671    1.5014    0.0066    0.0089    0.0229    0.0013
C        -4.7364    3.3486    0.2202   -0.0255    0.0011    0.0013
C         3.6255   -0.7151   -0.0006    0.0100   -0.0982    0.0019
C         4.6513   -1.7396    0.0908   -0.0135    0.0256   -0.0019
C         2.5611   -2.6780    0.0096   -0.0801   -0.0374   -0.0015
C         3.9791   -2.9786    0.0994    0.0281    0.0007    0.0018
C        -0.6787   -4.3610    0.1117   -0.0493   -0.0213    0.0026
C         0.3451   -3.3358    0.0162    0.0164    0.0217   -0.0015
C         1.9538    4.9862    0.1974    0.0172    0.0347    0.0024
C         4.4707    3.6292    0.1907    0.0193    0.0332    0.0024
C         3.1581    5.6948    0.2620    0.0016   -0.0108   -0.0005
C         4.4009    5.0247    0.2573   -0.0098   -0.0052   -0.0005
C         6.0491   -1.6734    0.1498   -0.0127    0.0106   -0.0009
C         4.6854   -4.1862    0.1668    0.0148   -0.0038    0.0008
C         6.7557   -2.8811    0.2249    0.0148   -0.0215    0.0014
C         6.0835   -4.1199    0.2324   -0.0251    0.0011   -0.0012
H         6.5636   -0.7119    0.1505    0.0057    0.0019    0.0002
H         4.1595   -5.1415    0.1810   -0.0017    0.0064   -0.0002
H         6.6636   -5.0424    0.2843    0.0303    0.0374    0.0004
H        -5.2165   -0.0595    0.1415    0.0059    0.0019   -0.0002
H        -2.8123    4.3701    0.1706   -0.0020    0.0068    0.0003
H        -5.3164    4.2710    0.2739    0.0308    0.0380   -0.0006
H        -6.4984    2.0935    0.2595    0.0154    0.0467    0.0006
H         0.3559   -6.2665    0.2241   -0.0467   -0.0826    0.0057
H        -4.0801   -3.8731    0.2016   -0.0420   -0.0837    0.0057
H        -3.9765   -6.3769    0.3099    0.0071   -0.0358    0.0017
H        -1.7960   -7.5547    0.3185   -0.0334   -0.0139    0.0017
H         0.9891    5.4946    0.2174   -0.0465   -0.0819   -0.0056
H         5.4267    3.1042    0.2032   -0.0420   -0.0833   -0.0057
H         5.3215    5.6077    0.3106    0.0063   -0.0348   -0.0016
H         3.1404    6.7843    0.3129   -0.0343   -0.0136   -0.0017
H         7.8456   -2.8649    0.2681    0.0152    0.0459   -0.0007
    57
stable frequency at   1488.713 1/cm IR int. is 8.060 a.m.u.; force const. is 10.525 mDyne/Ang.
Fe        0.6742   -0.3860   -0.2512    0.0021   -0.0011    0.0000
N         3.9155    0.5774    0.0034   -0.0292    0.0514    0.0002
N         1.6364   -3.6259    0.0222   -0.0577   -0.0044   -0.0001
N        -0.2400   -2.0716   -0.0762   -0.0112    0.0063    0.0000
N        -1.0127    0.5279   -0.0841    0.0005   -0.0010    0.0001
N         1.5882    1.2996   -0.0761   -0.0112    0.0063   -0.0001
N         2.3604   -1.2995   -0.0741    0.0005   -0.0010   -0.0001
N        -0.2889    2.8541    0.0151   -0.0577   -0.0046   -0.0001
N        -2.5678   -1.3490   -0.0039   -0.0287    0.0504   -0.0004
C        -2.6318    2.2074    0.0858    0.0504    0.0099   -0.0019
C        -1.2138    1.9066   -0.0003   -0.0230    0.0093    0.0012
C         1.0023    2.5641    0.0125    0.0915    0.0121    0.0021
C         2.0253    3.5896    0.1094   -0.0247   -0.0160   -0.0021
C        -3.3042    0.9681    0.0767    0.0195   -0.0488   -0.0023
C        -2.2782   -0.0563   -0.0113   -0.0204    0.0179    0.0011
C        -0.6084   -5.7574    0.2030   -0.0115   -0.0118    0.0009
C        -3.1245   -4.3989    0.1900    0.0030    0.0152   -0.0008
C        -1.8131   -6.4652    0.2658    0.0225    0.0156   -0.0013
C        -4.7020    0.9019    0.1386   -0.0320    0.0167    0.0020
C        -3.3382    3.4149    0.1551   -0.0315    0.0182    0.0020
C        -5.4086    2.1097    0.2138    0.0096    0.0005   -0.0005
C        -3.0555   -5.7944    0.2587   -0.0004   -0.0273    0.0014
C        -1.6195   -2.2729    0.0041    0.0422   -0.0866    0.0028
C        -1.9182   -3.6908    0.1037   -0.0001    0.0311   -0.0023
C         3.2652    2.9200    0.1027   -0.0002    0.0311    0.0023
C         2.9671    1.5014    0.0066    0.0431   -0.0875   -0.0025
C        -4.7364    3.3486    0.2202    0.0052   -0.0086   -0.0005
C         3.6255   -0.7151   -0.0006   -0.0205    0.0175   -0.0012
C         4.6513   -1.7396    0.0908    0.0197   -0.0493    0.0023
C         2.5611   -2.6780    0.0096   -0.0238    0.0090   -0.0013
C         3.9791   -2.9786    0.0994    0.0512    0.0101    0.0020
C        -0.6787   -4.3610    0.1117   -0.0247   -0.0159    0.0020
C         0.3451   -3.3358    0.0162    0.0921    0.0117   -0.0019
C         1.9538    4.9862    0.1974   -0.0114   -0.0117   -0.0009
C         4.4707    3.6292    0.1907    0.0031    0.0153    0.0008
C         3.1581    5.6948    0.2620    0.0223    0.0156    0.0013
C         4.4009    5.0247    0.2573   -0.0003   -0.0275   -0.0014
C         6.0491   -1.6734    0.1498   -0.0326    0.0168   -0.0020
C         4.6854   -4.1862    0.1668   -0.0320    0.0186   -0.0020
C         6.7557   -2.8811    0.2249    0.0099    0.0008    0.0005
C         6.0835   -4.1199    0.2324    0.0051   -0.0089    0.0006
H         6.5636   -0.7119    0.1505    0.0777   -0.0441    0.0047
H         4.1595   -5.1415    0.1810    0.0802   -0.0405    0.0047
H         6.6636   -5.0424    0.2843    0.0321    0.0056    0.0008
H        -5.2165   -0.0595    0.1415    0.0764   -0.0433   -0.0047
H        -2.8123    4.3701    0.1706    0.0786   -0.0398   -0.0046
H        -5.3164    4.2710    0.2739    0.0313    0.0054   -0.0011
H        -6.4984    2.0935    0.2595    0.0122   -0.0297   -0.0016
H         0.3559   -6.2665    0.2241   -0.0033    0.0066   -0.0001
H        -4.0801   -3.8731    0.2016   -0.0063    0.0008   -0.0001
H        -3.9765   -6.3769    0.3099   -0.0404    0.0334   -0.0011
H        -1.7960   -7.5547    0.3185   -0.0505    0.0160    0.0001
H         0.9891    5.4946    0.2174   -0.0033    0.0064    0.0001
H         5.4267    3.1042    0.2032   -0.0063    0.0009    0.0001
H         5.3215    5.6077    0.3106   -0.0404    0.0333    0.0010
H         3.1404    6.7843    0.3129   -0.0504    0.0159   -0.0002
H         7.8456   -2.8649    0.2681    0.0125   -0.0307    0.0017
    57
stable frequency at   1501.360 1/cm IR int. is 12.432 a.m.u.; force const. is 16.510 mDyne/Ang.
Fe        0.6742   -0.3860   -0.2512    0.0000    0.0000    0.0000
N         3.9155    0.5774    0.0034    0.0277   -0.0904   -0.0002
N         1.6364   -3.6259    0.0222   -0.0864   -0.0239    0.0002
N        -0.2400   -2.0716   -0.0762    0.0005   -0.0001    0.0000
N        -1.0127    0.5279   -0.0841   -0.0012   -0.0009   -0.0000
N         1.5882    1.2996   -0.0761   -0.0005   -0.0002    0.0000
N         2.3604   -1.2995   -0.0741    0.0014    0.0014   -0.0000
N        -0.2889    2.8541    0.0151    0.0840    0.0237    0.0005
N        -2.5678   -1.3490   -0.0039   -0.0269    0.0901   -0.0006
C        -2.6318    2.2074    0.0858    0.0168   -0.0010   -0.0012
C        -1.2138    1.9066   -0.0003   -0.0571   -0.0312    0.0008
C         1.0023    2.5641    0.0125   -0.0712   -0.0054   -0.0015
C         2.0253    3.5896    0.1094    0.0161    0.0106    0.0014
C        -3.3042    0.9681    0.0767   -0.0100    0.0150    0.0013
C        -2.2782   -0.0563   -0.0113    0.0040   -0.0738   -0.0012
C        -0.6084   -5.7574    0.2030    0.0036    0.0018   -0.0003
C        -3.1245   -4.3989    0.1900    0.0015   -0.0027    0.0002
C        -1.8131   -6.4652    0.2658    0.0008    0.0008   -0.0001
C        -4.7020    0.9019    0.1386    0.0018   -0.0040   -0.0003
C        -3.3382    3.4149    0.1551   -0.0042   -0.0002    0.0002
C        -5.4086    2.1097    0.2138    0.0005    0.0004   -0.0000
C        -3.0555   -5.7944    0.2587   -0.0012   -0.0008    0.0001
C        -1.6195   -2.2729    0.0041    0.0366   -0.0642    0.0021
C        -1.9182   -3.6908    0.1037    0.0002    0.0173   -0.0014
C         3.2652    2.9200    0.1027    0.0002   -0.0176   -0.0014
C         2.9671    1.5014    0.0066   -0.0383    0.0657    0.0018
C        -4.7364    3.3486    0.2202    0.0002    0.0006    0.0000
C         3.6255   -0.7151   -0.0006   -0.0044    0.0726   -0.0015
C         4.6513   -1.7396    0.0908    0.0103   -0.0150    0.0014
C         2.5611   -2.6780    0.0096    0.0575    0.0316    0.0010
C         3.9791   -2.9786    0.0994   -0.0165    0.0011   -0.0012
C        -0.6787   -4.3610    0.1117   -0.0168   -0.0107    0.0014
C         0.3451   -3.3358    0.0162    0.0746    0.0051   -0.0014
C         1.9538    4.9862    0.1974   -0.0036   -0.0019   -0.0003
C         4.4707    3.6292    0.1907   -0.0016    0.0027    0.0002
C         3.1581    5.6948    0.2620   -0.0005   -0.0008   -0.0001
C         4.4009    5.0247    0.2573    0.0010    0.0010    0.0001
C         6.0491   -1.6734    0.1498   -0.0024    0.0043   -0.0003
C         4.6854   -4.1862    0.1668    0.0044    0.0002    0.0002
C         6.7557   -2.8811    0.2249   -0.0002   -0.0008   -0.0000
C         6.0835   -4.1199    0.2324   -0.0005   -0.0006    0.0000
H         6.5636   -0.7119    0.1505    0.0191   -0.0069    0.0013
H         4.1595   -5.1415    0.1810   -0.0149    0.0111   -0.0013
H         6.6636   -5.0424    0.2843    0.0046    0.0028   -0.0001
H        -5.2165   -0.0595    0.1415   -0.0183    0.0064    0.0012
H        -2.8123    4.3701    0.1706    0.0148   -0.0109   -0.0012
H        -5.3164    4.2710    0.2739   -0.0040   -0.0023   -0.0001
H        -6.4984    2.0935    0.2595    0.0004   -0.0056    0.0000
H         0.3559   -6.2665    0.2241   -0.0072   -0.0191    0.0016
H        -4.0801   -3.8731    0.2016    0.0101    0.0123   -0.0013
H        -3.9765   -6.3769    0.3099    0.0013   -0.0047   -0.0003
H        -1.7960   -7.5547    0.3185    0.0024    0.0007    0.0003
H         0.9891    5.4946    0.2174    0.0070    0.0185    0.0015
H         5.4267    3.1042    0.2032   -0.0103   -0.0126   -0.0014
H         5.3215    5.6077    0.3106   -0.0014    0.0048   -0.0003
H         3.1404    6.7843    0.3129   -0.0025   -0.0007    0.0003
H         7.8456   -2.8649    0.2681   -0.0001    0.0059    0.0000
    57
stable frequency at   1516.903 1/cm IR int. is 11.803 a.m.u.; force const. is 16.001 mDyne/Ang.
Fe        0.6742   -0.3860   -0.2512    0.0011   -0.0007   -0.0000
N         3.9155    0.5774    0.0034   -0.0015    0.0712    0.0001
N         1.6364   -3.6259    0.0222   -0.0441   -0.0423    0.0004
N        -0.2400   -2.0716   -0.0762    0.0202   -0.0086    0.0002
N        -1.0127    0.5279   -0.0841   -0.0139    0.0027    0.0001
N         1.5882    1.2996   -0.0761    0.0204   -0.0083    0.0000
N         2.3604   -1.2995   -0.0741   -0.0138    0.0027   -0.0002
N        -0.2889    2.8541    0.0151   -0.0437   -0.0426   -0.0005
N        -2.5678   -1.3490   -0.0039   -0.0010    0.0702   -0.0003
C        -2.6318    2.2074    0.0858   -0.0201   -0.0192    0.0006
C        -1.2138    1.9066   -0.0003    0.0927    0.0804   -0.0002
C         1.0023    2.5641    0.0125   -0.0278    0.0109    0.0006
C         2.0253    3.5896    0.1094    0.0100   -0.0094   -0.0009
C        -3.3042    0.9681    0.0767    0.0023    0.0235    0.0011
C        -2.2782   -0.0563   -0.0113   -0.0147   -0.1083   -0.0011
C        -0.6084   -5.7574    0.2030    0.0064    0.0127   -0.0009
C        -3.1245   -4.3989    0.1900   -0.0065   -0.0142    0.0010
C        -1.8131   -6.4652    0.2658   -0.0093   -0.0075    0.0005
C        -4.7020    0.9019    0.1386   -0.0044   -0.0044    0.0001
C        -3.3382    3.4149    0.1551   -0.0048    0.0095    0.0005
C        -5.4086    2.1097    0.2138    0.0002   -0.0010   -0.0001
C        -3.0555   -5.7944    0.2587    0.0020    0.0108   -0.0006
C        -1.6195   -2.2729    0.0041   -0.0001   -0.0138    0.0012
C        -1.9182   -3.6908    0.1037    0.0073    0.0074   -0.0014
C         3.2652    2.9200    0.1027    0.0070    0.0076    0.0014
C         2.9671    1.5014    0.0066    0.0010   -0.0152   -0.0012
C        -4.7364    3.3486    0.2202    0.0066   -0.0004   -0.0003
C         3.6255   -0.7151   -0.0006   -0.0151   -0.1083    0.0013
C         4.6513   -1.7396    0.0908    0.0027    0.0226   -0.0011
C         2.5611   -2.6780    0.0096    0.0914    0.0802    0.0004
C         3.9791   -2.9786    0.0994   -0.0189   -0.0190   -0.0006
C        -0.6787   -4.3610    0.1117    0.0096   -0.0091    0.0009
C         0.3451   -3.3358    0.0162   -0.0261    0.0108   -0.0007
C         1.9538    4.9862    0.1974    0.0065    0.0132    0.0009
C         4.4707    3.6292    0.1907   -0.0062   -0.0141   -0.0009
C         3.1581    5.6948    0.2620   -0.0095   -0.0077   -0.0006
C         4.4009    5.0247    0.2573    0.0019    0.0108    0.0005
C         6.0491   -1.6734    0.1498   -0.0051   -0.0039   -0.0001
C         4.6854   -4.1862    0.1668   -0.0054    0.0097   -0.0005
C         6.7557   -2.8811    0.2249    0.0003   -0.0015    0.0001
C         6.0835   -4.1199    0.2324    0.0069   -0.0002    0.0004
H         6.5636   -0.7119    0.1505   -0.0160    0.0008   -0.0006
H         4.1595   -5.1415    0.1810   -0.0014    0.0088   -0.0001
H         6.6636   -5.0424    0.2843    0.0098    0.0016   -0.0011
H        -5.2165   -0.0595    0.1415   -0.0173    0.0014    0.0008
H        -2.8123    4.3701    0.1706   -0.0023    0.0094    0.0001
H        -5.3164    4.2710    0.2739    0.0098    0.0017   -0.0001
H        -6.4984    2.0935    0.2595    0.0000   -0.0163   -0.0004
H         0.3559   -6.2665    0.2241   -0.0092   -0.0164    0.0014
H        -4.0801   -3.8731    0.2016    0.0146    0.0247   -0.0021
H        -3.9765   -6.3769    0.3099    0.0153   -0.0087    0.0001
H        -1.7960   -7.5547    0.3185    0.0146   -0.0077    0.0001
H         0.9891    5.4946    0.2174   -0.0095   -0.0168   -0.0014
H         5.4267    3.1042    0.2032    0.0148    0.0246    0.0021
H         5.3215    5.6077    0.3106    0.0157   -0.0094   -0.0001
H         3.1404    6.7843    0.3129    0.0145   -0.0079   -0.0001
H         7.8456   -2.8649    0.2681    0.0002   -0.0160    0.0005
    57
stable frequency at   1518.711 1/cm IR int. is 11.826 a.m.u.; force const. is 16.071 mDyne/Ang.
Fe        0.6742   -0.3860   -0.2512   -0.0008   -0.0010    0.0000
N         3.9155    0.5774    0.0034   -0.0402    0.0396    0.0003
N         1.6364   -3.6259    0.0222    0.0741    0.0010    0.0000
N        -0.2400   -2.0716   -0.0762    0.0035    0.0134   -0.0003
N        -1.0127    0.5279   -0.0841   -0.0084   -0.0201   -0.0002
N         1.5882    1.2996   -0.0761    0.0034    0.0135    0.0003
N         2.3604   -1.2995   -0.0741   -0.0084   -0.0201    0.0002
N        -0.2889    2.8541    0.0151    0.0764    0.0016    0.0002
N        -2.5678   -1.3490   -0.0039   -0.0409    0.0416   -0.0005
C        -2.6318    2.2074    0.0858    0.0060   -0.0083   -0.0012
C        -1.2138    1.9066   -0.0003   -0.0142   -0.0011    0.0009
C         1.0023    2.5641    0.0125   -0.1160    0.0143   -0.0013
C         2.0253    3.5896    0.1094    0.0250   -0.0024    0.0009
C        -3.3042    0.9681    0.0767   -0.0128   -0.0066    0.0010
C        -2.2782   -0.0563   -0.0113    0.0128    0.0243   -0.0006
C        -0.6084   -5.7574    0.2030   -0.0037    0.0062   -0.0003
C        -3.1245   -4.3989    0.1900    0.0091    0.0042   -0.0005
C        -1.8131   -6.4652    0.2658   -0.0017   -0.0012    0.0002
C        -4.7020    0.9019    0.1386    0.0158   -0.0070   -0.0009
C        -3.3382    3.4149    0.1551   -0.0130    0.0060    0.0008
C        -5.4086    2.1097    0.2138   -0.0080    0.0084    0.0006
C        -3.0555   -5.7944    0.2587   -0.0005   -0.0053    0.0003
C        -1.6195   -2.2729    0.0041    0.0775   -0.0866    0.0019
C        -1.9182   -3.6908    0.1037   -0.0186    0.0179   -0.0007
C         3.2652    2.9200    0.1027   -0.0187    0.0174    0.0006
C         2.9671    1.5014    0.0066    0.0768   -0.0849   -0.0014
C        -4.7364    3.3486    0.2202    0.0104   -0.0014   -0.0005
C         3.6255   -0.7151   -0.0006    0.0127    0.0259    0.0006
C         4.6513   -1.7396    0.0908   -0.0123   -0.0070   -0.0009
C         2.5611   -2.6780    0.0096   -0.0130   -0.0004   -0.0009
C         3.9791   -2.9786    0.0994    0.0057   -0.0082    0.0012
C        -0.6787   -4.3610    0.1117    0.0244   -0.0028   -0.0008
C         0.3451   -3.3358    0.0162   -0.1138    0.0146    0.0010
C         1.9538    4.9862    0.1974   -0.0037    0.0063    0.0003
C         4.4707    3.6292    0.1907    0.0090    0.0040    0.0005
C         3.1581    5.6948    0.2620   -0.0018   -0.0013   -0.0002
C         4.4009    5.0247    0.2573   -0.0005   -0.0050   -0.0003
C         6.0491   -1.6734    0.1498    0.0154   -0.0068    0.0009
C         4.6854   -4.1862    0.1668   -0.0128    0.0060   -0.0008
C         6.7557   -2.8811    0.2249   -0.0078    0.0084   -0.0006
C         6.0835   -4.1199    0.2324    0.0101   -0.0015    0.0005
H         6.5636   -0.7119    0.1505   -0.0199    0.0125   -0.0016
H         4.1595   -5.1415    0.1810    0.0219   -0.0129    0.0018
H         6.6636   -5.0424    0.2843   -0.0093   -0.0147   -0.0023
H        -5.2165   -0.0595    0.1415   -0.0210    0.0131    0.0017
H        -2.8123    4.3701    0.1706    0.0221   -0.0131   -0.0018
H        -5.3164    4.2710    0.2739   -0.0098   -0.0149    0.0002
H        -6.4984    2.0935    0.2595   -0.0084   -0.0108   -0.0000
H         0.3559   -6.2665    0.2241    0.0001    0.0155   -0.0011
H        -4.0801   -3.8731    0.2016    0.0092    0.0021   -0.0005
H        -3.9765   -6.3769    0.3099    0.0032   -0.0111    0.0001
H        -1.7960   -7.5547    0.3185   -0.0156   -0.0011    0.0001
H         0.9891    5.4946    0.2174    0.0003    0.0159    0.0011
H         5.4267    3.1042    0.2032    0.0092    0.0020    0.0006
H         5.3215    5.6077    0.3106    0.0035   -0.0112   -0.0001
H         3.1404    6.7843    0.3129   -0.0154   -0.0013   -0.0001
H         7.8456   -2.8649    0.2681   -0.0082   -0.0108    0.0002
    57
stable frequency at   1530.559 1/cm IR int. is 10.385 a.m.u.; force const. is 14.333 mDyne/Ang.
Fe        0.6742   -0.3860   -0.2512    0.0000   -0.0000   -0.0000
N         3.9155    0.5774    0.0034    0.0233    0.0121   -0.0001
N         1.6364   -3.6259    0.0222   -0.0005   -0.0280    0.0003
N        -0.2400   -2.0716   -0.0762    0.0036    0.0057   -0.0004
N        -1.0127    0.5279   -0.0841    0.0074   -0.0038   -0.0003
N         1.5882    1.2996   -0.0761   -0.0033   -0.0058   -0.0004
N         2.3604   -1.2995   -0.0741   -0.0075    0.0038   -0.0004
N        -0.2889    2.8541    0.0151   -0.0002    0.0275    0.0003
N        -2.5678   -1.3490   -0.0039   -0.0236   -0.0104   -0.0001
C        -2.6318    2.2074    0.0858    0.0415    0.0120   -0.0016
C        -1.2138    1.9066   -0.0003   -0.0810   -0.0500    0.0010
C         1.0023    2.5641    0.0125    0.0823    0.0045    0.0017
C         2.0253    3.5896    0.1094   -0.0394   -0.0151   -0.0020
C        -3.3042    0.9681    0.0767    0.0124   -0.0401   -0.0019
C        -2.2782   -0.0563   -0.0113   -0.0019    0.0895    0.0014
C        -0.6084   -5.7574    0.2030   -0.0077   -0.0131    0.0010
C        -3.1245   -4.3989    0.1900   -0.0074   -0.0147    0.0011
C        -1.8131   -6.4652    0.2658   -0.0044    0.0030   -0.0000
C        -4.7020    0.9019    0.1386   -0.0116    0.0090    0.0008
C        -3.3382    3.4149    0.1551   -0.0130    0.0043    0.0007
C        -5.4086    2.1097    0.2138    0.0025    0.0011   -0.0001
C        -3.0555   -5.7944    0.2587    0.0051   -0.0012   -0.0000
C        -1.6195   -2.2729    0.0041    0.0419   -0.0723    0.0023
C        -1.9182   -3.6908    0.1037   -0.0083    0.0415   -0.0024
C         3.2652    2.9200    0.1027    0.0084   -0.0413   -0.0022
C         2.9671    1.5014    0.0066   -0.0415    0.0713    0.0019
C        -4.7364    3.3486    0.2202   -0.0006   -0.0026   -0.0001
C         3.6255   -0.7151   -0.0006    0.0016   -0.0912    0.0016
C         4.6513   -1.7396    0.0908   -0.0125    0.0400   -0.0019
C         2.5611   -2.6780    0.0096    0.0817    0.0511    0.0012
C         3.9791   -2.9786    0.0994   -0.0414   -0.0119   -0.0017
C        -0.6787   -4.3610    0.1117    0.0392    0.0149   -0.0019
C         0.3451   -3.3358    0.0162   -0.0820   -0.0042    0.0014
C         1.9538    4.9862    0.1974    0.0077    0.0131    0.0009
C         4.4707    3.6292    0.1907    0.0075    0.0150    0.0011
C         3.1581    5.6948    0.2620    0.0045   -0.0030   -0.0000
C         4.4009    5.0247    0.2573   -0.0051    0.0010   -0.0001
C         6.0491   -1.6734    0.1498    0.0114   -0.0088    0.0008
C         4.6854   -4.1862    0.1668    0.0129   -0.0044    0.0007
C         6.7557   -2.8811    0.2249   -0.0025   -0.0017   -0.0001
C         6.0835   -4.1199    0.2324    0.0008    0.0029   -0.0001
H         6.5636   -0.7119    0.1505   -0.0372    0.0175   -0.0020
H         4.1595   -5.1415    0.1810   -0.0347    0.0214   -0.0021
H         6.6636   -5.0424    0.2843   -0.0043    0.0009    0.0012
H        -5.2165   -0.0595    0.1415    0.0373   -0.0173   -0.0021
H        -2.8123    4.3701    0.1706    0.0346   -0.0214   -0.0020
H        -5.3164    4.2710    0.2739    0.0041   -0.0008   -0.0002
H        -6.4984    2.0935    0.2595    0.0036   -0.0017   -0.0003
H         0.3559   -6.2665    0.2241    0.0197    0.0376   -0.0026
H        -4.0801   -3.8731    0.2016    0.0214    0.0392   -0.0028
H        -3.9765   -6.3769    0.3099   -0.0001    0.0091   -0.0006
H        -1.7960   -7.5547    0.3185    0.0085    0.0043   -0.0006
H         0.9891    5.4946    0.2174   -0.0198   -0.0377   -0.0026
H         5.4267    3.1042    0.2032   -0.0215   -0.0394   -0.0028
H         5.3215    5.6077    0.3106    0.0002   -0.0093   -0.0006
H         3.1404    6.7843    0.3129   -0.0088   -0.0042   -0.0006
H         7.8456   -2.8649    0.2681   -0.0036    0.0024   -0.0004
    57
stable frequency at   1543.376 1/cm IR int. is 11.307 a.m.u.; force const. is 15.869 mDyne/Ang.
Fe        0.6742   -0.3860   -0.2512    0.0000   -0.0000   -0.0000
N         3.9155    0.5774    0.0034   -0.0246    0.0751    0.0002
N         1.6364   -3.6259    0.0222   -0.0821   -0.0221    0.0002
N        -0.2400   -2.0716   -0.0762   -0.0059   -0.0110   -0.0001
N        -1.0127    0.5279   -0.0841    0.0100   -0.0052    0.0002
N         1.5882    1.2996   -0.0761    0.0056    0.0111   -0.0001
N         2.3604   -1.2995   -0.0741   -0.0099    0.0053    0.0001
N        -0.2889    2.8541    0.0151    0.0827    0.0225    0.0004
N        -2.5678   -1.3490   -0.0039    0.0250   -0.0760    0.0005
C        -2.6318    2.2074    0.0858   -0.0006    0.0170    0.0003
C        -1.2138    1.9066   -0.0003   -0.0498   -0.0493   -0.0001
C         1.0023    2.5641    0.0125   -0.0801    0.0139   -0.0006
C         2.0253    3.5896    0.1094    0.0150   -0.0140   -0.0003
C        -3.3042    0.9681    0.0767   -0.0162   -0.0073    0.0003
C        -2.2782   -0.0563   -0.0113    0.0145    0.0627    0.0004
C        -0.6084   -5.7574    0.2030    0.0072   -0.0118    0.0006
C        -3.1245   -4.3989    0.1900   -0.0139   -0.0011    0.0006
C        -1.8131   -6.4652    0.2658   -0.0161    0.0056    0.0000
C        -4.7020    0.9019    0.1386    0.0140    0.0049   -0.0005
C        -3.3382    3.4149    0.1551    0.0026   -0.0141   -0.0006
C        -5.4086    2.1097    0.2138   -0.0062   -0.0153   -0.0002
C        -3.0555   -5.7944    0.2587    0.0134   -0.0097    0.0001
C        -1.6195   -2.2729    0.0041   -0.0540    0.0569   -0.0012
C        -1.9182   -3.6908    0.1037    0.0200   -0.0042   -0.0002
C         3.2652    2.9200    0.1027   -0.0201    0.0039   -0.0003
C         2.9671    1.5014    0.0066    0.0536   -0.0561   -0.0009
C        -4.7364    3.3486    0.2202    0.0098    0.0136   -0.0000
C         3.6255   -0.7151   -0.0006   -0.0142   -0.0622    0.0005
C         4.6513   -1.7396    0.0908    0.0157    0.0071    0.0003
C         2.5611   -2.6780    0.0096    0.0491    0.0484    0.0001
C         3.9791   -2.9786    0.0994    0.0006   -0.0163    0.0003
C        -0.6787   -4.3610    0.1117   -0.0150    0.0141   -0.0004
C         0.3451   -3.3358    0.0162    0.0801   -0.0141   -0.0004
C         1.9538    4.9862    0.1974   -0.0072    0.0118    0.0006
C         4.4707    3.6292    0.1907    0.0140    0.0012    0.0006
C         3.1581    5.6948    0.2620    0.0161   -0.0056    0.0000
C         4.4009    5.0247    0.2573   -0.0135    0.0098    0.0001
C         6.0491   -1.6734    0.1498   -0.0136   -0.0047   -0.0005
C         4.6854   -4.1862    0.1668   -0.0024    0.0136   -0.0005
C         6.7557   -2.8811    0.2249    0.0061    0.0148   -0.0002
C         6.0835   -4.1199    0.2324   -0.0096   -0.0132   -0.0000
H         6.5636   -0.7119    0.1505    0.0061   -0.0173    0.0009
H         4.1595   -5.1415    0.1810    0.0165    0.0053    0.0006
H         6.6636   -5.0424    0.2843    0.0299    0.0112    0.0017
H        -5.2165   -0.0595    0.1415   -0.0062    0.0178    0.0009
H        -2.8123    4.3701    0.1706   -0.0172   -0.0054    0.0005
H        -5.3164    4.2710    0.2739   -0.0308   -0.0113    0.0010
H        -6.4984    2.0935    0.2595   -0.0073    0.0314    0.0015
H         0.3559   -6.2665    0.2241    0.0150   -0.0012    0.0000
H        -4.0801   -3.8731    0.2016   -0.0081    0.0134   -0.0003
H        -3.9765   -6.3769    0.3099   -0.0114    0.0301   -0.0010
H        -1.7960   -7.5547    0.3185    0.0327    0.0066   -0.0009
H         0.9891    5.4946    0.2174   -0.0149    0.0012   -0.0000
H         5.4267    3.1042    0.2032    0.0080   -0.0137   -0.0003
H         5.3215    5.6077    0.3106    0.0116   -0.0303   -0.0009
H         3.1404    6.7843    0.3129   -0.0326   -0.0066   -0.0011
H         7.8456   -2.8649    0.2681    0.0072   -0.0303    0.0015
    57
stable frequency at   1575.210 1/cm IR int. is 7.210 a.m.u.; force const. is 10.540 mDyne/Ang.
Fe        0.6742   -0.3860   -0.2512   -0.0001   -0.0003   -0.0000
N         3.9155    0.5774    0.0034    0.0010   -0.0118   -0.0003
N         1.6364   -3.6259    0.0222   -0.0084   -0.0050    0.0003
N        -0.2400   -2.0716   -0.0762    0.0004    0.0011   -0.0000
N        -1.0127    0.5279   -0.0841   -0.0002   -0.0002    0.0000
N         1.5882    1.2996   -0.0761    0.0004    0.0011    0.0000
N         2.3604   -1.2995   -0.0741   -0.0001   -0.0002   -0.0000
N        -0.2889    2.8541    0.0151   -0.0092   -0.0056   -0.0004
N        -2.5678   -1.3490   -0.0039    0.0012   -0.0110    0.0003
C        -2.6318    2.2074    0.0858   -0.0116    0.0024    0.0007
C        -1.2138    1.9066   -0.0003    0.0040    0.0027   -0.0001
C         1.0023    2.5641    0.0125    0.0104    0.0190    0.0016
C         2.0253    3.5896    0.1094    0.0582   -0.0846   -0.0040
C        -3.3042    0.9681    0.0767    0.0215    0.0001   -0.0011
C        -2.2782   -0.0563   -0.0113   -0.0033    0.0062    0.0003
C        -0.6084   -5.7574    0.2030   -0.0303    0.0378   -0.0019
C        -3.1245   -4.3989    0.1900    0.0466   -0.0064   -0.0014
C        -1.8131   -6.4652    0.2658    0.0730   -0.0188   -0.0005
C        -4.7020    0.9019    0.1386   -0.0184    0.0055    0.0011
C        -3.3382    3.4149    0.1551    0.0152   -0.0044   -0.0009
C        -5.4086    2.1097    0.2138    0.0076   -0.0013   -0.0004
C        -3.0555   -5.7944    0.2587   -0.0557    0.0511   -0.0011
C        -1.6195   -2.2729    0.0041    0.0090    0.0172   -0.0015
C        -1.9182   -3.6908    0.1037   -0.0939    0.0042    0.0028
C         3.2652    2.9200    0.1027   -0.1007    0.0041   -0.0032
C         2.9671    1.5014    0.0066    0.0096    0.0187    0.0016
C        -4.7364    3.3486    0.2202   -0.0137   -0.0037    0.0005
C         3.6255   -0.7151   -0.0006   -0.0022    0.0064   -0.0003
C         4.6513   -1.7396    0.0908    0.0182   -0.0013    0.0010
C         2.5611   -2.6780    0.0096    0.0040    0.0017    0.0001
C         3.9791   -2.9786    0.0994   -0.0113    0.0051   -0.0008
C        -0.6787   -4.3610    0.1117    0.0544   -0.0794    0.0039
C         0.3451   -3.3358    0.0162    0.0094    0.0176   -0.0015
C         1.9538    4.9862    0.1974   -0.0326    0.0401    0.0019
C         4.4707    3.6292    0.1907    0.0501   -0.0065    0.0016
C         3.1581    5.6948    0.2620    0.0782   -0.0200    0.0007
C         4.4009    5.0247    0.2573   -0.0596    0.0544    0.0011
C         6.0491   -1.6734    0.1498   -0.0164    0.0061   -0.0010
C         4.6854   -4.1862    0.1668    0.0146   -0.0058    0.0009
C         6.7557   -2.8811    0.2249    0.0067   -0.0034    0.0004
C         6.0835   -4.1199    0.2324   -0.0117   -0.0019   -0.0005
H         6.5636   -0.7119    0.1505    0.0184   -0.0130    0.0014
H         4.1595   -5.1415    0.1810   -0.0170    0.0114   -0.0012
H         6.6636   -5.0424    0.2843    0.0089    0.0116    0.0001
H        -5.2165   -0.0595    0.1415    0.0192   -0.0153   -0.0015
H        -2.8123    4.3701    0.1706   -0.0162    0.0128    0.0012
H        -5.3164    4.2710    0.2739    0.0124    0.0131   -0.0002
H        -6.4984    2.0935    0.2595    0.0084    0.0008   -0.0005
H         0.3559   -6.2665    0.2241   -0.0525    0.0061    0.0003
H        -4.0801   -3.8731    0.2016    0.0341   -0.0394    0.0009
H        -3.9765   -6.3769    0.3099    0.0355   -0.0967    0.0030
H        -1.7960   -7.5547    0.3185   -0.1018   -0.0234    0.0030
H         0.9891    5.4946    0.2174   -0.0559    0.0069   -0.0005
H         5.4267    3.1042    0.2032    0.0364   -0.0425   -0.0008
H         5.3215    5.6077    0.3106    0.0378   -0.1033   -0.0030
H         3.1404    6.7843    0.3129   -0.1089   -0.0250   -0.0034
H         7.8456   -2.8649    0.2681    0.0074    0.0039    0.0003
    57
stable frequency at   1576.316 1/cm IR int. is 7.116 a.m.u.; force const. is 10.417 mDyne/Ang.
Fe        0.6742   -0.3860   -0.2512    0.0003   -0.0001   -0.0000
N         3.9155    0.5774    0.0034    0.0026   -0.0072    0.0001
N         1.6364   -3.6259    0.0222    0.0096    0.0026    0.0000
N        -0.2400   -2.0716   -0.0762    0.0000   -0.0001   -0.0000
N        -1.0127    0.5279   -0.0841   -0.0013    0.0000    0.0000
N         1.5882    1.2996   -0.0761    0.0002    0.0001   -0.0000
N         2.3604   -1.2995   -0.0741   -0.0011    0.0002   -0.0001
N        -0.2889    2.8541    0.0151    0.0126   -0.0004   -0.0003
N        -2.5678   -1.3490   -0.0039    0.0064   -0.0068   -0.0004
C        -2.6318    2.2074    0.0858   -0.0053   -0.1143   -0.0037
C        -1.2138    1.9066   -0.0003   -0.0216    0.0123    0.0016
C         1.0023    2.5641    0.0125   -0.0060    0.0032    0.0001
C         2.0253    3.5896    0.1094    0.0121   -0.0018    0.0003
C        -3.3042    0.9681    0.0767    0.1025    0.0645   -0.0030
C        -2.2782   -0.0563   -0.0113   -0.0238    0.0111    0.0016
C        -0.6084   -5.7574    0.2030    0.0026   -0.0258    0.0016
C        -3.1245   -4.3989    0.1900   -0.0083    0.0148   -0.0005
C        -1.8131   -6.4652    0.2658   -0.0166    0.0115   -0.0002
C        -4.7020    0.9019    0.1386   -0.0523   -0.0348    0.0014
C        -3.3382    3.4149    0.1551    0.0089    0.0576    0.0014
C        -5.4086    2.1097    0.2138    0.0265    0.0905    0.0016
C        -3.0555   -5.7944    0.2587    0.0172   -0.0250    0.0008
C        -1.6195   -2.2729    0.0041   -0.0055   -0.0019    0.0003
C        -1.9182   -3.6908    0.1037    0.0221   -0.0100   -0.0000
C         3.2652    2.9200    0.1027   -0.0238   -0.0090   -0.0014
C         2.9671    1.5014    0.0066    0.0026    0.0058    0.0004
C        -4.7364    3.3486    0.2202   -0.0660   -0.0711    0.0008
C         3.6255   -0.7151   -0.0006   -0.0109    0.0075   -0.0008
C         4.6513   -1.7396    0.0908    0.0542    0.0363    0.0015
C         2.5611   -2.6780    0.0096   -0.0119    0.0046   -0.0008
C         3.9791   -2.9786    0.0994   -0.0031   -0.0632    0.0020
C        -0.6787   -4.3610    0.1117   -0.0136    0.0387   -0.0023
C         0.3451   -3.3358    0.0162   -0.0069   -0.0083    0.0007
C         1.9538    4.9862    0.1974   -0.0116   -0.0056   -0.0006
C         4.4707    3.6292    0.1907    0.0147    0.0116    0.0012
C         3.1581    5.6948    0.2620    0.0183    0.0019    0.0005
C         4.4009    5.0247    0.2573   -0.0099    0.0001   -0.0003
C         6.0491   -1.6734    0.1498   -0.0268   -0.0198   -0.0006
C         4.6854   -4.1862    0.1668    0.0041    0.0318   -0.0008
C         6.7557   -2.8811    0.2249    0.0139    0.0503   -0.0010
C         6.0835   -4.1199    0.2324   -0.0355   -0.0390   -0.0004
H         6.5636   -0.7119    0.1505   -0.0020   -0.0368    0.0016
H         4.1595   -5.1415    0.1810    0.0281    0.0225    0.0011
H         6.6636   -5.0424    0.2843    0.0678    0.0240    0.0018
H        -5.2165   -0.0595    0.1415   -0.0002   -0.0697   -0.0030
H        -2.8123    4.3701    0.1706    0.0498    0.0422   -0.0015
H        -5.3164    4.2710    0.2739    0.1250    0.0456   -0.0036
H        -6.4984    2.0935    0.2595    0.0326   -0.1271   -0.0057
H         0.3559   -6.2665    0.2241    0.0263    0.0153   -0.0014
H        -4.0801   -3.8731    0.2016   -0.0201   -0.0038    0.0010
H        -3.9765   -6.3769    0.3099   -0.0211    0.0355   -0.0009
H        -1.7960   -7.5547    0.3185    0.0239    0.0134   -0.0013
H         0.9891    5.4946    0.2174   -0.0006    0.0169    0.0011
H         5.4267    3.1042    0.2032   -0.0030   -0.0230   -0.0014
H         5.3215    5.6077    0.3106   -0.0029   -0.0125   -0.0005
H         3.1404    6.7843    0.3129   -0.0256    0.0014   -0.0002
H         7.8456   -2.8649    0.2681    0.0172   -0.0700    0.0031
    57
stable frequency at   1576.722 1/cm IR int. is 7.327 a.m.u.; force const. is 10.732 mDyne/Ang.
Fe        0.6742   -0.3860   -0.2512   -0.0001    0.0000   -0.0000
N         3.9155    0.5774    0.0034   -0.0010   -0.0139   -0.0005
N         1.6364   -3.6259    0.0222    0.0106    0.0084   -0.0005
N        -0.2400   -2.0716   -0.0762    0.0003    0.0005   -0.0002
N        -1.0127    0.5279   -0.0841   -0.0006    0.0004    0.0001
N         1.5882    1.2996   -0.0761   -0.0005   -0.0006   -0.0002
N         2.3604   -1.2995   -0.0741    0.0013   -0.0005    0.0001
N        -0.2889    2.8541    0.0151   -0.0170   -0.0087   -0.0004
N        -2.5678   -1.3490   -0.0039   -0.0020    0.0191   -0.0004
C        -2.6318    2.2074    0.0858    0.0024    0.0076    0.0002
C        -1.2138    1.9066   -0.0003    0.0083    0.0097    0.0000
C         1.0023    2.5641    0.0125    0.0167    0.0180    0.0017
C         2.0253    3.5896    0.1094    0.0505   -0.0808   -0.0040
C        -3.3042    0.9681    0.0767   -0.0050   -0.0061    0.0001
C        -2.2782   -0.0563   -0.0113   -0.0037   -0.0127   -0.0001
C        -0.6084   -5.7574    0.2030    0.0313   -0.0342    0.0017
C        -3.1245   -4.3989    0.1900   -0.0472    0.0039    0.0016
C        -1.8131   -6.4652    0.2658   -0.0731    0.0173    0.0006
C        -4.7020    0.9019    0.1386    0.0011    0.0032    0.0000
C        -3.3382    3.4149    0.1551   -0.0019   -0.0027   -0.0000
C        -5.4086    2.1097    0.2138   -0.0013   -0.0074   -0.0002
C        -3.0555   -5.7944    0.2587    0.0548   -0.0487    0.0010
C        -1.6195   -2.2729    0.0041   -0.0059   -0.0232    0.0017
C        -1.9182   -3.6908    0.1037    0.0946   -0.0016   -0.0030
C         3.2652    2.9200    0.1027   -0.0870    0.0069   -0.0025
C         2.9671    1.5014    0.0066    0.0063    0.0205    0.0015
C        -4.7364    3.3486    0.2202    0.0053    0.0052   -0.0001
C         3.6255   -0.7151   -0.0006    0.0147    0.0065    0.0007
C         4.6513   -1.7396    0.0908   -0.0453   -0.0253   -0.0013
C         2.5611   -2.6780    0.0096    0.0018   -0.0152    0.0007
C         3.9791   -2.9786    0.0994    0.0012    0.0473   -0.0015
C        -0.6787   -4.3610    0.1117   -0.0542    0.0761   -0.0037
C         0.3451   -3.3358    0.0162   -0.0133   -0.0179    0.0016
C         1.9538    4.9862    0.1974   -0.0264    0.0405    0.0020
C         4.4707    3.6292    0.1907    0.0418   -0.0111    0.0011
C         3.1581    5.6948    0.2620    0.0671   -0.0197    0.0005
C         4.4009    5.0247    0.2573   -0.0527    0.0520    0.0011
C         6.0491   -1.6734    0.1498    0.0248    0.0134    0.0007
C         4.6854   -4.1862    0.1668   -0.0034   -0.0247    0.0006
C         6.7557   -2.8811    0.2249   -0.0118   -0.0362    0.0006
C         6.0835   -4.1199    0.2324    0.0273    0.0293    0.0003
H         6.5636   -0.7119    0.1505   -0.0026    0.0313   -0.0014
H         4.1595   -5.1415    0.1810   -0.0210   -0.0182   -0.0006
H         6.6636   -5.0424    0.2843   -0.0535   -0.0202   -0.0021
H        -5.2165   -0.0595    0.1415    0.0019    0.0029    0.0001
H        -2.8123    4.3701    0.1706   -0.0018   -0.0030    0.0003
H        -5.3164    4.2710    0.2739   -0.0072   -0.0024    0.0003
H        -6.4984    2.0935    0.2595   -0.0018    0.0078    0.0004
H         0.3559   -6.2665    0.2241    0.0494   -0.0102    0.0000
H        -4.0801   -3.8731    0.2016   -0.0320    0.0416   -0.0011
H        -3.9765   -6.3769    0.3099   -0.0328    0.0936   -0.0028
H        -1.7960   -7.5547    0.3185    0.1009    0.0217   -0.0029
H         0.9891    5.4946    0.2174   -0.0529    0.0002   -0.0009
H         5.4267    3.1042    0.2032    0.0362   -0.0307   -0.0001
H         5.3215    5.6077    0.3106    0.0373   -0.0931   -0.0025
H         3.1404    6.7843    0.3129   -0.0926   -0.0243   -0.0031
H         7.8456   -2.8649    0.2681   -0.0144    0.0532   -0.0024
    57
stable frequency at   1577.986 1/cm IR int. is 7.426 a.m.u.; force const. is 10.894 mDyne/Ang.
Fe        0.6742   -0.3860   -0.2512   -0.0001    0.0000   -0.0000
N         3.9155    0.5774    0.0034   -0.0101    0.0227   -0.0002
N         1.6364   -3.6259    0.0222   -0.0269   -0.0047   -0.0002
N        -0.2400   -2.0716   -0.0762   -0.0009   -0.0011    0.0002
N        -1.0127    0.5279   -0.0841    0.0011   -0.0009   -0.0002
N         1.5882    1.2996   -0.0761    0.0007    0.0011    0.0001
N         2.3604   -1.2995   -0.0741   -0.0005    0.0007   -0.0002
N        -0.2889    2.8541    0.0151    0.0224    0.0045   -0.0000
N        -2.5678   -1.3490   -0.0039    0.0081   -0.0196   -0.0000
C        -2.6318    2.2074    0.0858   -0.0051   -0.0681   -0.0021
C        -1.2138    1.9066   -0.0003   -0.0214   -0.0011    0.0009
C         1.0023    2.5641    0.0125   -0.0168    0.0011   -0.0003
C         2.0253    3.5896    0.1094   -0.0159    0.0147    0.0006
C        -3.3042    0.9681    0.0767    0.0623    0.0396   -0.0018
C        -2.2782   -0.0563   -0.0113   -0.0121    0.0181    0.0010
C        -0.6084   -5.7574    0.2030   -0.0070    0.0104   -0.0006
C        -3.1245   -4.3989    0.1900    0.0092   -0.0063   -0.0000
C        -1.8131   -6.4652    0.2658    0.0187   -0.0056   -0.0001
C        -4.7020    0.9019    0.1386   -0.0311   -0.0208    0.0008
C        -3.3382    3.4149    0.1551    0.0077    0.0330    0.0007
C        -5.4086    2.1097    0.2138    0.0160    0.0544    0.0010
C        -3.0555   -5.7944    0.2587   -0.0146    0.0163   -0.0005
C        -1.6195   -2.2729    0.0041   -0.0091    0.0122   -0.0004
C        -1.9182   -3.6908    0.1037   -0.0226    0.0055    0.0004
C         3.2652    2.9200    0.1027    0.0252   -0.0008    0.0009
C         2.9671    1.5014    0.0066    0.0096   -0.0136   -0.0004
C        -4.7364    3.3486    0.2202   -0.0411   -0.0427    0.0005
C         3.6255   -0.7151   -0.0006    0.0198   -0.0218    0.0016
C         4.6513   -1.7396    0.0908   -0.0972   -0.0626   -0.0028
C         2.5611   -2.6780    0.0096    0.0283   -0.0030    0.0015
C         3.9791   -2.9786    0.0994    0.0071    0.1082   -0.0033
C        -0.6787   -4.3610    0.1117    0.0150   -0.0223    0.0012
C         0.3451   -3.3358    0.0162    0.0195   -0.0002   -0.0004
C         1.9538    4.9862    0.1974    0.0100   -0.0034   -0.0000
C         4.4707    3.6292    0.1907   -0.0119   -0.0002   -0.0005
C         3.1581    5.6948    0.2620   -0.0208    0.0027   -0.0003
C         4.4009    5.0247    0.2573    0.0141   -0.0112   -0.0002
C         6.0491   -1.6734    0.1498    0.0485    0.0331    0.0011
C         4.6854   -4.1862    0.1668   -0.0104   -0.0531    0.0011
C         6.7557   -2.8811    0.2249   -0.0249   -0.0857    0.0016
C         6.0835   -4.1199    0.2324    0.0636    0.0671    0.0008
H         6.5636   -0.7119    0.1505    0.0014    0.0648   -0.0029
H         4.1595   -5.1415    0.1810   -0.0436   -0.0412   -0.0015
H         6.6636   -5.0424    0.2843   -0.1168   -0.0431   -0.0036
H        -5.2165   -0.0595    0.1415   -0.0003   -0.0414   -0.0018
H        -2.8123    4.3701    0.1706    0.0264    0.0267   -0.0007
H        -5.3164    4.2710    0.2739    0.0741    0.0278   -0.0021
H        -6.4984    2.0935    0.2595    0.0197   -0.0741   -0.0034
H         0.3559   -6.2665    0.2241   -0.0139   -0.0003    0.0003
H        -4.0801   -3.8731    0.2016    0.0115   -0.0040   -0.0001
H        -3.9765   -6.3769    0.3099    0.0108   -0.0246    0.0007
H        -1.7960   -7.5547    0.3185   -0.0230   -0.0069    0.0008
H         0.9891    5.4946    0.2174    0.0086   -0.0079   -0.0003
H         5.4267    3.1042    0.2032   -0.0066    0.0116    0.0004
H         5.3215    5.6077    0.3106   -0.0056    0.0210    0.0007
H         3.1404    6.7843    0.3129    0.0256    0.0037    0.0007
H         7.8456   -2.8649    0.2681   -0.0307    0.1178   -0.0053
    57
stable frequency at   1585.029 1/cm IR int. is 6.958 a.m.u.; force const. is 10.299 mDyne/Ang.
Fe        0.6742   -0.3860   -0.2512   -0.0000   -0.0000   -0.0000
N         3.9155    0.5774    0.0034   -0.0037    0.0118    0.0000
N         1.6364   -3.6259    0.0222    0.0113    0.0037   -0.0001
N        -0.2400   -2.0716   -0.0762   -0.0009    0.0003   -0.0000
N        -1.0127    0.5279   -0.0841    0.0020    0.0038   -0.0000
N         1.5882    1.2996   -0.0761    0.0009   -0.0006   -0.0000
N         2.3604   -1.2995   -0.0741   -0.0014   -0.0027    0.0000
N        -0.2889    2.8541    0.0151   -0.0128   -0.0041   -0.0001
N        -2.5678   -1.3490   -0.0039    0.0042   -0.0130    0.0001
C        -2.6318    2.2074    0.0858    0.0550   -0.0578   -0.0047
C        -1.2138    1.9066   -0.0003   -0.0052    0.0134    0.0009
C         1.0023    2.5641    0.0125    0.0105   -0.0074   -0.0004
C         2.0253    3.5896    0.1094    0.0112    0.0449    0.0033
C        -3.3042    0.9681    0.0767   -0.0695    0.0202    0.0041
C        -2.2782   -0.0563   -0.0113    0.0117    0.0033   -0.0006
C        -0.6084   -5.7574    0.2030    0.0243    0.0476   -0.0035
C        -3.1245   -4.3989    0.1900   -0.0277   -0.0463    0.0035
C        -1.8131   -6.4652    0.2658   -0.0242   -0.0188    0.0015
C        -4.7020    0.9019    0.1386    0.0715   -0.0374   -0.0046
C        -3.3382    3.4149    0.1551   -0.0701    0.0455    0.0047
C        -5.4086    2.1097    0.2138   -0.0266    0.0380    0.0024
C        -3.0555   -5.7944    0.2587    0.0036    0.0295   -0.0016
C        -1.6195   -2.2729    0.0041   -0.0126    0.0045    0.0003
C        -1.9182   -3.6908    0.1037    0.0341    0.0329   -0.0033
C         3.2652    2.9200    0.1027   -0.0371   -0.0347   -0.0035
C         2.9671    1.5014    0.0066    0.0115   -0.0016    0.0004
C        -4.7364    3.3486    0.2202    0.0405   -0.0081   -0.0022
C         3.6255   -0.7151   -0.0006   -0.0102   -0.0047   -0.0005
C         4.6513   -1.7396    0.0908    0.0597   -0.0171    0.0035
C         2.5611   -2.6780    0.0096    0.0035   -0.0124    0.0008
C         3.9791   -2.9786    0.0994   -0.0471    0.0502   -0.0040
C        -0.6787   -4.3610    0.1117   -0.0102   -0.0454    0.0033
C         0.3451   -3.3358    0.0162   -0.0078    0.0075   -0.0004
C         1.9538    4.9862    0.1974   -0.0257   -0.0483   -0.0035
C         4.4707    3.6292    0.1907    0.0295    0.0478    0.0037
C         3.1581    5.6948    0.2620    0.0266    0.0190    0.0016
C         4.4009    5.0247    0.2573   -0.0049   -0.0293   -0.0016
C         6.0491   -1.6734    0.1498   -0.0619    0.0324   -0.0039
C         4.6854   -4.1862    0.1668    0.0606   -0.0395    0.0040
C         6.7557   -2.8811    0.2249    0.0230   -0.0331    0.0021
C         6.0835   -4.1199    0.2324   -0.0350    0.0072   -0.0019
H         6.5636   -0.7119    0.1505    0.0745   -0.0420    0.0048
H         4.1595   -5.1415    0.1810   -0.0817    0.0359   -0.0050
H         6.6636   -5.0424    0.2843    0.0076    0.0368   -0.0008
H        -5.2165   -0.0595    0.1415   -0.0862    0.0486    0.0057
H        -2.8123    4.3701    0.1706    0.0944   -0.0417   -0.0058
H        -5.3164    4.2710    0.2739   -0.0090   -0.0425   -0.0009
H        -6.4984    2.0935    0.2595   -0.0280   -0.0437    0.0006
H         0.3559   -6.2665    0.2241   -0.0317   -0.0563    0.0041
H        -4.0801   -3.8731    0.2016    0.0285    0.0591   -0.0043
H        -3.9765   -6.3769    0.3099    0.0308   -0.0100   -0.0005
H        -1.7960   -7.5547    0.3185    0.0284   -0.0199    0.0011
H         0.9891    5.4946    0.2174    0.0314    0.0580    0.0041
H         5.4267    3.1042    0.2032   -0.0289   -0.0622   -0.0044
H         5.3215    5.6077    0.3106   -0.0311    0.0083   -0.0006
H         3.1404    6.7843    0.3129   -0.0314    0.0200    0.0010
H         7.8456   -2.8649    0.2681    0.0242    0.0380    0.0004
    57
stable frequency at   1586.953 1/cm IR int. is 7.094 a.m.u.; force const. is 10.526 mDyne/Ang.
Fe        0.6742   -0.3860   -0.2512   -0.0001   -0.0002    0.0000
N         3.9155    0.5774    0.0034    0.0041   -0.0106   -0.0002
N         1.6364   -3.6259    0.0222   -0.0115   -0.0027    0.0002
N        -0.2400   -2.0716   -0.0762   -0.0005   -0.0022   -0.0000
N        -1.0127    0.5279   -0.0841    0.0044    0.0085    0.0000
N         1.5882    1.2996   -0.0761   -0.0008   -0.0020    0.0000
N         2.3604   -1.2995   -0.0741    0.0045    0.0087   -0.0000
N        -0.2889    2.8541    0.0151   -0.0098   -0.0022   -0.0002
N        -2.5678   -1.3490   -0.0039    0.0037   -0.0093    0.0003
C        -2.6318    2.2074    0.0858    0.0612   -0.0592   -0.0049
C        -1.2138    1.9066   -0.0003   -0.0153    0.0065    0.0009
C         1.0023    2.5641    0.0125    0.0215    0.0032    0.0005
C         2.0253    3.5896    0.1094    0.0049   -0.0150   -0.0009
C        -3.3042    0.9681    0.0767   -0.0764    0.0232    0.0044
C        -2.2782   -0.0563   -0.0113    0.0123   -0.0097   -0.0007
C        -0.6084   -5.7574    0.2030   -0.0092   -0.0020    0.0003
C        -3.1245   -4.3989    0.1900    0.0130    0.0078   -0.0009
C        -1.8131   -6.4652    0.2658    0.0174    0.0003   -0.0004
C        -4.7020    0.9019    0.1386    0.0759   -0.0390   -0.0049
C        -3.3382    3.4149    0.1551   -0.0741    0.0470    0.0050
C        -5.4086    2.1097    0.2138   -0.0279    0.0384    0.0025
C        -3.0555   -5.7944    0.2587   -0.0103    0.0040    0.0001
C        -1.6195   -2.2729    0.0041   -0.0085    0.0212   -0.0008
C        -1.9182   -3.6908    0.1037   -0.0217   -0.0107    0.0014
C         3.2652    2.9200    0.1027   -0.0154   -0.0046   -0.0008
C         2.9671    1.5014    0.0066   -0.0100    0.0207    0.0006
C        -4.7364    3.3486    0.2202    0.0430   -0.0075   -0.0023
C         3.6255   -0.7151   -0.0006    0.0134   -0.0089    0.0008
C         4.6513   -1.7396    0.0908   -0.0832    0.0247   -0.0048
C         2.5611   -2.6780    0.0096   -0.0148    0.0082   -0.0010
C         3.9791   -2.9786    0.0994    0.0659   -0.0642    0.0053
C        -0.6787   -4.3610    0.1117    0.0071   -0.0073    0.0003
C         0.3451   -3.3358    0.0162    0.0221    0.0018   -0.0004
C         1.9538    4.9862    0.1974   -0.0049    0.0062    0.0003
C         4.4707    3.6292    0.1907    0.0080   -0.0002    0.0003
C         3.1581    5.6948    0.2620    0.0130   -0.0028    0.0002
C         4.4009    5.0247    0.2573   -0.0095    0.0089    0.0002
C         6.0491   -1.6734    0.1498    0.0829   -0.0424    0.0052
C         4.6854   -4.1862    0.1668   -0.0806    0.0510   -0.0053
C         6.7557   -2.8811    0.2249   -0.0305    0.0416   -0.0027
C         6.0835   -4.1199    0.2324    0.0470   -0.0080    0.0024
H         6.5636   -0.7119    0.1505   -0.0995    0.0572   -0.0064
H         4.1595   -5.1415    0.1810    0.1081   -0.0491    0.0066
H         6.6636   -5.0424    0.2843   -0.0124   -0.0490    0.0015
H        -5.2165   -0.0595    0.1415   -0.0914    0.0523    0.0060
H        -2.8123    4.3701    0.1706    0.0996   -0.0451   -0.0060
H        -5.3164    4.2710    0.2739   -0.0112   -0.0449   -0.0009
H        -6.4984    2.0935    0.2595   -0.0295   -0.0442    0.0007
H         0.3559   -6.2665    0.2241   -0.0039    0.0093   -0.0006
H        -4.0801   -3.8731    0.2016   -0.0009   -0.0195    0.0011
H        -3.9765   -6.3769    0.3099   -0.0000   -0.0136    0.0007
H        -1.7960   -7.5547    0.3185   -0.0211   -0.0003    0.0003
H         0.9891    5.4946    0.2174   -0.0093   -0.0006   -0.0002
H         5.4267    3.1042    0.2032    0.0041   -0.0090   -0.0003
H         5.3215    5.6077    0.3106    0.0051   -0.0150   -0.0005
H         3.1404    6.7843    0.3129   -0.0159   -0.0036   -0.0005
H         7.8456   -2.8649    0.2681   -0.0322   -0.0477   -0.0007
    57
stable frequency at   1588.572 1/cm IR int. is 7.015 a.m.u.; force const. is 10.431 mDyne/Ang.
Fe        0.6742   -0.3860   -0.2512    0.0002   -0.0001    0.0000
N         3.9155    0.5774    0.0034    0.0025   -0.0100    0.0002
N         1.6364   -3.6259    0.0222    0.0095    0.0036    0.0002
N        -0.2400   -2.0716   -0.0762   -0.0082    0.0043   -0.0001
N        -1.0127    0.5279   -0.0841    0.0021   -0.0003    0.0001
N         1.5882    1.2996   -0.0761   -0.0086    0.0044    0.0000
N         2.3604   -1.2995   -0.0741    0.0019   -0.0007   -0.0000
N        -0.2889    2.8541    0.0151    0.0093    0.0035   -0.0001
N        -2.5678   -1.3490   -0.0039    0.0024   -0.0099   -0.0001
C        -2.6318    2.2074    0.0858    0.0091   -0.0182   -0.0011
C        -1.2138    1.9066   -0.0003   -0.0208   -0.0088    0.0004
C         1.0023    2.5641    0.0125    0.0103    0.0136    0.0011
C         2.0253    3.5896    0.1094   -0.0228   -0.0829   -0.0060
C        -3.3042    0.9681    0.0767    0.0084    0.0057   -0.0003
C        -2.2782   -0.0563   -0.0113   -0.0020    0.0197    0.0003
C        -0.6084   -5.7574    0.2030    0.0408    0.0794   -0.0058
C        -3.1245   -4.3989    0.1900   -0.0458   -0.0772    0.0059
C        -1.8131   -6.4652    0.2658   -0.0398   -0.0304    0.0024
C        -4.7020    0.9019    0.1386   -0.0005   -0.0070   -0.0002
C        -3.3382    3.4149    0.1551   -0.0053    0.0108    0.0006
C        -5.4086    2.1097    0.2138    0.0009    0.0146    0.0004
C        -3.0555   -5.7944    0.2587    0.0059    0.0478   -0.0026
C        -1.6195   -2.2729    0.0041   -0.0068   -0.0135    0.0010
C        -1.9182   -3.6908    0.1037    0.0569    0.0611   -0.0057
C         3.2652    2.9200    0.1027    0.0585    0.0637    0.0059
C         2.9671    1.5014    0.0066   -0.0069   -0.0141   -0.0010
C        -4.7364    3.3486    0.2202   -0.0052   -0.0094   -0.0001
C         3.6255   -0.7151   -0.0006   -0.0026    0.0205   -0.0004
C         4.6513   -1.7396    0.0908    0.0125    0.0051    0.0005
C         2.5611   -2.6780    0.0096   -0.0197   -0.0089   -0.0004
C         3.9791   -2.9786    0.0994    0.0060   -0.0163    0.0009
C        -0.6787   -4.3610    0.1117   -0.0221   -0.0790    0.0058
C         0.3451   -3.3358    0.0162    0.0091    0.0128   -0.0010
C         1.9538    4.9862    0.1974    0.0421    0.0829    0.0060
C         4.4707    3.6292    0.1907   -0.0473   -0.0805   -0.0061
C         3.1581    5.6948    0.2620   -0.0407   -0.0318   -0.0025
C         4.4009    5.0247    0.2573    0.0056    0.0501    0.0026
C         6.0491   -1.6734    0.1498   -0.0042   -0.0055   -0.0000
C         4.6854   -4.1862    0.1668   -0.0019    0.0090   -0.0004
C         6.7557   -2.8811    0.2249    0.0022    0.0135   -0.0003
C         6.0835   -4.1199    0.2324   -0.0075   -0.0095   -0.0001
H         6.5636   -0.7119    0.1505   -0.0014   -0.0077    0.0003
H         4.1595   -5.1415    0.1810    0.0115    0.0026    0.0005
H         6.6636   -5.0424    0.2843    0.0145    0.0037    0.0007
H        -5.2165   -0.0595    0.1415   -0.0053   -0.0050    0.0001
H        -2.8123    4.3701    0.1706    0.0158    0.0002   -0.0007
H        -5.3164    4.2710    0.2739    0.0133    0.0015   -0.0006
H        -6.4984    2.0935    0.2595    0.0015   -0.0177   -0.0006
H         0.3559   -6.2665    0.2241   -0.0533   -0.0953    0.0068
H        -4.0801   -3.8731    0.2016    0.0487    0.1001   -0.0072
H        -3.9765   -6.3769    0.3099    0.0502   -0.0165   -0.0009
H        -1.7960   -7.5547    0.3185    0.0466   -0.0322    0.0019
H         0.9891    5.4946    0.2174   -0.0558   -0.0991   -0.0070
H         5.4267    3.1042    0.2032    0.0509    0.1039    0.0075
H         5.3215    5.6077    0.3106    0.0524   -0.0177    0.0010
H         3.1404    6.7843    0.3129    0.0478   -0.0336   -0.0019
H         7.8456   -2.8649    0.2681    0.0030   -0.0164    0.0007
    57
stable frequency at   1589.762 1/cm IR int. is 7.035 a.m.u.; force const. is 10.475 mDyne/Ang.
Fe        0.6742   -0.3860   -0.2512    0.0000   -0.0000    0.0000
N         3.9155    0.5774    0.0034   -0.0008    0.0007   -0.0002
N         1.6364   -3.6259    0.0222    0.0029    0.0004    0.0002
N        -0.2400   -2.0716   -0.0762   -0.0069    0.0037   -0.0000
N        -1.0127    0.5279   -0.0841   -0.0032   -0.0058   -0.0000
N         1.5882    1.2996   -0.0761    0.0064   -0.0035   -0.0000
N         2.3604   -1.2995   -0.0741    0.0034    0.0060   -0.0000
N        -0.2889    2.8541    0.0151   -0.0026   -0.0003    0.0002
N        -2.5678   -1.3490   -0.0039    0.0010   -0.0015   -0.0002
C        -2.6318    2.2074    0.0858   -0.0382    0.0347    0.0031
C        -1.2138    1.9066   -0.0003    0.0175    0.0007   -0.0006
C         1.0023    2.5641    0.0125   -0.0122   -0.0118   -0.0010
C         2.0253    3.5896    0.1094    0.0193    0.0657    0.0049
C        -3.3042    0.9681    0.0767    0.0464   -0.0153   -0.0028
C        -2.2782   -0.0563   -0.0113   -0.0083    0.0142    0.0005
C        -0.6084   -5.7574    0.2030    0.0357    0.0695   -0.0051
C        -3.1245   -4.3989    0.1900   -0.0401   -0.0674    0.0052
C        -1.8131   -6.4652    0.2658   -0.0345   -0.0262    0.0021
C        -4.7020    0.9019    0.1386   -0.0445    0.0228    0.0029
C        -3.3382    3.4149    0.1551    0.0433   -0.0273   -0.0029
C        -5.4086    2.1097    0.2138    0.0159   -0.0219   -0.0014
C        -3.0555   -5.7944    0.2587    0.0051    0.0412   -0.0022
C        -1.6195   -2.2729    0.0041   -0.0035   -0.0176    0.0011
C        -1.9182   -3.6908    0.1037    0.0502    0.0550   -0.0052
C         3.2652    2.9200    0.1027   -0.0469   -0.0516   -0.0049
C         2.9671    1.5014    0.0066    0.0028    0.0172    0.0009
C        -4.7364    3.3486    0.2202   -0.0246    0.0041    0.0013
C         3.6255   -0.7151   -0.0006    0.0087   -0.0133    0.0006
C         4.6513   -1.7396    0.0908   -0.0489    0.0163   -0.0030
C         2.5611   -2.6780    0.0096   -0.0189   -0.0009   -0.0007
C         3.9791   -2.9786    0.0994    0.0408   -0.0377    0.0033
C        -0.6787   -4.3610    0.1117   -0.0206   -0.0701    0.0053
C         0.3451   -3.3358    0.0162    0.0132    0.0124   -0.0010
C         1.9538    4.9862    0.1974   -0.0333   -0.0650   -0.0047
C         4.4707    3.6292    0.1907    0.0374    0.0631    0.0048
C         3.1581    5.6948    0.2620    0.0322    0.0246    0.0019
C         4.4009    5.0247    0.2573   -0.0047   -0.0385   -0.0020
C         6.0491   -1.6734    0.1498    0.0475   -0.0246    0.0030
C         4.6854   -4.1862    0.1668   -0.0463    0.0295   -0.0031
C         6.7557   -2.8811    0.2249   -0.0170    0.0240   -0.0015
C         6.0835   -4.1199    0.2324    0.0261   -0.0048    0.0014
H         6.5636   -0.7119    0.1505   -0.0579    0.0329   -0.0037
H         4.1595   -5.1415    0.1810    0.0630   -0.0284    0.0038
H         6.6636   -5.0424    0.2843   -0.0065   -0.0273    0.0006
H        -5.2165   -0.0595    0.1415    0.0542   -0.0311   -0.0035
H        -2.8123    4.3701    0.1706   -0.0586    0.0267    0.0035
H        -5.3164    4.2710    0.2739    0.0065    0.0256    0.0005
H        -6.4984    2.0935    0.2595    0.0169    0.0249   -0.0005
H         0.3559   -6.2665    0.2241   -0.0469   -0.0839    0.0060
H        -4.0801   -3.8731    0.2016    0.0425    0.0876   -0.0063
H        -3.9765   -6.3769    0.3099    0.0431   -0.0139   -0.0008
H        -1.7960   -7.5547    0.3185    0.0400   -0.0278    0.0016
H         0.9891    5.4946    0.2174    0.0439    0.0784    0.0055
H         5.4267    3.1042    0.2032   -0.0398   -0.0820   -0.0059
H         5.3215    5.6077    0.3106   -0.0403    0.0130   -0.0008
H         3.1404    6.7843    0.3129   -0.0373    0.0260    0.0015
H         7.8456   -2.8649    0.2681   -0.0180   -0.0272   -0.0004
    57
stable frequency at   3116.979 1/cm IR int. is 1.085 a.m.u.; force const. is 6.212 mDyne/Ang.
Fe        0.6742   -0.3860   -0.2512   -0.0000   -0.0000    0.0000
N         3.9155    0.5774    0.0034   -0.0001    0.0000    0.0000
N         1.6364   -3.6259    0.0222    0.0000    0.0000    0.0000
N        -0.2400   -2.0716   -0.0762    0.0000   -0.0000    0.0000
N        -1.0127    0.5279   -0.0841    0.0000   -0.0000    0.0000
N         1.5882    1.2996   -0.0761    0.0001   -0.0000    0.0000
N         2.3604   -1.2995   -0.0741    0.0000   -0.0000   -0.0000
N        -0.2889    2.8541    0.0151   -0.0000    0.0000    0.0000
N        -2.5678   -1.3490   -0.0039   -0.0000   -0.0000    0.0000
C        -2.6318    2.2074    0.0858    0.0000   -0.0000    0.0000
C        -1.2138    1.9066   -0.0003   -0.0000   -0.0000    0.0000
C         1.0023    2.5641    0.0125    0.0001   -0.0000    0.0000
C         2.0253    3.5896    0.1094    0.0001    0.0004    0.0000
C        -3.3042    0.9681    0.0767    0.0000   -0.0000    0.0000
C        -2.2782   -0.0563   -0.0113    0.0000    0.0000    0.0000
C        -0.6084   -5.7574    0.2030    0.0048   -0.0029    0.0001
C        -3.1245   -4.3989    0.1900    0.0059   -0.0028   -0.0001
C        -1.8131   -6.4652    0.2658    0.0000    0.0137   -0.0007
C        -4.7020    0.9019    0.1386    0.0003    0.0004   -0.0000
C        -3.3382    3.4149    0.1551    0.0003    0.0006    0.0000
C        -5.4086    2.1097    0.2138   -0.0028    0.0000    0.0001
C        -3.0555   -5.7944    0.2587   -0.0135   -0.0087    0.0008
C        -1.6195   -2.2729    0.0041    0.0000   -0.0000    0.0000
C        -1.9182   -3.6908    0.1037   -0.0001   -0.0001    0.0000
C         3.2652    2.9200    0.1027   -0.0003   -0.0004   -0.0000
C         2.9671    1.5014    0.0066    0.0001   -0.0001    0.0000
C        -4.7364    3.3486    0.2202    0.0018   -0.0027   -0.0002
C         3.6255   -0.7151   -0.0006   -0.0000    0.0000    0.0000
C         4.6513   -1.7396    0.0908    0.0000   -0.0000    0.0000
C         2.5611   -2.6780    0.0096   -0.0000   -0.0000    0.0000
C         3.9791   -2.9786    0.0994    0.0000    0.0000    0.0000
C        -0.6787   -4.3610    0.1117    0.0000    0.0001   -0.0000
C         0.3451   -3.3358    0.0162    0.0000   -0.0000    0.0000
C         1.9538    4.9862    0.1974    0.0163   -0.0096   -0.0004
C         4.4707    3.6292    0.1907    0.0193   -0.0091    0.0003
C         3.1581    5.6948    0.2620    0.0000    0.0470    0.0022
C         4.4009    5.0247    0.2573   -0.0453   -0.0292   -0.0029
C         6.0491   -1.6734    0.1498   -0.0003   -0.0005    0.0000
C         4.6854   -4.1862    0.1668   -0.0002   -0.0004    0.0000
C         6.7557   -2.8811    0.2249    0.0001    0.0000    0.0000
C         6.0835   -4.1199    0.2324    0.0001   -0.0000    0.0000
H         6.5636   -0.7119    0.1505    0.0033    0.0062    0.0000
H         4.1595   -5.1415    0.1810    0.0026    0.0048   -0.0000
H         6.6636   -5.0424    0.2843   -0.0003    0.0003    0.0000
H        -5.2165   -0.0595    0.1415   -0.0032   -0.0057    0.0001
H        -2.8123    4.3701    0.1706   -0.0042   -0.0079   -0.0001
H        -5.3164    4.2710    0.2739   -0.0203    0.0321    0.0019
H        -6.4984    2.0935    0.2595    0.0335    0.0003   -0.0014
H         0.3559   -6.2665    0.2241   -0.0596    0.0322   -0.0013
H        -4.0801   -3.8731    0.2016   -0.0694    0.0370    0.0009
H        -3.9765   -6.3769    0.3099    0.1608    0.1019   -0.0091
H        -1.7960   -7.5547    0.3185    0.0021   -0.1630    0.0080
H         0.9891    5.4946    0.2174   -0.2014    0.1089    0.0042
H         5.4267    3.1042    0.2032   -0.2279    0.1214   -0.0030
H         5.3215    5.6077    0.3106    0.5382    0.3419    0.0316
H         3.1404    6.7843    0.3129    0.0078   -0.5577   -0.0264
H         7.8456   -2.8649    0.2681   -0.0009   -0.0001    0.0000
    57
stable frequency at   3117.030 1/cm IR int. is 1.085 a.m.u.; force const. is 6.212 mDyne/Ang.
Fe        0.6742   -0.3860   -0.2512    0.0000    0.0000    0.0000
N         3.9155    0.5774    0.0034   -0.0000    0.0000    0.0000
N         1.6364   -3.6259    0.0222    0.0001   -0.0000    0.0000
N        -0.2400   -2.0716   -0.0762   -0.0001    0.0000    0.0000
N        -1.0127    0.5279   -0.0841   -0.0000   -0.0000    0.0000
N         1.5882    1.2996   -0.0761    0.0000   -0.0000    0.0000
N         2.3604   -1.2995   -0.0741    0.0000    0.0000    0.0000
N        -0.2889    2.8541    0.0151   -0.0000    0.0000    0.0000
N        -2.5678   -1.3490   -0.0039    0.0001   -0.0000    0.0000
C        -2.6318    2.2074    0.0858    0.0000   -0.0000    0.0000
C        -1.2138    1.9066   -0.0003    0.0000    0.0000    0.0000
C         1.0023    2.5641    0.0125    0.0000    0.0000    0.0000
C         2.0253    3.5896    0.1094    0.0000    0.0001    0.0000
C        -3.3042    0.9681    0.0767   -0.0000    0.0000    0.0000
C        -2.2782   -0.0563   -0.0113    0.0000   -0.0000    0.0000
C        -0.6084   -5.7574    0.2030   -0.0165    0.0098   -0.0004
C        -3.1245   -4.3989    0.1900   -0.0191    0.0091    0.0003
C        -1.8131   -6.4652    0.2658    0.0000   -0.0478    0.0023
C        -4.7020    0.9019    0.1386    0.0005    0.0008    0.0000
C        -3.3382    3.4149    0.1551    0.0005    0.0010    0.0000
C        -5.4086    2.1097    0.2138   -0.0020   -0.0000    0.0001
C        -3.0555   -5.7944    0.2587    0.0442    0.0285   -0.0027
C        -1.6195   -2.2729    0.0041   -0.0001    0.0001    0.0000
C        -1.9182   -3.6908    0.1037    0.0003    0.0004   -0.0000
C         3.2652    2.9200    0.1027   -0.0001   -0.0001   -0.0000
C         2.9671    1.5014    0.0066    0.0000   -0.0000    0.0000
C        -4.7364    3.3486    0.2202    0.0010   -0.0015   -0.0001
C         3.6255   -0.7151   -0.0006   -0.0000   -0.0000    0.0000
C         4.6513   -1.7396    0.0908    0.0000   -0.0000    0.0000
C         2.5611   -2.6780    0.0096    0.0000   -0.0000    0.0000
C         3.9791   -2.9786    0.0994   -0.0000    0.0000    0.0000
C        -0.6787   -4.3610    0.1117   -0.0001   -0.0004    0.0000
C         0.3451   -3.3358    0.0162   -0.0001    0.0000    0.0000
C         1.9538    4.9862    0.1974    0.0048   -0.0028   -0.0001
C         4.4707    3.6292    0.1907    0.0055   -0.0026    0.0001
C         3.1581    5.6948    0.2620   -0.0000    0.0143    0.0007
C         4.4009    5.0247    0.2573   -0.0129   -0.0083   -0.0008
C         6.0491   -1.6734    0.1498   -0.0008   -0.0013   -0.0000
C         4.6854   -4.1862    0.1668   -0.0009   -0.0018    0.0000
C         6.7557   -2.8811    0.2249    0.0052   -0.0000    0.0002
C         6.0835   -4.1199    0.2324   -0.0031    0.0048   -0.0003
H         6.5636   -0.7119    0.1505    0.0092    0.0167    0.0001
H         4.1595   -5.1415    0.1810    0.0116    0.0218   -0.0002
H         6.6636   -5.0424    0.2843    0.0359   -0.0568    0.0033
H        -5.2165   -0.0595    0.1415   -0.0053   -0.0096    0.0001
H        -2.8123    4.3701    0.1706   -0.0061   -0.0113   -0.0001
H        -5.3164    4.2710    0.2739   -0.0117    0.0186    0.0012
H        -6.4984    2.0935    0.2595    0.0233    0.0004   -0.0009
H         0.3559   -6.2665    0.2241    0.2045   -0.1109    0.0046
H        -4.0801   -3.8731    0.2016    0.2260   -0.1207   -0.0027
H        -3.9765   -6.3769    0.3099   -0.5263   -0.3340    0.0298
H        -1.7960   -7.5547    0.3185   -0.0077    0.5677   -0.0277
H         0.9891    5.4946    0.2174   -0.0591    0.0321    0.0013
H         5.4267    3.1042    0.2032   -0.0652    0.0348   -0.0008
H         5.3215    5.6077    0.3106    0.1532    0.0974    0.0091
H         3.1404    6.7843    0.3129    0.0024   -0.1699   -0.0080
H         7.8456   -2.8649    0.2681   -0.0621   -0.0007   -0.0024
    57
stable frequency at   3117.122 1/cm IR int. is 1.085 a.m.u.; force const. is 6.213 mDyne/Ang.
Fe        0.6742   -0.3860   -0.2512   -0.0000    0.0000    0.0000
N         3.9155    0.5774    0.0034    0.0000    0.0000    0.0000
N         1.6364   -3.6259    0.0222   -0.0000    0.0000   -0.0000
N        -0.2400   -2.0716   -0.0762   -0.0000   -0.0000   -0.0000
N        -1.0127    0.5279   -0.0841   -0.0000   -0.0000    0.0000
N         1.5882    1.2996   -0.0761   -0.0000   -0.0000    0.0000
N         2.3604   -1.2995   -0.0741   -0.0000   -0.0001    0.0000
N        -0.2889    2.8541    0.0151   -0.0000    0.0000    0.0000
N        -2.5678   -1.3490   -0.0039    0.0000    0.0000    0.0000
C        -2.6318    2.2074    0.0858   -0.0002    0.0001    0.0000
C        -1.2138    1.9066   -0.0003   -0.0000   -0.0000    0.0000
C         1.0023    2.5641    0.0125    0.0000    0.0000    0.0000
C         2.0253    3.5896    0.1094   -0.0000   -0.0000   -0.0000
C        -3.3042    0.9681    0.0767    0.0002   -0.0001   -0.0000
C        -2.2782   -0.0563   -0.0113   -0.0000   -0.0000    0.0000
C        -0.6084   -5.7574    0.2030    0.0007   -0.0004    0.0000
C        -3.1245   -4.3989    0.1900    0.0009   -0.0004   -0.0000
C        -1.8131   -6.4652    0.2658    0.0000    0.0037   -0.0002
C        -4.7020    0.9019    0.1386   -0.0050   -0.0083    0.0000
C        -3.3382    3.4149    0.1551   -0.0048   -0.0102   -0.0002
C        -5.4086    2.1097    0.2138    0.0264   -0.0001   -0.0011
C        -3.0555   -5.7944    0.2587   -0.0035   -0.0023    0.0002
C        -1.6195   -2.2729    0.0041   -0.0000    0.0000    0.0000
C        -1.9182   -3.6908    0.1037   -0.0000   -0.0000    0.0000
C         3.2652    2.9200    0.1027    0.0000    0.0000   -0.0000
C         2.9671    1.5014    0.0066   -0.0000    0.0000    0.0000
C        -4.7364    3.3486    0.2202   -0.0165    0.0257    0.0017
C         3.6255   -0.7151   -0.0006   -0.0000   -0.0001    0.0000
C         4.6513   -1.7396    0.0908    0.0003   -0.0001    0.0000
C         2.5611   -2.6780    0.0096   -0.0001   -0.0000    0.0000
C         3.9791   -2.9786    0.0994   -0.0003    0.0002   -0.0000
C        -0.6787   -4.3610    0.1117   -0.0000    0.0000    0.0000
C         0.3451   -3.3358    0.0162    0.0000    0.0000    0.0000
C         1.9538    4.9862    0.1974   -0.0005    0.0003    0.0000
C         4.4707    3.6292    0.1907   -0.0003    0.0002   -0.0000
C         3.1581    5.6948    0.2620    0.0000    0.0005    0.0000
C         4.4009    5.0247    0.2573   -0.0005   -0.0003   -0.0000
C         6.0491   -1.6734    0.1498   -0.0079   -0.0131   -0.0000
C         4.6854   -4.1862    0.1668   -0.0076   -0.0162    0.0003
C         6.7557   -2.8811    0.2249    0.0420   -0.0001    0.0017
C         6.0835   -4.1199    0.2324   -0.0256    0.0401   -0.0025
H         6.5636   -0.7119    0.1505    0.0895    0.1631    0.0001
H         4.1595   -5.1415    0.1810    0.1019    0.1909   -0.0028
H         6.6636   -5.0424    0.2843    0.3002   -0.4762    0.0273
H        -5.2165   -0.0595    0.1415    0.0566    0.1031   -0.0003
H        -2.8123    4.3701    0.1706    0.0641    0.1202    0.0019
H        -5.3164    4.2710    0.2739    0.1927   -0.3056   -0.0180
H        -6.4984    2.0935    0.2595   -0.3138   -0.0039    0.0133
H         0.3559   -6.2665    0.2241   -0.0089    0.0049   -0.0002
H        -4.0801   -3.8731    0.2016   -0.0110    0.0058    0.0001
H        -3.9765   -6.3769    0.3099    0.0415    0.0265   -0.0023
H        -1.7960   -7.5547    0.3185    0.0004   -0.0435    0.0021
H         0.9891    5.4946    0.2174    0.0053   -0.0028   -0.0001
H         5.4267    3.1042    0.2032    0.0033   -0.0018    0.0000
H         5.3215    5.6077    0.3106    0.0057    0.0038    0.0003
H         3.1404    6.7843    0.3129   -0.0000   -0.0060   -0.0003
H         7.8456   -2.8649    0.2681   -0.4987   -0.0063   -0.0201
    57
stable frequency at   3117.162 1/cm IR int. is 1.085 a.m.u.; force const. is 6.214 mDyne/Ang.
Fe        0.6742   -0.3860   -0.2512    0.0000    0.0000   -0.0000
N         3.9155    0.5774    0.0034   -0.0000   -0.0000   -0.0000
N         1.6364   -3.6259    0.0222   -0.0000   -0.0000   -0.0000
N        -0.2400   -2.0716   -0.0762   -0.0000    0.0000   -0.0000
N        -1.0127    0.5279   -0.0841   -0.0000   -0.0001   -0.0000
N         1.5882    1.2996   -0.0761    0.0000   -0.0000   -0.0000
N         2.3604   -1.2995   -0.0741    0.0000    0.0000   -0.0000
N        -0.2889    2.8541    0.0151    0.0000    0.0001   -0.0000
N        -2.5678   -1.3490   -0.0039    0.0000    0.0000   -0.0000
C        -2.6318    2.2074    0.0858   -0.0003    0.0002    0.0000
C        -1.2138    1.9066   -0.0003   -0.0001   -0.0000   -0.0000
C         1.0023    2.5641    0.0125    0.0000    0.0000   -0.0000
C         2.0253    3.5896    0.1094    0.0000    0.0000   -0.0000
C        -3.3042    0.9681    0.0767    0.0003   -0.0001   -0.0000
C        -2.2782   -0.0563   -0.0113    0.0000   -0.0001   -0.0000
C        -0.6084   -5.7574    0.2030   -0.0013    0.0008   -0.0000
C        -3.1245   -4.3989    0.1900   -0.0014    0.0007    0.0000
C        -1.8131   -6.4652    0.2658    0.0000   -0.0034    0.0002
C        -4.7020    0.9019    0.1386   -0.0079   -0.0131    0.0001
C        -3.3382    3.4149    0.1551   -0.0074   -0.0158   -0.0003
C        -5.4086    2.1097    0.2138    0.0427   -0.0001   -0.0018
C        -3.0555   -5.7944    0.2587    0.0032    0.0021   -0.0002
C        -1.6195   -2.2729    0.0041    0.0000    0.0000   -0.0000
C        -1.9182   -3.6908    0.1037    0.0000    0.0000   -0.0000
C         3.2652    2.9200    0.1027   -0.0000   -0.0000   -0.0000
C         2.9671    1.5014    0.0066   -0.0000   -0.0000   -0.0000
C        -4.7364    3.3486    0.2202   -0.0255    0.0397    0.0025
C         3.6255   -0.7151   -0.0006   -0.0000    0.0001   -0.0000
C         4.6513   -1.7396    0.0908   -0.0002    0.0001   -0.0000
C         2.5611   -2.6780    0.0096    0.0001    0.0000   -0.0000
C         3.9791   -2.9786    0.0994    0.0002   -0.0001    0.0000
C        -0.6787   -4.3610    0.1117   -0.0000   -0.0000   -0.0000
C         0.3451   -3.3358    0.0162   -0.0000   -0.0000   -0.0000
C         1.9538    4.9862    0.1974    0.0011   -0.0006   -0.0000
C         4.4707    3.6292    0.1907    0.0012   -0.0006    0.0000
C         3.1581    5.6948    0.2620    0.0000    0.0035    0.0002
C         4.4009    5.0247    0.2573   -0.0034   -0.0022   -0.0002
C         6.0491   -1.6734    0.1498    0.0051    0.0084    0.0000
C         4.6854   -4.1862    0.1668    0.0047    0.0100   -0.0002
C         6.7557   -2.8811    0.2249   -0.0271    0.0000   -0.0011
C         6.0835   -4.1199    0.2324    0.0159   -0.0248    0.0015
H         6.5636   -0.7119    0.1505   -0.0573   -0.1041   -0.0001
H         4.1595   -5.1415    0.1810   -0.0632   -0.1182    0.0017
H         6.6636   -5.0424    0.2843   -0.1861    0.2951   -0.0170
H        -5.2165   -0.0595    0.1415    0.0899    0.1635   -0.0005
H        -2.8123    4.3701    0.1706    0.0997    0.1866    0.0029
H        -5.3164    4.2710    0.2739    0.2982   -0.4727   -0.0280
H        -6.4984    2.0935    0.2595   -0.5057   -0.0064    0.0214
H         0.3559   -6.2665    0.2241    0.0162   -0.0088    0.0003
H        -4.0801   -3.8731    0.2016    0.0168   -0.0089   -0.0003
H        -3.9765   -6.3769    0.3099   -0.0381   -0.0242    0.0021
H        -1.7960   -7.5547    0.3185   -0.0006    0.0399   -0.0020
H         0.9891    5.4946    0.2174   -0.0134    0.0073    0.0002
H         5.4267    3.1042    0.2032   -0.0146    0.0078   -0.0003
H         5.3215    5.6077    0.3106    0.0399    0.0254    0.0023
H         3.1404    6.7843    0.3129    0.0005   -0.0410   -0.0020
H         7.8456   -2.8649    0.2681    0.3207    0.0041    0.0128
    57
stable frequency at   3128.460 1/cm IR int. is 1.089 a.m.u.; force const. is 6.278 mDyne/Ang.
Fe        0.6742   -0.3860   -0.2512    0.0000    0.0000    0.0000
N         3.9155    0.5774    0.0034    0.0001   -0.0000    0.0000
N         1.6364   -3.6259    0.0222   -0.0001    0.0000   -0.0000
N        -0.2400   -2.0716   -0.0762   -0.0000   -0.0001    0.0000
N        -1.0127    0.5279   -0.0841    0.0000    0.0000   -0.0000
N         1.5882    1.2996   -0.0761   -0.0000   -0.0001   -0.0000
N         2.3604   -1.2995   -0.0741    0.0000    0.0000    0.0000
N        -0.2889    2.8541    0.0151   -0.0001    0.0000    0.0000
N        -2.5678   -1.3490   -0.0039    0.0001   -0.0000    0.0000
C        -2.6318    2.2074    0.0858    0.0000   -0.0000   -0.0000
C        -1.2138    1.9066   -0.0003   -0.0000   -0.0000   -0.0000
C         1.0023    2.5641    0.0125    0.0002    0.0000    0.0000
C         2.0253    3.5896    0.1094    0.0004    0.0005    0.0000
C        -3.3042    0.9681    0.0767   -0.0000   -0.0000    0.0000
C        -2.2782   -0.0563   -0.0113    0.0000   -0.0000    0.0000
C        -0.6084   -5.7574    0.2030    0.0255   -0.0148    0.0006
C        -3.1245   -4.3989    0.1900   -0.0241    0.0118    0.0003
C        -1.8131   -6.4652    0.2658   -0.0020    0.0339   -0.0016
C        -4.7020    0.9019    0.1386    0.0000    0.0002    0.0000
C        -3.3382    3.4149    0.1551    0.0007    0.0013    0.0000
C        -5.4086    2.1097    0.2138    0.0017    0.0000   -0.0001
C        -3.0555   -5.7944    0.2587    0.0263    0.0148   -0.0015
C        -1.6195   -2.2729    0.0041   -0.0001    0.0001   -0.0000
C        -1.9182   -3.6908    0.1037    0.0002    0.0006   -0.0000
C         3.2652    2.9200    0.1027    0.0001    0.0006    0.0000
C         2.9671    1.5014    0.0066   -0.0001    0.0001    0.0000
C        -4.7364    3.3486    0.2202    0.0003   -0.0007   -0.0000
C         3.6255   -0.7151   -0.0006    0.0000   -0.0000   -0.0000
C         4.6513   -1.7396    0.0908   -0.0000   -0.0000    0.0000
C         2.5611   -2.6780    0.0096   -0.0000   -0.0000    0.0000
C         3.9791   -2.9786    0.0994    0.0001   -0.0000    0.0000
C        -0.6787   -4.3610    0.1117    0.0004    0.0005   -0.0000
C         0.3451   -3.3358    0.0162    0.0002    0.0000   -0.0000
C         1.9538    4.9862    0.1974    0.0238   -0.0138   -0.0005
C         4.4707    3.6292    0.1907   -0.0216    0.0105   -0.0003
C         3.1581    5.6948    0.2620   -0.0019    0.0313    0.0014
C         4.4009    5.0247    0.2573    0.0237    0.0133    0.0014
C         6.0491   -1.6734    0.1498   -0.0002   -0.0003   -0.0000
C         4.6854   -4.1862    0.1668    0.0009    0.0018   -0.0000
C         6.7557   -2.8811    0.2249    0.0020    0.0001    0.0001
C         6.0835   -4.1199    0.2324    0.0004   -0.0009    0.0000
H         6.5636   -0.7119    0.1505    0.0022    0.0037    0.0000
H         4.1595   -5.1415    0.1810   -0.0108   -0.0201    0.0003
H         6.6636   -5.0424    0.2843   -0.0059    0.0098   -0.0005
H        -5.2165   -0.0595    0.1415   -0.0005   -0.0013   -0.0000
H        -2.8123    4.3701    0.1706   -0.0082   -0.0154   -0.0002
H        -5.3164    4.2710    0.2739   -0.0043    0.0071    0.0004
H        -6.4984    2.0935    0.2595   -0.0188   -0.0003    0.0008
H         0.3559   -6.2665    0.2241   -0.3061    0.1663   -0.0067
H        -4.0801   -3.8731    0.2016    0.2789   -0.1489   -0.0034
H        -3.9765   -6.3769    0.3099   -0.2941   -0.1839    0.0165
H        -1.7960   -7.5547    0.3185    0.0078   -0.3911    0.0191
H         0.9891    5.4946    0.2174   -0.2851    0.1546    0.0059
H         5.4267    3.1042    0.2032    0.2499   -0.1331    0.0033
H         5.3215    5.6077    0.3106   -0.2647   -0.1657   -0.0155
H         3.1404    6.7843    0.3129    0.0074   -0.3620   -0.0171
H         7.8456   -2.8649    0.2681   -0.0231   -0.0004   -0.0009
    57
stable frequency at   3128.689 1/cm IR int. is 1.089 a.m.u.; force const. is 6.278 mDyne/Ang.
Fe        0.6742   -0.3860   -0.2512    0.0000    0.0000    0.0000
N         3.9155    0.5774    0.0034   -0.0001    0.0000    0.0000
N         1.6364   -3.6259    0.0222   -0.0000    0.0000    0.0000
N        -0.2400   -2.0716   -0.0762   -0.0001   -0.0001    0.0000
N        -1.0127    0.5279   -0.0841    0.0000   -0.0000   -0.0000
N         1.5882    1.2996   -0.0761    0.0001    0.0001    0.0000
N         2.3604   -1.2995   -0.0741   -0.0000    0.0000   -0.0000
N        -0.2889    2.8541    0.0151    0.0001   -0.0000    0.0000
N        -2.5678   -1.3490   -0.0039    0.0000   -0.0000    0.0000
C        -2.6318    2.2074    0.0858   -0.0001    0.0000    0.0000
C        -1.2138    1.9066   -0.0003    0.0001    0.0000    0.0000
C         1.0023    2.5641    0.0125   -0.0002    0.0000   -0.0000
C         2.0253    3.5896    0.1094   -0.0005   -0.0006   -0.0000
C        -3.3042    0.9681    0.0767   -0.0000    0.0001    0.0000
C        -2.2782   -0.0563   -0.0113    0.0000   -0.0001    0.0000
C        -0.6084   -5.7574    0.2030    0.0236   -0.0137    0.0006
C        -3.1245   -4.3989    0.1900   -0.0224    0.0109    0.0003
C        -1.8131   -6.4652    0.2658   -0.0018    0.0301   -0.0014
C        -4.7020    0.9019    0.1386    0.0007    0.0011   -0.0000
C        -3.3382    3.4149    0.1551   -0.0006   -0.0012   -0.0000
C        -5.4086    2.1097    0.2138   -0.0017   -0.0001    0.0001
C        -3.0555   -5.7944    0.2587    0.0243    0.0138   -0.0014
C        -1.6195   -2.2729    0.0041   -0.0001    0.0001   -0.0000
C        -1.9182   -3.6908    0.1037    0.0002    0.0006   -0.0000
C         3.2652    2.9200    0.1027   -0.0002   -0.0007   -0.0000
C         2.9671    1.5014    0.0066    0.0001   -0.0001   -0.0000
C        -4.7364    3.3486    0.2202   -0.0007    0.0012    0.0001
C         3.6255   -0.7151   -0.0006   -0.0000    0.0001    0.0000
C         4.6513   -1.7396    0.0908    0.0000   -0.0001    0.0000
C         2.5611   -2.6780    0.0096   -0.0001   -0.0000    0.0000
C         3.9791   -2.9786    0.0994    0.0001   -0.0000    0.0000
C        -0.6787   -4.3610    0.1117    0.0004    0.0005   -0.0000
C         0.3451   -3.3358    0.0162    0.0001   -0.0000    0.0000
C         1.9538    4.9862    0.1974   -0.0262    0.0152    0.0006
C         4.4707    3.6292    0.1907    0.0239   -0.0115    0.0004
C         3.1581    5.6948    0.2620    0.0020   -0.0334   -0.0015
C         4.4009    5.0247    0.2573   -0.0263   -0.0149   -0.0016
C         6.0491   -1.6734    0.1498   -0.0006   -0.0010   -0.0000
C         4.6854   -4.1862    0.1668    0.0004    0.0008   -0.0000
C         6.7557   -2.8811    0.2249    0.0012    0.0001    0.0001
C         6.0835   -4.1199    0.2324    0.0006   -0.0010    0.0001
H         6.5636   -0.7119    0.1505    0.0063    0.0115    0.0000
H         4.1595   -5.1415    0.1810   -0.0050   -0.0093    0.0002
H         6.6636   -5.0424    0.2843   -0.0068    0.0109   -0.0005
H        -5.2165   -0.0595    0.1415   -0.0075   -0.0137    0.0001
H        -2.8123    4.3701    0.1706    0.0073    0.0135    0.0002
H        -5.3164    4.2710    0.2739    0.0087   -0.0140   -0.0008
H        -6.4984    2.0935    0.2595    0.0198    0.0004   -0.0008
H         0.3559   -6.2665    0.2241   -0.2831    0.1537   -0.0062
H        -4.0801   -3.8731    0.2016    0.2587   -0.1381   -0.0031
H        -3.9765   -6.3769    0.3099   -0.2726   -0.1705    0.0153
H        -1.7960   -7.5547    0.3185    0.0070   -0.3477    0.0170
H         0.9891    5.4946    0.2174    0.3138   -0.1700   -0.0064
H         5.4267    3.1042    0.2032   -0.2756    0.1469   -0.0036
H         5.3215    5.6077    0.3106    0.2949    0.1847    0.0172
H         3.1404    6.7843    0.3129   -0.0080    0.3857    0.0183
H         7.8456   -2.8649    0.2681   -0.0142   -0.0003   -0.0005
    57
stable frequency at   3129.226 1/cm IR int. is 1.089 a.m.u.; force const. is 6.283 mDyne/Ang.
Fe        0.6742   -0.3860   -0.2512    0.0000   -0.0000   -0.0000
N         3.9155    0.5774    0.0034    0.0000    0.0001    0.0000
N         1.6364   -3.6259    0.0222   -0.0000   -0.0001   -0.0000
N        -0.2400   -2.0716   -0.0762    0.0000   -0.0000    0.0000
N        -1.0127    0.5279   -0.0841   -0.0001    0.0000   -0.0000
N         1.5882    1.2996   -0.0761    0.0000   -0.0000   -0.0000
N         2.3604   -1.2995   -0.0741   -0.0001    0.0001   -0.0000
N        -0.2889    2.8541    0.0151   -0.0000   -0.0001   -0.0000
N        -2.5678   -1.3490   -0.0039    0.0000    0.0001   -0.0000
C        -2.6318    2.2074    0.0858    0.0004   -0.0001   -0.0000
C        -1.2138    1.9066   -0.0003    0.0001    0.0001   -0.0000
C         1.0023    2.5641    0.0125   -0.0000   -0.0000    0.0000
C         2.0253    3.5896    0.1094   -0.0000    0.0000    0.0000
C        -3.3042    0.9681    0.0767    0.0003   -0.0003   -0.0000
C        -2.2782   -0.0563   -0.0113    0.0000   -0.0001   -0.0000
C        -0.6084   -5.7574    0.2030   -0.0000    0.0001   -0.0000
C        -3.1245   -4.3989    0.1900    0.0018   -0.0009   -0.0000
C        -1.8131   -6.4652    0.2658    0.0000   -0.0021    0.0001
C        -4.7020    0.9019    0.1386   -0.0104   -0.0174    0.0001
C        -3.3382    3.4149    0.1551    0.0086    0.0177    0.0003
C        -5.4086    2.1097    0.2138    0.0278    0.0015   -0.0011
C        -3.0555   -5.7944    0.2587   -0.0009   -0.0004    0.0000
C        -1.6195   -2.2729    0.0041    0.0000    0.0000    0.0000
C        -1.9182   -3.6908    0.1037   -0.0000   -0.0000   -0.0000
C         3.2652    2.9200    0.1027   -0.0000   -0.0001   -0.0000
C         2.9671    1.5014    0.0066   -0.0000    0.0000   -0.0000
C        -4.7364    3.3486    0.2202    0.0114   -0.0205   -0.0012
C         3.6255   -0.7151   -0.0006    0.0000   -0.0002    0.0000
C         4.6513   -1.7396    0.0908    0.0005   -0.0005    0.0000
C         2.5611   -2.6780    0.0096    0.0001    0.0001    0.0000
C         3.9791   -2.9786    0.0994    0.0007   -0.0002    0.0000
C        -0.6787   -4.3610    0.1117   -0.0000    0.0000   -0.0000
C         0.3451   -3.3358    0.0162   -0.0000   -0.0000   -0.0000
C         1.9538    4.9862    0.1974    0.0001    0.0000    0.0000
C         4.4707    3.6292    0.1907    0.0017   -0.0008    0.0000
C         3.1581    5.6948    0.2620    0.0000   -0.0018   -0.0001
C         4.4009    5.0247    0.2573   -0.0006   -0.0003   -0.0000
C         6.0491   -1.6734    0.1498   -0.0155   -0.0260   -0.0001
C         4.6854   -4.1862    0.1668    0.0129    0.0266   -0.0004
C         6.7557   -2.8811    0.2249    0.0404    0.0022    0.0015
C         6.0835   -4.1199    0.2324    0.0168   -0.0301    0.0018
H         6.5636   -0.7119    0.1505    0.1728    0.3138    0.0001
H         4.1595   -5.1415    0.1810   -0.1638   -0.3066    0.0044
H         6.6636   -5.0424    0.2843   -0.2086    0.3359   -0.0192
H        -5.2165   -0.0595    0.1415    0.1160    0.2106   -0.0006
H        -2.8123    4.3701    0.1706   -0.1094   -0.2049   -0.0032
H        -5.3164    4.2710    0.2739   -0.1417    0.2282    0.0134
H        -6.4984    2.0935    0.2595   -0.3198   -0.0060    0.0135
H         0.3559   -6.2665    0.2241    0.0014   -0.0009    0.0001
H        -4.0801   -3.8731    0.2016   -0.0204    0.0109    0.0002
H        -3.9765   -6.3769    0.3099    0.0092    0.0057   -0.0005
H        -1.7960   -7.5547    0.3185   -0.0004    0.0238   -0.0012
H         0.9891    5.4946    0.2174   -0.0004    0.0001   -0.0000
H         5.4267    3.1042    0.2032   -0.0190    0.0102   -0.0002
H         5.3215    5.6077    0.3106    0.0064    0.0039    0.0003
H         3.1404    6.7843    0.3129   -0.0003    0.0206    0.0010
H         7.8456   -2.8649    0.2681   -0.4651   -0.0088   -0.0186
    57
stable frequency at   3129.405 1/cm IR int. is 1.089 a.m.u.; force const. is 6.284 mDyne/Ang.
Fe        0.6742   -0.3860   -0.2512   -0.0000    0.0000   -0.0000
N         3.9155    0.5774    0.0034    0.0000    0.0000   -0.0000
N         1.6364   -3.6259    0.0222   -0.0000   -0.0000   -0.0000
N        -0.2400   -2.0716   -0.0762   -0.0000   -0.0000    0.0000
N        -1.0127    0.5279   -0.0841    0.0001   -0.0001   -0.0000
N         1.5882    1.2996   -0.0761   -0.0000    0.0000    0.0000
N         2.3604   -1.2995   -0.0741   -0.0001    0.0000   -0.0000
N        -0.2889    2.8541    0.0151    0.0000    0.0001   -0.0000
N        -2.5678   -1.3490   -0.0039   -0.0000   -0.0000   -0.0000
C        -2.6318    2.2074    0.0858   -0.0007    0.0002    0.0000
C        -1.2138    1.9066   -0.0003   -0.0001   -0.0001    0.0000
C         1.0023    2.5641    0.0125    0.0001    0.0000   -0.0000
C         2.0253    3.5896    0.1094   -0.0000   -0.0000   -0.0000
C        -3.3042    0.9681    0.0767   -0.0005    0.0005    0.0000
C        -2.2782   -0.0563   -0.0113    0.0000    0.0002    0.0000
C        -0.6084   -5.7574    0.2030   -0.0012    0.0007   -0.0000
C        -3.1245   -4.3989    0.1900    0.0009   -0.0004   -0.0000
C        -1.8131   -6.4652    0.2658    0.0001   -0.0011    0.0001
C        -4.7020    0.9019    0.1386    0.0157    0.0263   -0.0001
C        -3.3382    3.4149    0.1551   -0.0126   -0.0262   -0.0005
C        -5.4086    2.1097    0.2138   -0.0398   -0.0022    0.0016
C        -3.0555   -5.7944    0.2587   -0.0011   -0.0006    0.0001
C        -1.6195   -2.2729    0.0041    0.0000   -0.0001   -0.0000
C        -1.9182   -3.6908    0.1037   -0.0000    0.0000   -0.0000
C         3.2652    2.9200    0.1027    0.0000   -0.0000   -0.0000
C         2.9671    1.5014    0.0066   -0.0000    0.0001   -0.0000
C        -4.7364    3.3486    0.2202   -0.0173    0.0308    0.0018
C         3.6255   -0.7151   -0.0006   -0.0000   -0.0001    0.0000
C         4.6513   -1.7396    0.0908    0.0004   -0.0004    0.0000
C         2.5611   -2.6780    0.0096    0.0001    0.0001   -0.0000
C         3.9791   -2.9786    0.0994    0.0005   -0.0001    0.0000
C        -0.6787   -4.3610    0.1117    0.0000   -0.0000   -0.0000
C         0.3451   -3.3358    0.0162   -0.0001   -0.0000   -0.0000
C         1.9538    4.9862    0.1974    0.0010   -0.0006   -0.0000
C         4.4707    3.6292    0.1907   -0.0013    0.0007   -0.0000
C         3.1581    5.6948    0.2620   -0.0001    0.0016    0.0001
C         4.4009    5.0247    0.2573    0.0011    0.0006    0.0001
C         6.0491   -1.6734    0.1498   -0.0108   -0.0181   -0.0000
C         4.6854   -4.1862    0.1668    0.0087    0.0181   -0.0003
C         6.7557   -2.8811    0.2249    0.0266    0.0015    0.0010
C         6.0835   -4.1199    0.2324    0.0117   -0.0208    0.0012
H         6.5636   -0.7119    0.1505    0.1198    0.2178    0.0001
H         4.1595   -5.1415    0.1810   -0.1118   -0.2091    0.0030
H         6.6636   -5.0424    0.2843   -0.1447    0.2328   -0.0134
H        -5.2165   -0.0595    0.1415   -0.1747   -0.3174    0.0008
H        -2.8123    4.3701    0.1706    0.1614    0.3023    0.0048
H        -5.3164    4.2710    0.2739    0.2138   -0.3440   -0.0202
H        -6.4984    2.0935    0.2595    0.4574    0.0087   -0.0193
H         0.3559   -6.2665    0.2241    0.0145   -0.0079    0.0003
H        -4.0801   -3.8731    0.2016   -0.0102    0.0054    0.0001
H        -3.9765   -6.3769    0.3099    0.0125    0.0078   -0.0007
H        -1.7960   -7.5547    0.3185   -0.0003    0.0132   -0.0007
H         0.9891    5.4946    0.2174   -0.0121    0.0066    0.0002
H         5.4267    3.1042    0.2032    0.0151   -0.0080    0.0002
H         5.3215    5.6077    0.3106   -0.0124   -0.0077   -0.0007
H         3.1404    6.7843    0.3129    0.0004   -0.0180   -0.0009
H         7.8456   -2.8649    0.2681   -0.3055   -0.0059   -0.0122
    57
stable frequency at   3137.718 1/cm IR int. is 1.093 a.m.u.; force const. is 6.340 mDyne/Ang.
Fe        0.6742   -0.3860   -0.2512   -0.0000    0.0000   -0.0000
N         3.9155    0.5774    0.0034    0.0001   -0.0000    0.0000
N         1.6364   -3.6259    0.0222    0.0001   -0.0001    0.0000
N        -0.2400   -2.0716   -0.0762   -0.0000    0.0000    0.0000
N        -1.0127    0.5279   -0.0841    0.0000    0.0000   -0.0000
N         1.5882    1.2996   -0.0761   -0.0000    0.0000   -0.0000
N         2.3604   -1.2995   -0.0741    0.0000    0.0000    0.0000
N        -0.2889    2.8541    0.0151    0.0001   -0.0000   -0.0000
N        -2.5678   -1.3490   -0.0039    0.0001   -0.0000   -0.0000
C        -2.6318    2.2074    0.0858    0.0000    0.0000   -0.0000
C        -1.2138    1.9066   -0.0003    0.0000    0.0000    0.0000
C         1.0023    2.5641    0.0125   -0.0003    0.0001   -0.0000
C         2.0253    3.5896    0.1094    0.0001   -0.0014   -0.0001
C        -3.3042    0.9681    0.0767    0.0000    0.0000   -0.0000
C        -2.2782   -0.0563   -0.0113   -0.0000   -0.0001    0.0000
C        -0.6084   -5.7574    0.2030   -0.0377    0.0195   -0.0007
C        -3.1245   -4.3989    0.1900   -0.0380    0.0209    0.0004
C        -1.8131   -6.4652    0.2658    0.0020    0.0183   -0.0009
C        -4.7020    0.9019    0.1386   -0.0008   -0.0014    0.0000
C        -3.3382    3.4149    0.1551    0.0003    0.0007    0.0000
C        -5.4086    2.1097    0.2138   -0.0002    0.0001    0.0000
C        -3.0555   -5.7944    0.2587   -0.0135   -0.0112    0.0010
C        -1.6195   -2.2729    0.0041   -0.0003    0.0003   -0.0000
C        -1.9182   -3.6908    0.1037    0.0015    0.0009   -0.0001
C         3.2652    2.9200    0.1027    0.0012    0.0007    0.0001
C         2.9671    1.5014    0.0066   -0.0002    0.0002    0.0000
C        -4.7364    3.3486    0.2202    0.0007   -0.0011   -0.0001
C         3.6255   -0.7151   -0.0006   -0.0000   -0.0000   -0.0000
C         4.6513   -1.7396    0.0908    0.0001   -0.0000    0.0000
C         2.5611   -2.6780    0.0096    0.0000    0.0000   -0.0000
C         3.9791   -2.9786    0.0994    0.0000    0.0000   -0.0000
C        -0.6787   -4.3610    0.1117    0.0001   -0.0017    0.0001
C         0.3451   -3.3358    0.0162   -0.0003    0.0001    0.0000
C         1.9538    4.9862    0.1974   -0.0296    0.0153    0.0005
C         4.4707    3.6292    0.1907   -0.0306    0.0168   -0.0004
C         3.1581    5.6948    0.2620    0.0015    0.0144    0.0007
C         4.4009    5.0247    0.2573   -0.0106   -0.0089   -0.0008
C         6.0491   -1.6734    0.1498   -0.0010   -0.0018    0.0000
C         4.6854   -4.1862    0.1668    0.0003    0.0007   -0.0000
C         6.7557   -2.8811    0.2249   -0.0005    0.0001   -0.0000
C         6.0835   -4.1199    0.2324    0.0006   -0.0010    0.0001
H         6.5636   -0.7119    0.1505    0.0114    0.0211   -0.0000
H         4.1595   -5.1415    0.1810   -0.0043   -0.0080    0.0001
H         6.6636   -5.0424    0.2843   -0.0074    0.0117   -0.0006
H        -5.2165   -0.0595    0.1415    0.0088    0.0163   -0.0000
H        -2.8123    4.3701    0.1706   -0.0043   -0.0080   -0.0001
H        -5.3164    4.2710    0.2739   -0.0080    0.0127    0.0007
H        -6.4984    2.0935    0.2595    0.0022   -0.0000   -0.0001
H         0.3559   -6.2665    0.2241    0.4256   -0.2280    0.0091
H        -4.0801   -3.8731    0.2016    0.4332   -0.2341   -0.0050
H        -3.9765   -6.3769    0.3099    0.1633    0.1063   -0.0095
H        -1.7960   -7.5547    0.3185    0.0008   -0.2042    0.0101
H         0.9891    5.4946    0.2174    0.3342   -0.1787   -0.0067
H         5.4267    3.1042    0.2032    0.3489   -0.1881    0.0044
H         5.3215    5.6077    0.3106    0.1291    0.0842    0.0078
H         3.1404    6.7843    0.3129    0.0007   -0.1613   -0.0077
H         7.8456   -2.8649    0.2681    0.0058    0.0000    0.0002
    57
stable frequency at   3137.980 1/cm IR int. is 1.093 a.m.u.; force const. is 6.341 mDyne/Ang.
Fe        0.6742   -0.3860   -0.2512   -0.0000    0.0000    0.0000
N         3.9155    0.5774    0.0034    0.0001   -0.0001    0.0000
N         1.6364   -3.6259    0.0222   -0.0001    0.0000    0.0000
N        -0.2400   -2.0716   -0.0762    0.0000   -0.0000    0.0000
N        -1.0127    0.5279   -0.0841   -0.0000   -0.0000    0.0000
N         1.5882    1.2996   -0.0761   -0.0000   -0.0000    0.0000
N         2.3604   -1.2995   -0.0741    0.0000    0.0000    0.0000
N        -0.2889    2.8541    0.0151    0.0001   -0.0001    0.0000
N        -2.5678   -1.3490   -0.0039   -0.0001    0.0001    0.0000
C        -2.6318    2.2074    0.0858   -0.0000    0.0001    0.0000
C        -1.2138    1.9066   -0.0003    0.0000    0.0000    0.0000
C         1.0023    2.5641    0.0125   -0.0003    0.0001    0.0000
C         2.0253    3.5896    0.1094    0.0001   -0.0017   -0.0001
C        -3.3042    0.9681    0.0767    0.0001   -0.0000    0.0000
C        -2.2782   -0.0563   -0.0113    0.0000    0.0000    0.0000
C        -0.6084   -5.7574    0.2030    0.0288   -0.0149    0.0006
C        -3.1245   -4.3989    0.1900    0.0312   -0.0172   -0.0003
C        -1.8131   -6.4652    0.2658   -0.0016   -0.0136    0.0007
C        -4.7020    0.9019    0.1386   -0.0010   -0.0019    0.0000
C        -3.3382    3.4149    0.1551   -0.0008   -0.0015   -0.0000
C        -5.4086    2.1097    0.2138   -0.0008    0.0001    0.0000
C        -3.0555   -5.7944    0.2587    0.0113    0.0093   -0.0008
C        -1.6195   -2.2729    0.0041    0.0002   -0.0002    0.0000
C        -1.9182   -3.6908    0.1037   -0.0012   -0.0007    0.0001
C         3.2652    2.9200    0.1027    0.0015    0.0009    0.0001
C         2.9671    1.5014    0.0066   -0.0003    0.0002    0.0000
C        -4.7364    3.3486    0.2202    0.0006   -0.0007   -0.0000
C         3.6255   -0.7151   -0.0006   -0.0000   -0.0000    0.0000
C         4.6513   -1.7396    0.0908   -0.0001   -0.0000   -0.0000
C         2.5611   -2.6780    0.0096   -0.0000   -0.0000    0.0000
C         3.9791   -2.9786    0.0994    0.0000   -0.0001    0.0000
C        -0.6787   -4.3610    0.1117   -0.0001    0.0013   -0.0001
C         0.3451   -3.3358    0.0162    0.0002   -0.0001    0.0000
C         1.9538    4.9862    0.1974   -0.0361    0.0187    0.0007
C         4.4707    3.6292    0.1907   -0.0395    0.0217   -0.0005
C         3.1581    5.6948    0.2620    0.0020    0.0173    0.0009
C         4.4009    5.0247    0.2573   -0.0140   -0.0115   -0.0010
C         6.0491   -1.6734    0.1498    0.0009    0.0016    0.0000
C         4.6854   -4.1862    0.1668    0.0011    0.0019   -0.0000
C         6.7557   -2.8811    0.2249    0.0008   -0.0001    0.0000
C         6.0835   -4.1199    0.2324   -0.0005    0.0006   -0.0000
H         6.5636   -0.7119    0.1505   -0.0100   -0.0184    0.0000
H         4.1595   -5.1415    0.1810   -0.0120   -0.0220    0.0004
H         6.6636   -5.0424    0.2843    0.0044   -0.0069    0.0005
H        -5.2165   -0.0595    0.1415    0.0115    0.0211   -0.0000
H        -2.8123    4.3701    0.1706    0.0094    0.0172    0.0003
H        -5.3164    4.2710    0.2739   -0.0054    0.0084    0.0005
H        -6.4984    2.0935    0.2595    0.0085    0.0000   -0.0003
H         0.3559   -6.2665    0.2241   -0.3253    0.1745   -0.0069
H        -4.0801   -3.8731    0.2016   -0.3566    0.1929    0.0042
H        -3.9765   -6.3769    0.3099   -0.1368   -0.0889    0.0079
H        -1.7960   -7.5547    0.3185   -0.0004    0.1520   -0.0075
H         0.9891    5.4946    0.2174    0.4080   -0.2183   -0.0081
H         5.4267    3.1042    0.2032    0.4510   -0.2435    0.0058
H         5.3215    5.6077    0.3106    0.1686    0.1098    0.0101
H         3.1404    6.7843    0.3129    0.0007   -0.1936   -0.0092
H         7.8456   -2.8649    0.2681   -0.0084   -0.0000   -0.0003
    57
stable frequency at   3138.993 1/cm IR int. is 1.093 a.m.u.; force const. is 6.345 mDyne/Ang.
Fe        0.6742   -0.3860   -0.2512    0.0000    0.0000    0.0000
N         3.9155    0.5774    0.0034   -0.0001   -0.0001   -0.0000
N         1.6364   -3.6259    0.0222   -0.0001   -0.0002    0.0000
N        -0.2400   -2.0716   -0.0762    0.0000   -0.0000    0.0000
N        -1.0127    0.5279   -0.0841    0.0000    0.0000    0.0000
N         1.5882    1.2996   -0.0761   -0.0000   -0.0000   -0.0000
N         2.3604   -1.2995   -0.0741   -0.0000    0.0000   -0.0000
N        -0.2889    2.8541    0.0151   -0.0000   -0.0000    0.0000
N        -2.5678   -1.3490   -0.0039   -0.0000   -0.0000    0.0000
C        -2.6318    2.2074    0.0858    0.0003   -0.0006   -0.0000
C        -1.2138    1.9066   -0.0003    0.0001    0.0001   -0.0000
C         1.0023    2.5641    0.0125   -0.0000    0.0000    0.0000
C         2.0253    3.5896    0.1094   -0.0000   -0.0000    0.0000
C        -3.3042    0.9681    0.0767   -0.0007   -0.0000    0.0000
C        -2.2782   -0.0563   -0.0113    0.0000    0.0001    0.0000
C        -0.6084   -5.7574    0.2030   -0.0023    0.0012   -0.0000
C        -3.1245   -4.3989    0.1900   -0.0002    0.0001    0.0000
C        -1.8131   -6.4652    0.2658    0.0001    0.0011   -0.0001
C        -4.7020    0.9019    0.1386    0.0077    0.0147   -0.0000
C        -3.3382    3.4149    0.1551    0.0079    0.0144    0.0002
C        -5.4086    2.1097    0.2138    0.0058   -0.0008   -0.0003
C        -3.0555   -5.7944    0.2587   -0.0007   -0.0005    0.0000
C        -1.6195   -2.2729    0.0041    0.0000   -0.0000    0.0000
C        -1.9182   -3.6908    0.1037    0.0000    0.0000    0.0000
C         3.2652    2.9200    0.1027   -0.0000   -0.0000   -0.0000
C         2.9671    1.5014    0.0066    0.0000   -0.0000    0.0000
C        -4.7364    3.3486    0.2202   -0.0042    0.0052    0.0004
C         3.6255   -0.7151   -0.0006    0.0001    0.0004   -0.0000
C         4.6513   -1.7396    0.0908   -0.0020   -0.0002   -0.0001
C         2.5611   -2.6780    0.0096    0.0003    0.0003    0.0000
C         3.9791   -2.9786    0.0994    0.0012   -0.0020    0.0001
C        -0.6787   -4.3610    0.1117    0.0000   -0.0001    0.0000
C         0.3451   -3.3358    0.0162   -0.0001    0.0000    0.0000
C         1.9538    4.9862    0.1974   -0.0003    0.0002    0.0000
C         4.4707    3.6292    0.1907    0.0014   -0.0007    0.0000
C         3.1581    5.6948    0.2620    0.0000   -0.0000   -0.0000
C         4.4009    5.0247    0.2573   -0.0005   -0.0002   -0.0000
C         6.0491   -1.6734    0.1498    0.0232    0.0438   -0.0001
C         4.6854   -4.1862    0.1668    0.0269    0.0489   -0.0006
C         6.7557   -2.8811    0.2249    0.0167   -0.0025    0.0008
C         6.0835   -4.1199    0.2324   -0.0147    0.0184   -0.0013
H         6.5636   -0.7119    0.1505   -0.2697   -0.4967   -0.0000
H         4.1595   -5.1415    0.1810   -0.3021   -0.5580    0.0078
H         6.6636   -5.0424    0.2843    0.1421   -0.2206    0.0129
H        -5.2165   -0.0595    0.1415   -0.0900   -0.1659    0.0004
H        -2.8123    4.3701    0.1706   -0.0889   -0.1644   -0.0025
H        -5.3164    4.2710    0.2739    0.0404   -0.0626   -0.0038
H        -6.4984    2.0935    0.2595   -0.0644   -0.0001    0.0028
H         0.3559   -6.2665    0.2241    0.0266   -0.0143    0.0006
H        -4.0801   -3.8731    0.2016    0.0018   -0.0010   -0.0000
H        -3.9765   -6.3769    0.3099    0.0093    0.0059   -0.0004
H        -1.7960   -7.5547    0.3185    0.0001   -0.0125    0.0006
H         0.9891    5.4946    0.2174    0.0039   -0.0021   -0.0001
H         5.4267    3.1042    0.2032   -0.0164    0.0088   -0.0002
H         5.3215    5.6077    0.3106    0.0054    0.0033    0.0003
H         3.1404    6.7843    0.3129    0.0000    0.0004    0.0001
H         7.8456   -2.8649    0.2681   -0.1865    0.0001   -0.0076
    57
stable frequency at   3139.205 1/cm IR int. is 1.093 a.m.u.; force const. is 6.346 mDyne/Ang.
Fe        0.6742   -0.3860   -0.2512   -0.0000   -0.0000    0.0000
N         3.9155    0.5774    0.0034   -0.0000   -0.0000    0.0000
N         1.6364   -3.6259    0.0222   -0.0000   -0.0000    0.0000
N        -0.2400   -2.0716   -0.0762    0.0000   -0.0000   -0.0000
N        -1.0127    0.5279   -0.0841    0.0000   -0.0000   -0.0000
N         1.5882    1.2996   -0.0761   -0.0000    0.0000    0.0000
N         2.3604   -1.2995   -0.0741   -0.0000    0.0000   -0.0000
N        -0.2889    2.8541    0.0151    0.0001    0.0002    0.0000
N        -2.5678   -1.3490   -0.0039    0.0001    0.0001   -0.0000
C        -2.6318    2.2074    0.0858   -0.0012    0.0020    0.0001
C        -1.2138    1.9066   -0.0003   -0.0003   -0.0003    0.0000
C         1.0023    2.5641    0.0125    0.0001   -0.0000   -0.0000
C         2.0253    3.5896    0.1094   -0.0000    0.0001    0.0000
C        -3.3042    0.9681    0.0767    0.0020    0.0002   -0.0001
C        -2.2782   -0.0563   -0.0113   -0.0001   -0.0004   -0.0000
C        -0.6084   -5.7574    0.2030   -0.0008    0.0004   -0.0000
C        -3.1245   -4.3989    0.1900   -0.0016    0.0009    0.0000
C        -1.8131   -6.4652    0.2658    0.0000    0.0005   -0.0000
C        -4.7020    0.9019    0.1386   -0.0229   -0.0434    0.0000
C        -3.3382    3.4149    0.1551   -0.0272   -0.0495   -0.0007
C        -5.4086    2.1097    0.2138   -0.0167    0.0024    0.0008
C        -3.0555   -5.7944    0.2587   -0.0000   -0.0001    0.0000
C        -1.6195   -2.2729    0.0041   -0.0001    0.0000    0.0000
C        -1.9182   -3.6908    0.1037    0.0001    0.0000   -0.0000
C         3.2652    2.9200    0.1027   -0.0001   -0.0000   -0.0000
C         2.9671    1.5014    0.0066    0.0000   -0.0000    0.0000
C        -4.7364    3.3486    0.2202    0.0145   -0.0181   -0.0013
C         3.6255   -0.7151   -0.0006    0.0000    0.0001    0.0000
C         4.6513   -1.7396    0.0908   -0.0006   -0.0001   -0.0000
C         2.5611   -2.6780    0.0096    0.0001    0.0001    0.0000
C         3.9791   -2.9786    0.0994    0.0004   -0.0006    0.0000
C        -0.6787   -4.3610    0.1117    0.0000   -0.0000    0.0000
C         0.3451   -3.3358    0.0162   -0.0000    0.0000    0.0000
C         1.9538    4.9862    0.1974    0.0024   -0.0012   -0.0000
C         4.4707    3.6292    0.1907    0.0012   -0.0007    0.0000
C         3.1581    5.6948    0.2620   -0.0001   -0.0012   -0.0001
C         4.4009    5.0247    0.2573    0.0007    0.0006    0.0001
C         6.0491   -1.6734    0.1498    0.0066    0.0124   -0.0000
C         4.6854   -4.1862    0.1668    0.0089    0.0162   -0.0002
C         6.7557   -2.8811    0.2249    0.0046   -0.0008    0.0002
C         6.0835   -4.1199    0.2324   -0.0049    0.0062   -0.0004
H         6.5636   -0.7119    0.1505   -0.0765   -0.1407    0.0000
H         4.1595   -5.1415    0.1810   -0.1000   -0.1844    0.0026
H         6.6636   -5.0424    0.2843    0.0471   -0.0733    0.0043
H        -5.2165   -0.0595    0.1415    0.2668    0.4913   -0.0011
H        -2.8123    4.3701    0.1706    0.3056    0.5642    0.0087
H        -5.3164    4.2710    0.2739   -0.1398    0.2168    0.0130
H        -6.4984    2.0935    0.2595    0.1868   -0.0001   -0.0080
H         0.3559   -6.2665    0.2241    0.0089   -0.0048    0.0002
H        -4.0801   -3.8731    0.2016    0.0182   -0.0098   -0.0002
H        -3.9765   -6.3769    0.3099    0.0003    0.0003   -0.0000
H        -1.7960   -7.5547    0.3185    0.0000   -0.0052    0.0003
H         0.9891    5.4946    0.2174   -0.0271    0.0145    0.0006
H         5.4267    3.1042    0.2032   -0.0138    0.0074   -0.0001
H         5.3215    5.6077    0.3106   -0.0091   -0.0059   -0.0005
H         3.1404    6.7843    0.3129   -0.0001    0.0130    0.0006
H         7.8456   -2.8649    0.2681   -0.0517    0.0002   -0.0021
    57
stable frequency at   3142.729 1/cm IR int. is 1.096 a.m.u.; force const. is 6.378 mDyne/Ang.
Fe        0.6742   -0.3860   -0.2512   -0.0000   -0.0000   -0.0000
N         3.9155    0.5774    0.0034   -0.0000    0.0001    0.0000
N         1.6364   -3.6259    0.0222    0.0001   -0.0000   -0.0000
N        -0.2400   -2.0716   -0.0762    0.0002    0.0003   -0.0000
N        -1.0127    0.5279   -0.0841   -0.0000   -0.0000    0.0000
N         1.5882    1.2996   -0.0761    0.0001    0.0001    0.0000
N         2.3604   -1.2995   -0.0741   -0.0000   -0.0000    0.0000
N        -0.2889    2.8541    0.0151    0.0001   -0.0000    0.0000
N        -2.5678   -1.3490   -0.0039   -0.0001    0.0001   -0.0000
C        -2.6318    2.2074    0.0858    0.0000    0.0000    0.0000
C        -1.2138    1.9066   -0.0003    0.0000    0.0000    0.0000
C         1.0023    2.5641    0.0125   -0.0002   -0.0000   -0.0000
C         2.0253    3.5896    0.1094   -0.0002   -0.0007   -0.0000
C        -3.3042    0.9681    0.0767    0.0001   -0.0000   -0.0000
C        -2.2782   -0.0563   -0.0113    0.0000    0.0000   -0.0000
C        -0.6084   -5.7574    0.2030   -0.0358    0.0177   -0.0006
C        -3.1245   -4.3989    0.1900    0.0346   -0.0198   -0.0003
C        -1.8131   -6.4652    0.2658   -0.0005    0.0377   -0.0018
C        -4.7020    0.9019    0.1386   -0.0006   -0.0011    0.0000
C        -3.3382    3.4149    0.1551   -0.0001   -0.0002   -0.0000
C        -5.4086    2.1097    0.2138   -0.0005    0.0000    0.0000
C        -3.0555   -5.7944    0.2587    0.0300    0.0190   -0.0018
C        -1.6195   -2.2729    0.0041    0.0001   -0.0003    0.0000
C        -1.9182   -3.6908    0.1037   -0.0009   -0.0012    0.0001
C         3.2652    2.9200    0.1027   -0.0005   -0.0006   -0.0001
C         2.9671    1.5014    0.0066    0.0001   -0.0001   -0.0000
C        -4.7364    3.3486    0.2202    0.0001   -0.0001   -0.0000
C         3.6255   -0.7151   -0.0006    0.0000    0.0000    0.0000
C         4.6513   -1.7396    0.0908    0.0000    0.0000    0.0000
C         2.5611   -2.6780    0.0096    0.0000    0.0000   -0.0000
C         3.9791   -2.9786    0.0994   -0.0000    0.0000   -0.0000
C        -0.6787   -4.3610    0.1117   -0.0005   -0.0014    0.0001
C         0.3451   -3.3358    0.0162   -0.0003   -0.0000    0.0000
C         1.9538    4.9862    0.1974   -0.0172    0.0085    0.0003
C         4.4707    3.6292    0.1907    0.0177   -0.0101    0.0002
C         3.1581    5.6948    0.2620   -0.0002    0.0184    0.0009
C         4.4009    5.0247    0.2573    0.0145    0.0092    0.0009
C         6.0491   -1.6734    0.1498   -0.0005   -0.0010    0.0000
C         4.6854   -4.1862    0.1668   -0.0003   -0.0006    0.0000
C         6.7557   -2.8811    0.2249   -0.0002    0.0001   -0.0000
C         6.0835   -4.1199    0.2324    0.0002   -0.0003    0.0000
H         6.5636   -0.7119    0.1505    0.0061    0.0112    0.0000
H         4.1595   -5.1415    0.1810    0.0038    0.0071   -0.0001
H         6.6636   -5.0424    0.2843   -0.0025    0.0038   -0.0001
H        -5.2165   -0.0595    0.1415    0.0066    0.0120   -0.0000
H        -2.8123    4.3701    0.1706    0.0011    0.0020    0.0001
H        -5.3164    4.2710    0.2739   -0.0010    0.0015    0.0001
H        -6.4984    2.0935    0.2595    0.0052    0.0000   -0.0002
H         0.3559   -6.2665    0.2241    0.3960   -0.2111    0.0084
H        -4.0801   -3.8731    0.2016   -0.3933    0.2140    0.0045
H        -3.9765   -6.3769    0.3099   -0.3309   -0.2087    0.0187
H        -1.7960   -7.5547    0.3185    0.0068   -0.4155    0.0203
H         0.9891    5.4946    0.2174    0.1907   -0.1015   -0.0038
H         5.4267    3.1042    0.2032   -0.2015    0.1094   -0.0025
H         5.3215    5.6077    0.3106   -0.1600   -0.1010   -0.0094
H         3.1404    6.7843    0.3129    0.0034   -0.2022   -0.0096
H         7.8456   -2.8649    0.2681    0.0027   -0.0000    0.0001
    57
stable frequency at   3142.897 1/cm IR int. is 1.096 a.m.u.; force const. is 6.379 mDyne/Ang.
Fe        0.6742   -0.3860   -0.2512    0.0000    0.0000   -0.0000
N         3.9155    0.5774    0.0034    0.0001   -0.0001   -0.0000
N         1.6364   -3.6259    0.0222    0.0001   -0.0000    0.0000
N        -0.2400   -2.0716   -0.0762    0.0001    0.0001   -0.0000
N        -1.0127    0.5279   -0.0841   -0.0000    0.0000    0.0000
N         1.5882    1.2996   -0.0761   -0.0001   -0.0003   -0.0000
N         2.3604   -1.2995   -0.0741    0.0001   -0.0000    0.0000
N        -0.2889    2.8541    0.0151   -0.0002    0.0000   -0.0000
N        -2.5678   -1.3490   -0.0039   -0.0001    0.0001   -0.0000
C        -2.6318    2.2074    0.0858    0.0001   -0.0001   -0.0000
C        -1.2138    1.9066   -0.0003   -0.0000   -0.0000   -0.0000
C         1.0023    2.5641    0.0125    0.0003    0.0000    0.0000
C         2.0253    3.5896    0.1094    0.0005    0.0015    0.0001
C        -3.3042    0.9681    0.0767    0.0001   -0.0001   -0.0000
C        -2.2782   -0.0563   -0.0113    0.0000   -0.0000   -0.0000
C        -0.6084   -5.7574    0.2030   -0.0182    0.0090   -0.0003
C        -3.1245   -4.3989    0.1900    0.0157   -0.0091   -0.0001
C        -1.8131   -6.4652    0.2658   -0.0002    0.0187   -0.0009
C        -4.7020    0.9019    0.1386   -0.0012   -0.0024    0.0000
C        -3.3382    3.4149    0.1551    0.0014    0.0025    0.0000
C        -5.4086    2.1097    0.2138   -0.0023   -0.0001    0.0001
C        -3.0555   -5.7944    0.2587    0.0146    0.0092   -0.0009
C        -1.6195   -2.2729    0.0041    0.0001   -0.0001    0.0000
C        -1.9182   -3.6908    0.1037   -0.0004   -0.0006    0.0001
C         3.2652    2.9200    0.1027    0.0009    0.0012    0.0001
C         2.9671    1.5014    0.0066   -0.0001    0.0003    0.0000
C        -4.7364    3.3486    0.2202   -0.0012    0.0019    0.0001
C         3.6255   -0.7151   -0.0006   -0.0000    0.0000   -0.0000
C         4.6513   -1.7396    0.0908   -0.0003    0.0001   -0.0000
C         2.5611   -2.6780    0.0096   -0.0000   -0.0000   -0.0000
C         3.9791   -2.9786    0.0994   -0.0002    0.0001   -0.0000
C        -0.6787   -4.3610    0.1117   -0.0002   -0.0007    0.0001
C         0.3451   -3.3358    0.0162   -0.0002   -0.0000    0.0000
C         1.9538    4.9862    0.1974    0.0365   -0.0180   -0.0006
C         4.4707    3.6292    0.1907   -0.0329    0.0189   -0.0003
C         3.1581    5.6948    0.2620    0.0004   -0.0382   -0.0018
C         4.4009    5.0247    0.2573   -0.0292   -0.0184   -0.0018
C         6.0491   -1.6734    0.1498    0.0031    0.0061   -0.0000
C         4.6854   -4.1862    0.1668   -0.0028   -0.0051    0.0001
C         6.7557   -2.8811    0.2249    0.0056    0.0001    0.0002
C         6.0835   -4.1199    0.2324    0.0025   -0.0041    0.0003
H         6.5636   -0.7119    0.1505   -0.0366   -0.0678    0.0000
H         4.1595   -5.1415    0.1810    0.0311    0.0572   -0.0008
H         6.6636   -5.0424    0.2843   -0.0278    0.0445   -0.0023
H        -5.2165   -0.0595    0.1415    0.0144    0.0266   -0.0000
H        -2.8123    4.3701    0.1706   -0.0152   -0.0279   -0.0003
H        -5.3164    4.2710    0.2739    0.0132   -0.0209   -0.0012
H        -6.4984    2.0935    0.2595    0.0256    0.0004   -0.0011
H         0.3559   -6.2665    0.2241    0.2015   -0.1074    0.0043
H        -4.0801   -3.8731    0.2016   -0.1786    0.0972    0.0021
H        -3.9765   -6.3769    0.3099   -0.1609   -0.1014    0.0091
H        -1.7960   -7.5547    0.3185    0.0034   -0.2058    0.0101
H         0.9891    5.4946    0.2174   -0.4035    0.2147    0.0080
H         5.4267    3.1042    0.2032    0.3747   -0.2035    0.0047
H         5.3215    5.6077    0.3106    0.3211    0.2027    0.0188
H         3.1404    6.7843    0.3129   -0.0071    0.4207    0.0200
H         7.8456   -2.8649    0.2681   -0.0620   -0.0009   -0.0025
    57
stable frequency at   3143.525 1/cm IR int. is 1.096 a.m.u.; force const. is 6.380 mDyne/Ang.
Fe        0.6742   -0.3860   -0.2512   -0.0000    0.0000   -0.0000
N         3.9155    0.5774    0.0034   -0.0000   -0.0001    0.0000
N         1.6364   -3.6259    0.0222    0.0001    0.0001    0.0000
N        -0.2400   -2.0716   -0.0762   -0.0000    0.0000    0.0000
N        -1.0127    0.5279   -0.0841    0.0002   -0.0001   -0.0000
N         1.5882    1.2996   -0.0761   -0.0000    0.0000    0.0000
N         2.3604   -1.2995   -0.0741    0.0002   -0.0001    0.0000
N        -0.2889    2.8541    0.0151    0.0001    0.0001   -0.0000
N        -2.5678   -1.3490   -0.0039   -0.0000   -0.0001   -0.0000
C        -2.6318    2.2074    0.0858   -0.0009    0.0007    0.0001
C        -1.2138    1.9066   -0.0003   -0.0002   -0.0001    0.0000
C         1.0023    2.5641    0.0125    0.0000   -0.0000   -0.0000
C         2.0253    3.5896    0.1094   -0.0000   -0.0001   -0.0000
C        -3.3042    0.9681    0.0767   -0.0012    0.0004    0.0001
C        -2.2782   -0.0563   -0.0113   -0.0000    0.0003    0.0000
C        -0.6084   -5.7574    0.2030    0.0001    0.0000   -0.0000
C        -3.1245   -4.3989    0.1900   -0.0012    0.0007    0.0000
C        -1.8131   -6.4652    0.2658    0.0001   -0.0006    0.0000
C        -4.7020    0.9019    0.1386    0.0152    0.0299    0.0000
C        -3.3382    3.4149    0.1551   -0.0148   -0.0260   -0.0003
C        -5.4086    2.1097    0.2138    0.0274    0.0002   -0.0012
C        -3.0555   -5.7944    0.2587   -0.0010   -0.0007    0.0001
C        -1.6195   -2.2729    0.0041    0.0000   -0.0000   -0.0000
C        -1.9182   -3.6908    0.1037    0.0000    0.0000   -0.0000
C         3.2652    2.9200    0.1027   -0.0000   -0.0001   -0.0000
C         2.9671    1.5014    0.0066    0.0000   -0.0000    0.0000
C        -4.7364    3.3486    0.2202    0.0129   -0.0208   -0.0013
C         3.6255   -0.7151   -0.0006   -0.0000    0.0003   -0.0000
C         4.6513   -1.7396    0.0908   -0.0013    0.0004   -0.0001
C         2.5611   -2.6780    0.0096   -0.0002   -0.0001   -0.0000
C         3.9791   -2.9786    0.0994   -0.0009    0.0007   -0.0001
C        -0.6787   -4.3610    0.1117    0.0000   -0.0000   -0.0000
C         0.3451   -3.3358    0.0162    0.0000   -0.0000    0.0000
C         1.9538    4.9862    0.1974   -0.0031    0.0016    0.0001
C         4.4707    3.6292    0.1907    0.0016   -0.0009    0.0000
C         3.1581    5.6948    0.2620    0.0000    0.0027    0.0001
C         4.4009    5.0247    0.2573    0.0015    0.0009    0.0001
C         6.0491   -1.6734    0.1498    0.0164    0.0323   -0.0001
C         4.6854   -4.1862    0.1668   -0.0155   -0.0272    0.0003
C         6.7557   -2.8811    0.2249    0.0299    0.0002    0.0012
C         6.0835   -4.1199    0.2324    0.0139   -0.0224    0.0014
H         6.5636   -0.7119    0.1505   -0.1939   -0.3589    0.0001
H         4.1595   -5.1415    0.1810    0.1687    0.3098   -0.0043
H         6.6636   -5.0424    0.2843   -0.1537    0.2455   -0.0141
H        -5.2165   -0.0595    0.1415   -0.1796   -0.3325    0.0007
H        -2.8123    4.3701    0.1706    0.1610    0.2956    0.0045
H        -5.3164    4.2710    0.2739   -0.1424    0.2272    0.0134
H        -6.4984    2.0935    0.2595   -0.3009   -0.0046    0.0127
H         0.3559   -6.2665    0.2241   -0.0004    0.0002    0.0000
H        -4.0801   -3.8731    0.2016    0.0138   -0.0075   -0.0002
H        -3.9765   -6.3769    0.3099    0.0116    0.0074   -0.0006
H        -1.7960   -7.5547    0.3185   -0.0002    0.0066   -0.0003
H         0.9891    5.4946    0.2174    0.0345   -0.0184   -0.0007
H         5.4267    3.1042    0.2032   -0.0177    0.0096   -0.0002
H         5.3215    5.6077    0.3106   -0.0162   -0.0102   -0.0010
H         3.1404    6.7843    0.3129    0.0005   -0.0297   -0.0014
H         7.8456   -2.8649    0.2681   -0.3279   -0.0050   -0.0132
    57
stable frequency at   3143.849 1/cm IR int. is 1.096 a.m.u.; force const. is 6.382 mDyne/Ang.
Fe        0.6742   -0.3860   -0.2512   -0.0000    0.0000    0.0000
N         3.9155    0.5774    0.0034    0.0000    0.0001   -0.0000
N         1.6364   -3.6259    0.0222   -0.0001   -0.0001    0.0000
N        -0.2400   -2.0716   -0.0762   -0.0000   -0.0000    0.0000
N        -1.0127    0.5279   -0.0841    0.0002   -0.0001   -0.0000
N         1.5882    1.2996   -0.0761    0.0000   -0.0000    0.0000
N         2.3604   -1.2995   -0.0741   -0.0002    0.0001   -0.0000
N        -0.2889    2.8541    0.0151    0.0001    0.0001    0.0000
N        -2.5678   -1.3490   -0.0039   -0.0000   -0.0001    0.0000
C        -2.6318    2.2074    0.0858   -0.0009    0.0006    0.0001
C        -1.2138    1.9066   -0.0003   -0.0002   -0.0001    0.0000
C         1.0023    2.5641    0.0125    0.0001   -0.0000    0.0000
C         2.0253    3.5896    0.1094    0.0000    0.0002    0.0000
C        -3.3042    0.9681    0.0767   -0.0013    0.0004    0.0001
C        -2.2782   -0.0563   -0.0113   -0.0000    0.0003    0.0000
C        -0.6084   -5.7574    0.2030   -0.0025    0.0012   -0.0000
C        -3.1245   -4.3989    0.1900    0.0026   -0.0015   -0.0000
C        -1.8131   -6.4652    0.2658   -0.0000    0.0024   -0.0001
C        -4.7020    0.9019    0.1386    0.0170    0.0334    0.0000
C        -3.3382    3.4149    0.1551   -0.0148   -0.0259   -0.0003
C        -5.4086    2.1097    0.2138    0.0301    0.0002   -0.0013
C        -3.0555   -5.7944    0.2587    0.0023    0.0015   -0.0002
C        -1.6195   -2.2729    0.0041    0.0000   -0.0000    0.0000
C        -1.9182   -3.6908    0.1037   -0.0001   -0.0000    0.0000
C         3.2652    2.9200    0.1027    0.0001    0.0001    0.0000
C         2.9671    1.5014    0.0066   -0.0000    0.0001   -0.0000
C        -4.7364    3.3486    0.2202    0.0137   -0.0222   -0.0014
C         3.6255   -0.7151   -0.0006    0.0000   -0.0003    0.0000
C         4.6513   -1.7396    0.0908    0.0012   -0.0004    0.0001
C         2.5611   -2.6780    0.0096    0.0002    0.0001    0.0000
C         3.9791   -2.9786    0.0994    0.0008   -0.0006    0.0001
C        -0.6787   -4.3610    0.1117    0.0000   -0.0001    0.0000
C         0.3451   -3.3358    0.0162   -0.0000   -0.0000   -0.0000
C         1.9538    4.9862    0.1974    0.0048   -0.0024   -0.0001
C         4.4707    3.6292    0.1907   -0.0045    0.0026   -0.0000
C         3.1581    5.6948    0.2620    0.0000   -0.0051   -0.0002
C         4.4009    5.0247    0.2573   -0.0040   -0.0026   -0.0003
C         6.0491   -1.6734    0.1498   -0.0156   -0.0308    0.0001
C         4.6854   -4.1862    0.1668    0.0133    0.0231   -0.0003
C         6.7557   -2.8811    0.2249   -0.0278   -0.0002   -0.0011
C         6.0835   -4.1199    0.2324   -0.0126    0.0205   -0.0013
H         6.5636   -0.7119    0.1505    0.1851    0.3424   -0.0000
H         4.1595   -5.1415    0.1810   -0.1437   -0.2636    0.0037
H         6.6636   -5.0424    0.2843    0.1403   -0.2241    0.0135
H        -5.2165   -0.0595    0.1415   -0.2009   -0.3717    0.0008
H        -2.8123    4.3701    0.1706    0.1604    0.2946    0.0047
H        -5.3164    4.2710    0.2739   -0.1518    0.2424    0.0143
H        -6.4984    2.0935    0.2595   -0.3312   -0.0049    0.0141
H         0.3559   -6.2665    0.2241    0.0278   -0.0148    0.0006
H        -4.0801   -3.8731    0.2016   -0.0298    0.0162    0.0004
H        -3.9765   -6.3769    0.3099   -0.0255   -0.0161    0.0015
H        -1.7960   -7.5547    0.3185    0.0004   -0.0259    0.0013
H         0.9891    5.4946    0.2174   -0.0535    0.0284    0.0011
H         5.4267    3.1042    0.2032    0.0513   -0.0279    0.0007
H         5.3215    5.6077    0.3106    0.0443    0.0280    0.0026
H         3.1404    6.7843    0.3129   -0.0009    0.0564    0.0027
H         7.8456   -2.8649    0.2681    0.3059    0.0046    0.0123
