#===============================================================================
# Created using the Atomic Simulation Environment (ASE)

# Thu May 21 18:42:16 2026

#=======================================================
lattice_vector 23.0233967954339889 0.0000000000000000 0.0000000000000000 
lattice_vector 11.5116983977169944 19.9388465062550679 0.0000000000000000 
lattice_vector 0.0000000000000000 0.0000000000000000 207.0494467868053334 
atom -17.2699999999999996 -9.9700000000000006 -10.0490000000000066 Ag
constrain_relaxation .true.
atom -14.3920754005707501 -9.9700000000000006 -10.0490000000000066 Ag
constrain_relaxation .true.
atom -11.5141508011415024 -9.9700000000000006 -10.0490000000000066 Ag
constrain_relaxation .true.
atom -8.6362262017122546 -9.9700000000000006 -10.0490000000000066 Ag
constrain_relaxation .true.
atom -5.7583016022830051 -9.9700000000000006 -10.0490000000000066 Ag
constrain_relaxation .true.
atom -2.8803770028537556 -9.9700000000000006 -10.0490000000000066 Ag
constrain_relaxation .true.
atom -0.0024524034245097 -9.9700000000000006 -10.0490000000000066 Ag
constrain_relaxation .true.
atom 2.8754721960047398 -9.9700000000000006 -10.0490000000000066 Ag
constrain_relaxation .true.
atom -15.8310377002853748 -7.4776441867181171 -10.0490000000000066 Ag
constrain_relaxation .true.
atom -12.9531131008561271 -7.4776441867181171 -10.0490000000000066 Ag
constrain_relaxation .true.
atom -10.0751885014268776 -7.4776441867181171 -10.0490000000000066 Ag
constrain_relaxation .true.
atom -7.1972639019976299 -7.4776441867181171 -10.0490000000000066 Ag
constrain_relaxation .true.
atom -4.3193393025683804 -7.4776441867181171 -10.0490000000000066 Ag
constrain_relaxation .true.
atom -1.4414147031391309 -7.4776441867181171 -10.0490000000000066 Ag
constrain_relaxation .true.
atom 1.4365098962901151 -7.4776441867181171 -10.0490000000000066 Ag
constrain_relaxation .true.
atom 4.3144344957193645 -7.4776441867181171 -10.0490000000000066 Ag
constrain_relaxation .true.
atom -14.3920754005707501 -4.9852883734362337 -10.0490000000000066 Ag
constrain_relaxation .true.
atom -11.5141508011415024 -4.9852883734362337 -10.0490000000000066 Ag
constrain_relaxation .true.
atom -8.6362262017122546 -4.9852883734362337 -10.0490000000000066 Ag
constrain_relaxation .true.
atom -5.7583016022830051 -4.9852883734362337 -10.0490000000000066 Ag
constrain_relaxation .true.
atom -2.8803770028537556 -4.9852883734362337 -10.0490000000000066 Ag
constrain_relaxation .true.
atom -0.0024524034245061 -4.9852883734362337 -10.0490000000000066 Ag
constrain_relaxation .true.
atom 2.8754721960047398 -4.9852883734362337 -10.0490000000000066 Ag
constrain_relaxation .true.
atom 5.7533967954339893 -4.9852883734362337 -10.0490000000000066 Ag
constrain_relaxation .true.
atom -12.9531131008561271 -2.4929325601543502 -10.0490000000000066 Ag
constrain_relaxation .true.
atom -10.0751885014268776 -2.4929325601543502 -10.0490000000000066 Ag
constrain_relaxation .true.
atom -7.1972639019976299 -2.4929325601543502 -10.0490000000000066 Ag
constrain_relaxation .true.
atom -4.3193393025683822 -2.4929325601543502 -10.0490000000000066 Ag
constrain_relaxation .true.
atom -1.4414147031391327 -2.4929325601543502 -10.0490000000000066 Ag
constrain_relaxation .true.
atom 1.4365098962901186 -2.4929325601543502 -10.0490000000000066 Ag
constrain_relaxation .true.
atom 4.3144344957193645 -2.4929325601543502 -10.0490000000000066 Ag
constrain_relaxation .true.
atom 7.1923590951486140 -2.4929325601543502 -10.0490000000000066 Ag
constrain_relaxation .true.
atom -11.5141508011415024 -0.0005767468724667 -10.0490000000000066 Ag
constrain_relaxation .true.
atom -8.6362262017122546 -0.0005767468724667 -10.0490000000000066 Ag
constrain_relaxation .true.
atom -5.7583016022830051 -0.0005767468724667 -10.0490000000000066 Ag
constrain_relaxation .true.
atom -2.8803770028537574 -0.0005767468724667 -10.0490000000000066 Ag
constrain_relaxation .true.
atom -0.0024524034245097 -0.0005767468724667 -10.0490000000000066 Ag
constrain_relaxation .true.
atom 2.8754721960047398 -0.0005767468724667 -10.0490000000000066 Ag
constrain_relaxation .true.
atom 5.7533967954339893 -0.0005767468724667 -10.0490000000000066 Ag
constrain_relaxation .true.
atom 8.6313213948632388 -0.0005767468724667 -10.0490000000000066 Ag
constrain_relaxation .true.
atom -10.0751885014268776 2.4917790664094159 -10.0490000000000066 Ag
constrain_relaxation .true.
atom -7.1972639019976299 2.4917790664094159 -10.0490000000000066 Ag
constrain_relaxation .true.
atom -4.3193393025683804 2.4917790664094159 -10.0490000000000066 Ag
constrain_relaxation .true.
atom -1.4414147031391327 2.4917790664094159 -10.0490000000000066 Ag
constrain_relaxation .true.
atom 1.4365098962901151 2.4917790664094159 -10.0490000000000066 Ag
constrain_relaxation .true.
atom 4.3144344957193645 2.4917790664094159 -10.0490000000000066 Ag
constrain_relaxation .true.
atom 7.1923590951486105 2.4917790664094159 -10.0490000000000066 Ag
constrain_relaxation .true.
atom 10.0702836945778600 2.4917790664094159 -10.0490000000000066 Ag
constrain_relaxation .true.
atom -8.6362262017122546 4.9841348796913003 -10.0490000000000066 Ag
constrain_relaxation .true.
atom -5.7583016022830051 4.9841348796913003 -10.0490000000000066 Ag
constrain_relaxation .true.
atom -2.8803770028537556 4.9841348796913003 -10.0490000000000066 Ag
constrain_relaxation .true.
atom -0.0024524034245097 4.9841348796913003 -10.0490000000000066 Ag
constrain_relaxation .true.
atom 2.8754721960047398 4.9841348796913003 -10.0490000000000066 Ag
constrain_relaxation .true.
atom 5.7533967954339893 4.9841348796913003 -10.0490000000000066 Ag
constrain_relaxation .true.
atom 8.6313213948632352 4.9841348796913003 -10.0490000000000066 Ag
constrain_relaxation .true.
atom 11.5092459942924847 4.9841348796913003 -10.0490000000000066 Ag
constrain_relaxation .true.
atom -7.1972639019976299 7.4764906929731847 -10.0490000000000066 Ag
constrain_relaxation .true.
atom -4.3193393025683804 7.4764906929731847 -10.0490000000000066 Ag
constrain_relaxation .true.
atom -1.4414147031391327 7.4764906929731847 -10.0490000000000066 Ag
constrain_relaxation .true.
atom 1.4365098962901151 7.4764906929731847 -10.0490000000000066 Ag
constrain_relaxation .true.
atom 4.3144344957193645 7.4764906929731847 -10.0490000000000066 Ag
constrain_relaxation .true.
atom 7.1923590951486140 7.4764906929731847 -10.0490000000000066 Ag
constrain_relaxation .true.
atom 10.0702836945778600 7.4764906929731847 -10.0490000000000066 Ag
constrain_relaxation .true.
atom 12.9482082940071095 7.4764906929731847 -10.0490000000000066 Ag
constrain_relaxation .true.
atom -15.8310377002853748 -9.1392147289060404 -7.6991844043982240 Ag
constrain_relaxation .true.
atom -12.9531131008561271 -9.1392147289060404 -7.6991844043982240 Ag
constrain_relaxation .true.
atom -10.0751885014268776 -9.1392147289060404 -7.6991844043982240 Ag
constrain_relaxation .true.
atom -7.1972639019976281 -9.1392147289060404 -7.6991844043982240 Ag
constrain_relaxation .true.
atom -4.3193393025683804 -9.1392147289060404 -7.6991844043982240 Ag
constrain_relaxation .true.
atom -1.4414147031391327 -9.1392147289060404 -7.6991844043982240 Ag
constrain_relaxation .true.
atom 1.4365098962901151 -9.1392147289060404 -7.6991844043982240 Ag
constrain_relaxation .true.
atom 4.3144344957193645 -9.1392147289060404 -7.6991844043982240 Ag
constrain_relaxation .true.
atom -14.3920754005707501 -6.6468589156241560 -7.6991844043982240 Ag
constrain_relaxation .true.
atom -11.5141508011415024 -6.6468589156241560 -7.6991844043982240 Ag
constrain_relaxation .true.
atom -8.6362262017122529 -6.6468589156241560 -7.6991844043982240 Ag
constrain_relaxation .true.
atom -5.7583016022830051 -6.6468589156241560 -7.6991844043982240 Ag
constrain_relaxation .true.
atom -2.8803770028537574 -6.6468589156241560 -7.6991844043982240 Ag
constrain_relaxation .true.
atom -0.0024524034245097 -6.6468589156241560 -7.6991844043982240 Ag
constrain_relaxation .true.
atom 2.8754721960047398 -6.6468589156241560 -7.6991844043982240 Ag
constrain_relaxation .true.
atom 5.7533967954339893 -6.6468589156241560 -7.6991844043982240 Ag
constrain_relaxation .true.
atom -12.9531131008561253 -4.1545031023422725 -7.6991844043982240 Ag
constrain_relaxation .true.
atom -10.0751885014268794 -4.1545031023422725 -7.6991844043982240 Ag
constrain_relaxation .true.
atom -7.1972639019976281 -4.1545031023422725 -7.6991844043982240 Ag
constrain_relaxation .true.
atom -4.3193393025683804 -4.1545031023422725 -7.6991844043982240 Ag
constrain_relaxation .true.
atom -1.4414147031391327 -4.1545031023422725 -7.6991844043982240 Ag
constrain_relaxation .true.
atom 1.4365098962901151 -4.1545031023422725 -7.6991844043982240 Ag
constrain_relaxation .true.
atom 4.3144344957193645 -4.1545031023422725 -7.6991844043982240 Ag
constrain_relaxation .true.
atom 7.1923590951486140 -4.1545031023422725 -7.6991844043982240 Ag
constrain_relaxation .true.
atom -11.5141508011415024 -1.6621472890603890 -7.6991844043982240 Ag
constrain_relaxation .true.
atom -8.6362262017122546 -1.6621472890603890 -7.6991844043982240 Ag
constrain_relaxation .true.
atom -5.7583016022830051 -1.6621472890603890 -7.6991844043982240 Ag
constrain_relaxation .true.
atom -2.8803770028537556 -1.6621472890603890 -7.6991844043982240 Ag
constrain_relaxation .true.
atom -0.0024524034245097 -1.6621472890603890 -7.6991844043982240 Ag
constrain_relaxation .true.
atom 2.8754721960047398 -1.6621472890603890 -7.6991844043982240 Ag
constrain_relaxation .true.
atom 5.7533967954339893 -1.6621472890603890 -7.6991844043982240 Ag
constrain_relaxation .true.
atom 8.6313213948632388 -1.6621472890603890 -7.6991844043982240 Ag
constrain_relaxation .true.
atom -10.0751885014268794 0.8302085242214936 -7.6991844043982240 Ag
constrain_relaxation .true.
atom -7.1972639019976299 0.8302085242214936 -7.6991844043982240 Ag
constrain_relaxation .true.
atom -4.3193393025683804 0.8302085242214936 -7.6991844043982240 Ag
constrain_relaxation .true.
atom -1.4414147031391327 0.8302085242214936 -7.6991844043982240 Ag
constrain_relaxation .true.
atom 1.4365098962901151 0.8302085242214936 -7.6991844043982240 Ag
constrain_relaxation .true.
atom 4.3144344957193645 0.8302085242214936 -7.6991844043982240 Ag
constrain_relaxation .true.
atom 7.1923590951486140 0.8302085242214936 -7.6991844043982240 Ag
constrain_relaxation .true.
atom 10.0702836945778635 0.8302085242214936 -7.6991844043982240 Ag
constrain_relaxation .true.
atom -8.6362262017122546 3.3225643375033780 -7.6991844043982240 Ag
constrain_relaxation .true.
atom -5.7583016022830051 3.3225643375033780 -7.6991844043982240 Ag
constrain_relaxation .true.
atom -2.8803770028537556 3.3225643375033780 -7.6991844043982240 Ag
constrain_relaxation .true.
atom -0.0024524034245061 3.3225643375033780 -7.6991844043982240 Ag
constrain_relaxation .true.
atom 2.8754721960047398 3.3225643375033780 -7.6991844043982240 Ag
constrain_relaxation .true.
atom 5.7533967954339893 3.3225643375033780 -7.6991844043982240 Ag
constrain_relaxation .true.
atom 8.6313213948632388 3.3225643375033780 -7.6991844043982240 Ag
constrain_relaxation .true.
atom 11.5092459942924883 3.3225643375033780 -7.6991844043982240 Ag
constrain_relaxation .true.
atom -7.1972639019976299 5.8149201507852606 -7.6991844043982240 Ag
constrain_relaxation .true.
atom -4.3193393025683822 5.8149201507852606 -7.6991844043982240 Ag
constrain_relaxation .true.
atom -1.4414147031391327 5.8149201507852606 -7.6991844043982240 Ag
constrain_relaxation .true.
atom 1.4365098962901151 5.8149201507852606 -7.6991844043982240 Ag
constrain_relaxation .true.
atom 4.3144344957193645 5.8149201507852606 -7.6991844043982240 Ag
constrain_relaxation .true.
atom 7.1923590951486105 5.8149201507852606 -7.6991844043982240 Ag
constrain_relaxation .true.
atom 10.0702836945778600 5.8149201507852606 -7.6991844043982240 Ag
constrain_relaxation .true.
atom 12.9482082940071095 5.8149201507852606 -7.6991844043982240 Ag
constrain_relaxation .true.
atom -5.7583016022830051 8.3072759640671432 -7.6991844043982240 Ag
constrain_relaxation .true.
atom -2.8803770028537574 8.3072759640671432 -7.6991844043982240 Ag
constrain_relaxation .true.
atom -0.0024524034245061 8.3072759640671432 -7.6991844043982240 Ag
constrain_relaxation .true.
atom 2.8754721960047398 8.3072759640671432 -7.6991844043982240 Ag
constrain_relaxation .true.
atom 5.7533967954339893 8.3072759640671432 -7.6991844043982240 Ag
constrain_relaxation .true.
atom 8.6313213948632352 8.3072759640671432 -7.6991844043982240 Ag
constrain_relaxation .true.
atom 11.5092459942924847 8.3072759640671432 -7.6991844043982240 Ag
constrain_relaxation .true.
atom 14.3871705937217342 8.3072759640671432 -7.6991844043982240 Ag
constrain_relaxation .true.
atom -17.2699999999999996 -8.3084294578120783 -5.3493688087964557 Ag
atom -14.3920754005707501 -8.3084294578120783 -5.3493688087964557 Ag
atom -11.5141508011415024 -8.3084294578120783 -5.3493688087964557 Ag
atom -8.6362262017122546 -8.3084294578120783 -5.3493688087964557 Ag
atom -5.7583016022830051 -8.3084294578120783 -5.3493688087964557 Ag
atom -2.8803770028537556 -8.3084294578120783 -5.3493688087964557 Ag
atom -0.0024524034245061 -8.3084294578120783 -5.3493688087964557 Ag
atom 2.8754721960047434 -8.3084294578120783 -5.3493688087964557 Ag
atom -15.8310377002853748 -5.8160736445301948 -5.3493688087964557 Ag
atom -12.9531131008561253 -5.8160736445301948 -5.3493688087964557 Ag
atom -10.0751885014268776 -5.8160736445301948 -5.3493688087964557 Ag
atom -7.1972639019976299 -5.8160736445301948 -5.3493688087964557 Ag
atom -4.3193393025683804 -5.8160736445301948 -5.3493688087964557 Ag
atom -1.4414147031391309 -5.8160736445301948 -5.3493688087964557 Ag
atom 1.4365098962901151 -5.8160736445301948 -5.3493688087964557 Ag
atom 4.3144344957193645 -5.8160736445301948 -5.3493688087964557 Ag
atom -14.3920754005707501 -3.3237178312483113 -5.3493688087964557 Ag
atom -11.5141508011415024 -3.3237178312483113 -5.3493688087964557 Ag
atom -8.6362262017122529 -3.3237178312483113 -5.3493688087964557 Ag
atom -5.7583016022830051 -3.3237178312483113 -5.3493688087964557 Ag
atom -2.8803770028537556 -3.3237178312483113 -5.3493688087964557 Ag
atom -0.0024524034245061 -3.3237178312483113 -5.3493688087964557 Ag
atom 2.8754721960047398 -3.3237178312483113 -5.3493688087964557 Ag
atom 5.7533967954339893 -3.3237178312483113 -5.3493688087964557 Ag
atom -12.9531131008561271 -0.8313620179664287 -5.3493688087964557 Ag
atom -10.0751885014268776 -0.8313620179664287 -5.3493688087964557 Ag
atom -7.1972639019976299 -0.8313620179664287 -5.3493688087964557 Ag
atom -4.3193393025683822 -0.8313620179664287 -5.3493688087964557 Ag
atom -1.4414147031391327 -0.8313620179664287 -5.3493688087964557 Ag
atom 1.4365098962901186 -0.8313620179664287 -5.3493688087964557 Ag
atom 4.3144344957193645 -0.8313620179664287 -5.3493688087964557 Ag
atom 7.1923590951486140 -0.8313620179664287 -5.3493688087964557 Ag
atom -11.5141508011415006 1.6609937953154557 -5.3493688087964557 Ag
atom -8.6362262017122529 1.6609937953154557 -5.3493688087964557 Ag
atom -5.7583016022830051 1.6609937953154557 -5.3493688087964557 Ag
atom -2.8803770028537574 1.6609937953154557 -5.3493688087964557 Ag
atom -0.0024524034245061 1.6609937953154557 -5.3493688087964557 Ag
atom 2.8754721960047434 1.6609937953154557 -5.3493688087964557 Ag
atom 5.7533967954339893 1.6609937953154557 -5.3493688087964557 Ag
atom 8.6313213948632388 1.6609937953154557 -5.3493688087964557 Ag
atom -10.0751885014268776 4.1533496085973400 -5.3493688087964557 Ag
atom -7.1972639019976281 4.1533496085973400 -5.3493688087964557 Ag
atom -4.3193393025683804 4.1533496085973400 -5.3493688087964557 Ag
atom -1.4414147031391327 4.1533496085973400 -5.3493688087964557 Ag
atom 1.4365098962901186 4.1533496085973400 -5.3493688087964557 Ag
atom 4.3144344957193681 4.1533496085973400 -5.3493688087964557 Ag
atom 7.1923590951486140 4.1533496085973400 -5.3493688087964557 Ag
atom 10.0702836945778635 4.1533496085973400 -5.3493688087964557 Ag
atom -8.6362262017122529 6.6457054218792226 -5.3493688087964557 Ag
atom -5.7583016022830051 6.6457054218792226 -5.3493688087964557 Ag
atom -2.8803770028537556 6.6457054218792226 -5.3493688087964557 Ag
atom -0.0024524034245097 6.6457054218792226 -5.3493688087964557 Ag
atom 2.8754721960047398 6.6457054218792226 -5.3493688087964557 Ag
atom 5.7533967954339893 6.6457054218792226 -5.3493688087964557 Ag
atom 8.6313213948632388 6.6457054218792226 -5.3493688087964557 Ag
atom 11.5092459942924883 6.6457054218792226 -5.3493688087964557 Ag
atom -7.1972639019976281 9.1380612351611052 -5.3493688087964557 Ag
atom -4.3193393025683804 9.1380612351611052 -5.3493688087964557 Ag
atom -1.4414147031391309 9.1380612351611052 -5.3493688087964557 Ag
atom 1.4365098962901151 9.1380612351611052 -5.3493688087964557 Ag
atom 4.3144344957193645 9.1380612351611052 -5.3493688087964557 Ag
atom 7.1923590951486140 9.1380612351611052 -5.3493688087964557 Ag
atom 10.0702836945778635 9.1380612351611052 -5.3493688087964557 Ag
atom 12.9482082940071130 9.1380612351611052 -5.3493688087964557 Ag
atom -17.2699999999999996 -9.9700000000000006 -2.9995532131946732 Ag
atom -14.3920754005707501 -9.9700000000000006 -2.9995532131946732 Ag
atom -11.5141508011415024 -9.9700000000000006 -2.9995532131946732 Ag
atom -8.6362262017122546 -9.9700000000000006 -2.9995532131946732 Ag
atom -5.7583016022830051 -9.9700000000000006 -2.9995532131946732 Ag
atom -2.8803770028537556 -9.9700000000000006 -2.9995532131946732 Ag
atom -0.0024524034245097 -9.9700000000000006 -2.9995532131946732 Ag
atom 2.8754721960047398 -9.9700000000000006 -2.9995532131946732 Ag
atom -15.8310377002853748 -7.4776441867181171 -2.9995532131946732 Ag
atom -12.9531131008561271 -7.4776441867181171 -2.9995532131946732 Ag
atom -10.0751885014268776 -7.4776441867181171 -2.9995532131946732 Ag
atom -7.1972639019976299 -7.4776441867181171 -2.9995532131946732 Ag
atom -4.3193393025683804 -7.4776441867181171 -2.9995532131946732 Ag
atom -1.4414147031391309 -7.4776441867181171 -2.9995532131946732 Ag
atom 1.4365098962901151 -7.4776441867181171 -2.9995532131946732 Ag
atom 4.3144344957193645 -7.4776441867181171 -2.9995532131946732 Ag
atom -14.3920754005707501 -4.9852883734362337 -2.9995532131946732 Ag
atom -11.5141508011415024 -4.9852883734362337 -2.9995532131946732 Ag
atom -8.6362262017122546 -4.9852883734362337 -2.9995532131946732 Ag
atom -5.7583016022830051 -4.9852883734362337 -2.9995532131946732 Ag
atom -2.8803770028537556 -4.9852883734362337 -2.9995532131946732 Ag
atom -0.0024524034245061 -4.9852883734362337 -2.9995532131946732 Ag
atom 2.8754721960047398 -4.9852883734362337 -2.9995532131946732 Ag
atom 5.7533967954339893 -4.9852883734362337 -2.9995532131946732 Ag
atom -12.9531131008561271 -2.4929325601543502 -2.9995532131946732 Ag
atom -10.0751885014268776 -2.4929325601543502 -2.9995532131946732 Ag
atom -7.1972639019976299 -2.4929325601543502 -2.9995532131946732 Ag
atom -4.3193393025683822 -2.4929325601543502 -2.9995532131946732 Ag
atom -1.4414147031391327 -2.4929325601543502 -2.9995532131946732 Ag
atom 1.4365098962901186 -2.4929325601543502 -2.9995532131946732 Ag
atom 4.3144344957193645 -2.4929325601543502 -2.9995532131946732 Ag
atom 7.1923590951486140 -2.4929325601543502 -2.9995532131946732 Ag
atom -11.5141508011415024 -0.0005767468724667 -2.9995532131946732 Ag
atom -8.6362262017122546 -0.0005767468724667 -2.9995532131946732 Ag
atom -5.7583016022830051 -0.0005767468724667 -2.9995532131946732 Ag
atom -2.8803770028537574 -0.0005767468724667 -2.9995532131946732 Ag
atom -0.0024524034245097 -0.0005767468724667 -2.9995532131946732 Ag
atom 2.8754721960047398 -0.0005767468724667 -2.9995532131946732 Ag
atom 5.7533967954339893 -0.0005767468724667 -2.9995532131946732 Ag
atom 8.6313213948632388 -0.0005767468724667 -2.9995532131946732 Ag
atom -10.0751885014268776 2.4917790664094159 -2.9995532131946732 Ag
atom -7.1972639019976299 2.4917790664094159 -2.9995532131946732 Ag
atom -4.3193393025683804 2.4917790664094159 -2.9995532131946732 Ag
atom -1.4414147031391327 2.4917790664094159 -2.9995532131946732 Ag
atom 1.4365098962901151 2.4917790664094159 -2.9995532131946732 Ag
atom 4.3144344957193645 2.4917790664094159 -2.9995532131946732 Ag
atom 7.1923590951486105 2.4917790664094159 -2.9995532131946732 Ag
atom 10.0702836945778600 2.4917790664094159 -2.9995532131946732 Ag
atom -8.6362262017122546 4.9841348796913003 -2.9995532131946732 Ag
atom -5.7583016022830051 4.9841348796913003 -2.9995532131946732 Ag
atom -2.8803770028537556 4.9841348796913003 -2.9995532131946732 Ag
atom -0.0024524034245097 4.9841348796913003 -2.9995532131946732 Ag
atom 2.8754721960047398 4.9841348796913003 -2.9995532131946732 Ag
atom 5.7533967954339893 4.9841348796913003 -2.9995532131946732 Ag
atom 8.6313213948632352 4.9841348796913003 -2.9995532131946732 Ag
atom 11.5092459942924847 4.9841348796913003 -2.9995532131946732 Ag
atom -7.1972639019976299 7.4764906929731847 -2.9995532131946732 Ag
atom -4.3193393025683804 7.4764906929731847 -2.9995532131946732 Ag
atom -1.4414147031391327 7.4764906929731847 -2.9995532131946732 Ag
atom 1.4365098962901151 7.4764906929731847 -2.9995532131946732 Ag
atom 4.3144344957193645 7.4764906929731847 -2.9995532131946732 Ag
atom 7.1923590951486140 7.4764906929731847 -2.9995532131946732 Ag
atom 10.0702836945778600 7.4764906929731847 -2.9995532131946732 Ag
atom 12.9482082940071095 7.4764906929731847 -2.9995532131946732 Ag
atom 0.0000000000000000 0.0000000000000000 0.0004467868053268 Fe
atom 2.9686751362760013 1.6173129003260005 0.0007827348383245 N
atom 1.6173976824679990 -2.9688665400180003 -0.0002312830956726 N
atom -0.5417623087269980 -1.8382072104649989 0.0063973376983171 N
atom -1.8381765418249998 0.5419478019550006 -0.0056533851876850 N
atom 0.5417622912300004 1.8382072151309998 0.0063942433143183 N
atom 1.8381765409900019 -0.5419477971609989 -0.0056502427976852 N
atom -1.6173976709150004 2.9688665564559997 -0.0002389112456740 N
atom -2.9686751266539986 -1.6173128961759993 0.0007829870373257 N
atom -3.7711805127179989 1.8455369275619997 -0.0304492779566772 C
atom -2.3213979529699991 1.8492435524940003 -0.0128438223456726 C
atom -0.2949575446920001 2.9527646682090012 0.0129005355563265 C
atom 0.4942066242849990 4.1689006897079999 0.0306071616833208 C
atom -4.1687658542339996 0.4940500768699998 -0.0286147151796854 C
atom -2.9526454222089988 -0.2948014101470005 -0.0113324082876716 C
atom -0.1360929688449986 -5.5214734699390000 0.0456432703843177 C
atom -2.8798090242559997 -4.7139856918719998 0.0427032397613232 C
atom -1.1672885060569982 -6.4607744573629997 0.0595626314063225 C
atom -5.5211640547220000 0.1352907604159999 -0.0411680336466844 C
atom -4.7146086520209991 2.8792614072950009 -0.0462064239156774 C
atom -6.4608506749999997 1.1659504224070005 -0.0567418539616824 C
atom -2.5225397418819995 -6.0624016728000001 0.0578180361803220 C
atom -1.8491123898010002 -2.3212527320460001 0.0126049571283176 C
atom -1.8455631126849994 -3.7711032656359995 0.0297170091333214 C
atom 1.8455631034050022 3.7711033353829997 0.0297099029923231 C
atom 1.8491123694849989 2.3212527456449994 0.0126020260993158 C
atom -6.0628138310979995 2.5213225480840009 -0.0597315138006849 C
atom 2.9526454160379991 0.2948013972709997 -0.0113301718776739 C
atom 4.1687658739790017 -0.4940501153649990 -0.0286112188636736 C
atom 2.3213979550139996 -1.8492435657410002 -0.0128385559656721 C
atom 3.7711805245470025 -1.8455369563749997 -0.0304442674436842 C
atom -0.4942066216259988 -4.1689006055219995 0.0306173121173146 C
atom 0.2949575320219999 -2.9527646211079999 0.0129076203533174 C
atom 0.1360929932170016 5.5214736136260001 0.0456276550743269 C
atom 2.8798090367010012 4.7139857616899992 0.0426942842823195 C
atom 1.1672885431540010 6.4607746116829983 0.0595450319443245 C
atom 2.5225397804110017 6.0624018028139997 0.0578038033773254 C
atom 5.5211640520900005 -0.1352907707189992 -0.0411652382926775 C
atom 4.7146086795569992 -2.8792614266149998 -0.0462009657386773 C
atom 6.4608506963589996 -1.1659504308919999 -0.0567385554036832 C
atom 6.0628138480029996 -2.5213225538539996 -0.0597270979946813 C
atom 5.8185148195220009 0.9134982528159998 -0.0386998297296799 H
atom 4.3972597114299994 -3.9221657385409996 -0.0481268199316816 H
atom 6.8273401218289997 -3.2993475085079993 -0.0727437401786801 H
atom -5.8185148933789996 -0.9134982392589990 -0.0387015776496753 H
atom -4.3972595944839998 3.9221656893929993 -0.0481331298256720 H
atom -6.8273401152959998 3.2993474921370005 -0.0727482711306777 H
atom -7.5248409538870007 0.9252389555300002 -0.0669513316746730 H
atom 0.9123941823199999 -5.8198667412439997 0.0467063574833162 H
atom -3.9224632634559988 -4.3958201584589993 0.0406260506213272 H
atom -3.3008278572149994 -6.8267571025139997 0.0684228972203158 H
atom -0.9270411866820005 -7.5248792439409993 0.0721380368013200 H
atom -0.9123941296909983 5.8198669934420000 0.0466879923723269 H
atom 3.9224632696820017 4.3958201842540010 0.0406188762513153 H
atom 3.3008279100940001 6.8267572370619991 0.0684068386863146 H
atom 0.9270412453860004 7.5248794625170010 0.0721158258773187 H
atom 7.5248409563590002 -0.9252389446830005 -0.0669487654666767 H
