    37
unstable frequency at     -0.049 1/cm IR int. is 8.990 a.m.u.; force const. is 0.000 mDyne/Ang.
N         0.1100    2.0652    0.0000    0.0381   -0.0393   -0.0000
N        -2.0647    0.1100    0.0000    0.0382   -0.0394   -0.0000
N         2.0647   -0.1099    0.0000    0.0382   -0.0393   -0.0000
N        -0.1099   -2.0653    0.0000    0.0383   -0.0393   -0.0000
C        -0.9521    2.9419    0.0000    0.0381   -0.0394   -0.0000
C        -2.8236    1.2591   -0.0000    0.0381   -0.0394   -0.0000
C         1.2590    2.8241    0.0000    0.0381   -0.0393   -0.0000
C        -2.9413   -0.9521   -0.0000    0.0382   -0.0395   -0.0000
C        -2.3047    2.5641   -0.0000    0.0381   -0.0394   -0.0000
C        -0.4569    4.3015   -0.0000    0.0380   -0.0393   -0.0000
C        -4.2281    0.9114   -0.0000    0.0382   -0.0395   -0.0000
C         0.9115    4.2288   -0.0000    0.0380   -0.0393   -0.0000
C        -4.3008   -0.4569   -0.0000    0.0382   -0.0395   -0.0000
C         2.5639    2.3048   -0.0000    0.0381   -0.0392   -0.0000
C        -2.5638   -2.3048   -0.0000    0.0383   -0.0394   -0.0000
C         2.9414    0.9520   -0.0000    0.0382   -0.0392   -0.0000
C        -1.2591   -2.8242   -0.0000    0.0383   -0.0394   -0.0000
C         2.8236   -1.2591   -0.0000    0.0383   -0.0392   -0.0000
C         0.9520   -2.9419    0.0000    0.0383   -0.0393   -0.0000
C         2.3046   -2.5640   -0.0000    0.0383   -0.0392   -0.0000
C         4.3008    0.4568   -0.0000    0.0382   -0.0392    0.0000
C        -0.9115   -4.2288   -0.0000    0.0384   -0.0394   -0.0000
C         4.2281   -0.9115   -0.0000    0.0382   -0.0392    0.0000
C         0.4569   -4.3014   -0.0000    0.0384   -0.0393   -0.0000
H        -3.0344    3.3753   -0.0000    0.0381   -0.0395   -0.0000
H        -1.0767    5.1949   -0.0000    0.0380   -0.0394   -0.0000
H        -5.0505    1.6227   -0.0000    0.0381   -0.0395   -0.0000
H         1.6229    5.0511   -0.0000    0.0380   -0.0393   -0.0000
H        -5.1940   -1.0770   -0.0000    0.0382   -0.0395   -0.0000
H         3.3756    3.0341   -0.0000    0.0381   -0.0392   -0.0000
H        -3.3754   -3.0341   -0.0000    0.0383   -0.0395   -0.0000
H         3.0341   -3.3754   -0.0000    0.0383   -0.0392    0.0000
H         5.1941    1.0769   -0.0000    0.0382   -0.0391    0.0000
H        -1.6227   -5.0513   -0.0000    0.0384   -0.0394   -0.0000
H         5.0504   -1.6228   -0.0000    0.0383   -0.0391    0.0000
H         1.0767   -5.1949   -0.0000    0.0384   -0.0393   -0.0000
Mg       -0.0001    0.0000    0.0000    0.0382   -0.0393   -0.0000
    37
unstable frequency at     -0.009 1/cm IR int. is 8.990 a.m.u.; force const. is 0.000 mDyne/Ang.
N         0.1100    2.0652    0.0000   -0.0393   -0.0382   -0.0000
N        -2.0647    0.1100    0.0000   -0.0393   -0.0382   -0.0000
N         2.0647   -0.1099    0.0000   -0.0393   -0.0382   -0.0000
N        -0.1099   -2.0653    0.0000   -0.0393   -0.0382   -0.0000
C        -0.9521    2.9419    0.0000   -0.0393   -0.0382   -0.0000
C        -2.8236    1.2591   -0.0000   -0.0393   -0.0382   -0.0000
C         1.2590    2.8241    0.0000   -0.0393   -0.0382   -0.0000
C        -2.9413   -0.9521   -0.0000   -0.0393   -0.0382   -0.0000
C        -2.3047    2.5641   -0.0000   -0.0393   -0.0382   -0.0000
C        -0.4569    4.3015   -0.0000   -0.0393   -0.0382   -0.0000
C        -4.2281    0.9114   -0.0000   -0.0393   -0.0382   -0.0000
C         0.9115    4.2288   -0.0000   -0.0393   -0.0382   -0.0000
C        -4.3008   -0.4569   -0.0000   -0.0393   -0.0382   -0.0000
C         2.5639    2.3048   -0.0000   -0.0393   -0.0382   -0.0000
C        -2.5638   -2.3048   -0.0000   -0.0393   -0.0382   -0.0000
C         2.9414    0.9520   -0.0000   -0.0393   -0.0382   -0.0000
C        -1.2591   -2.8242   -0.0000   -0.0393   -0.0382   -0.0000
C         2.8236   -1.2591   -0.0000   -0.0393   -0.0382   -0.0000
C         0.9520   -2.9419    0.0000   -0.0393   -0.0382   -0.0000
C         2.3046   -2.5640   -0.0000   -0.0393   -0.0382   -0.0000
C         4.3008    0.4568   -0.0000   -0.0393   -0.0382   -0.0000
C        -0.9115   -4.2288   -0.0000   -0.0393   -0.0382   -0.0000
C         4.2281   -0.9115   -0.0000   -0.0393   -0.0382   -0.0000
C         0.4569   -4.3014   -0.0000   -0.0393   -0.0382   -0.0000
H        -3.0344    3.3753   -0.0000   -0.0393   -0.0382   -0.0000
H        -1.0767    5.1949   -0.0000   -0.0393   -0.0382   -0.0000
H        -5.0505    1.6227   -0.0000   -0.0393   -0.0382   -0.0000
H         1.6229    5.0511   -0.0000   -0.0393   -0.0382   -0.0000
H        -5.1940   -1.0770   -0.0000   -0.0393   -0.0382   -0.0000
H         3.3756    3.0341   -0.0000   -0.0393   -0.0382   -0.0000
H        -3.3754   -3.0341   -0.0000   -0.0393   -0.0382   -0.0000
H         3.0341   -3.3754   -0.0000   -0.0393   -0.0382   -0.0000
H         5.1941    1.0769   -0.0000   -0.0393   -0.0382   -0.0000
H        -1.6227   -5.0513   -0.0000   -0.0393   -0.0382   -0.0000
H         5.0504   -1.6228   -0.0000   -0.0393   -0.0382   -0.0000
H         1.0767   -5.1949   -0.0000   -0.0393   -0.0382   -0.0000
Mg       -0.0001    0.0000    0.0000   -0.0393   -0.0382   -0.0000
    37
unstable frequency at     -0.001 1/cm IR int. is 8.990 a.m.u.; force const. is 0.000 mDyne/Ang.
N         0.1100    2.0652    0.0000   -0.0000   -0.0000    0.0548
N        -2.0647    0.1100    0.0000   -0.0000   -0.0000    0.0548
N         2.0647   -0.1099    0.0000   -0.0000   -0.0000    0.0548
N        -0.1099   -2.0653    0.0000   -0.0000   -0.0000    0.0548
C        -0.9521    2.9419    0.0000   -0.0000   -0.0000    0.0548
C        -2.8236    1.2591   -0.0000   -0.0000   -0.0000    0.0548
C         1.2590    2.8241    0.0000   -0.0000   -0.0000    0.0548
C        -2.9413   -0.9521   -0.0000   -0.0000   -0.0000    0.0548
C        -2.3047    2.5641   -0.0000   -0.0000   -0.0000    0.0548
C        -0.4569    4.3015   -0.0000   -0.0000   -0.0000    0.0548
C        -4.2281    0.9114   -0.0000   -0.0000   -0.0000    0.0548
C         0.9115    4.2288   -0.0000   -0.0000   -0.0000    0.0548
C        -4.3008   -0.4569   -0.0000   -0.0000   -0.0000    0.0548
C         2.5639    2.3048   -0.0000   -0.0000   -0.0000    0.0548
C        -2.5638   -2.3048   -0.0000   -0.0000   -0.0000    0.0548
C         2.9414    0.9520   -0.0000   -0.0000   -0.0000    0.0548
C        -1.2591   -2.8242   -0.0000   -0.0000   -0.0000    0.0548
C         2.8236   -1.2591   -0.0000   -0.0000   -0.0000    0.0548
C         0.9520   -2.9419    0.0000   -0.0000   -0.0000    0.0548
C         2.3046   -2.5640   -0.0000   -0.0000   -0.0000    0.0548
C         4.3008    0.4568   -0.0000   -0.0000   -0.0000    0.0548
C        -0.9115   -4.2288   -0.0000   -0.0000   -0.0000    0.0548
C         4.2281   -0.9115   -0.0000   -0.0000   -0.0000    0.0548
C         0.4569   -4.3014   -0.0000   -0.0000   -0.0000    0.0548
H        -3.0344    3.3753   -0.0000   -0.0000   -0.0000    0.0548
H        -1.0767    5.1949   -0.0000   -0.0000   -0.0000    0.0548
H        -5.0505    1.6227   -0.0000   -0.0000   -0.0000    0.0548
H         1.6229    5.0511   -0.0000   -0.0000   -0.0000    0.0548
H        -5.1940   -1.0770   -0.0000   -0.0000   -0.0000    0.0548
H         3.3756    3.0341   -0.0000   -0.0000   -0.0000    0.0548
H        -3.3754   -3.0341   -0.0000   -0.0000   -0.0000    0.0548
H         3.0341   -3.3754   -0.0000   -0.0000   -0.0000    0.0548
H         5.1941    1.0769   -0.0000   -0.0000   -0.0000    0.0549
H        -1.6227   -5.0513   -0.0000   -0.0000   -0.0000    0.0548
H         5.0504   -1.6228   -0.0000   -0.0000   -0.0000    0.0549
H         1.0767   -5.1949   -0.0000   -0.0000   -0.0000    0.0548
Mg       -0.0001    0.0000    0.0000   -0.0000   -0.0000    0.0548
    37
stable frequency at      0.299 1/cm IR int. is 6.422 a.m.u.; force const. is 0.000 mDyne/Ang.
N         0.1100    2.0652    0.0000    0.0000   -0.0000    0.0058
N        -2.0647    0.1100    0.0000    0.0000   -0.0000    0.0470
N         2.0647   -0.1099    0.0000    0.0000   -0.0000   -0.0469
N        -0.1099   -2.0653    0.0000    0.0000   -0.0000   -0.0057
C        -0.9521    2.9419    0.0000    0.0000   -0.0000    0.0331
C        -2.8236    1.2591   -0.0000    0.0000   -0.0000    0.0687
C         1.2590    2.8241    0.0000    0.0000   -0.0000   -0.0172
C        -2.9413   -0.9521   -0.0000    0.0000   -0.0000    0.0623
C        -2.3047    2.5641   -0.0000    0.0000   -0.0000    0.0623
C        -0.4569    4.3015   -0.0000    0.0000   -0.0000    0.0269
C        -4.2281    0.9114   -0.0000    0.0000   -0.0000    0.0987
C         0.9115    4.2288   -0.0000    0.0000   -0.0000   -0.0042
C        -4.3008   -0.4569   -0.0000    0.0000   -0.0000    0.0946
C         2.5639    2.3048   -0.0000    0.0000   -0.0000   -0.0484
C        -2.5638   -2.3048   -0.0000    0.0000   -0.0000    0.0486
C         2.9414    0.9520   -0.0000    0.0000   -0.0000   -0.0621
C        -1.2591   -2.8242   -0.0000    0.0000   -0.0000    0.0174
C         2.8236   -1.2591   -0.0000    0.0000   -0.0000   -0.0688
C         0.9520   -2.9419    0.0000    0.0000   -0.0000   -0.0332
C         2.3046   -2.5640   -0.0000    0.0000   -0.0000   -0.0625
C         4.3008    0.4568   -0.0000    0.0000   -0.0000   -0.0945
C        -0.9115   -4.2288   -0.0000    0.0000   -0.0000    0.0043
C         4.2281   -0.9115   -0.0000    0.0000   -0.0000   -0.0988
C         0.4569   -4.3014   -0.0000    0.0000   -0.0000   -0.0271
H        -3.0344    3.3753   -0.0000    0.0000   -0.0000    0.0819
H        -1.0767    5.1949   -0.0000    0.0000   -0.0000    0.0443
H        -5.0505    1.6227   -0.0000    0.0000   -0.0000    0.1199
H         1.6229    5.0511   -0.0000    0.0000   -0.0000   -0.0171
H        -5.1940   -1.0770   -0.0000    0.0000   -0.0000    0.1118
H         3.3756    3.0341   -0.0000    0.0000   -0.0000   -0.0636
H        -3.3754   -3.0341   -0.0000    0.0000   -0.0000    0.0639
H         3.0341   -3.3754   -0.0000    0.0000   -0.0000   -0.0823
H         5.1941    1.0769   -0.0000    0.0000   -0.0000   -0.1116
H        -1.6227   -5.0513   -0.0000    0.0000   -0.0000    0.0172
H         5.0504   -1.6228   -0.0000    0.0000   -0.0000   -0.1201
H         1.0767   -5.1949   -0.0000    0.0000   -0.0000   -0.0446
Mg       -0.0001    0.0000    0.0000    0.0000   -0.0000    0.0000
    37
stable frequency at      1.989 1/cm IR int. is 6.413 a.m.u.; force const. is 0.000 mDyne/Ang.
N         0.1100    2.0652    0.0000    0.0335   -0.0019   -0.0000
N        -2.0647    0.1100    0.0000    0.0019    0.0333    0.0000
N         2.0647   -0.1099    0.0000   -0.0017   -0.0335   -0.0000
N        -0.1099   -2.0653    0.0000   -0.0333    0.0017    0.0000
C        -0.9521    2.9419    0.0000    0.0476    0.0152   -0.0000
C        -2.8236    1.2591   -0.0000    0.0204    0.0455    0.0000
C         1.2590    2.8241    0.0000    0.0457   -0.0204   -0.0000
C        -2.9413   -0.9521   -0.0000   -0.0152    0.0474    0.0000
C        -2.3047    2.5641   -0.0000    0.0415    0.0371   -0.0000
C        -0.4569    4.3015   -0.0000    0.0695    0.0072   -0.0000
C        -4.2281    0.9114   -0.0000    0.0148    0.0682    0.0000
C         0.9115    4.2288   -0.0000    0.0684   -0.0148   -0.0000
C        -4.3008   -0.4569   -0.0000   -0.0072    0.0693    0.0000
C         2.5639    2.3048   -0.0000    0.0373   -0.0415   -0.0000
C        -2.5638   -2.3048   -0.0000   -0.0371    0.0413    0.0000
C         2.9414    0.9520   -0.0000    0.0154   -0.0476   -0.0000
C        -1.2591   -2.8242   -0.0000   -0.0455    0.0202    0.0000
C         2.8236   -1.2591   -0.0000   -0.0202   -0.0457   -0.0000
C         0.9520   -2.9419    0.0000   -0.0474   -0.0154    0.0000
C         2.3046   -2.5640   -0.0000   -0.0413   -0.0373   -0.0000
C         4.3008    0.4568   -0.0000    0.0074   -0.0695   -0.0000
C        -0.9115   -4.2288   -0.0000   -0.0682    0.0146    0.0000
C         4.2281   -0.9115   -0.0000   -0.0146   -0.0684   -0.0000
C         0.4569   -4.3014   -0.0000   -0.0693   -0.0074    0.0000
H        -3.0344    3.3753   -0.0000    0.0547    0.0489   -0.0000
H        -1.0767    5.1949   -0.0000    0.0839    0.0172   -0.0000
H        -5.0505    1.6227   -0.0000    0.0263    0.0814    0.0000
H         1.6229    5.0511   -0.0000    0.0816   -0.0263   -0.0000
H        -5.1940   -1.0770   -0.0000   -0.0172    0.0837    0.0000
H         3.3756    3.0341   -0.0000    0.0491   -0.0547   -0.0000
H        -3.3754   -3.0341   -0.0000   -0.0489    0.0545    0.0000
H         3.0341   -3.3754   -0.0000   -0.0545   -0.0491   -0.0000
H         5.1941    1.0769   -0.0000    0.0174   -0.0839   -0.0000
H        -1.6227   -5.0513   -0.0000   -0.0814    0.0261    0.0000
H         5.0504   -1.6228   -0.0000   -0.0261   -0.0816   -0.0000
H         1.0767   -5.1949   -0.0000   -0.0837   -0.0174    0.0000
Mg       -0.0001    0.0000    0.0000    0.0001   -0.0001   -0.0000
    37
stable frequency at      2.825 1/cm IR int. is 6.425 a.m.u.; force const. is 0.000 mDyne/Ang.
N         0.1100    2.0652    0.0000   -0.0000    0.0000   -0.0470
N        -2.0647    0.1100    0.0000    0.0000   -0.0000    0.0058
N         2.0647   -0.1099    0.0000    0.0000    0.0000   -0.0058
N        -0.1099   -2.0653    0.0000    0.0000    0.0000    0.0470
C        -0.9521    2.9419    0.0000   -0.0000   -0.0000   -0.0622
C        -2.8236    1.2591   -0.0000    0.0000   -0.0000   -0.0173
C         1.2590    2.8241    0.0000   -0.0000    0.0000   -0.0688
C        -2.9413   -0.9521   -0.0000    0.0000   -0.0000    0.0331
C        -2.3047    2.5641   -0.0000   -0.0000   -0.0000   -0.0485
C        -0.4569    4.3015   -0.0000   -0.0000    0.0000   -0.0945
C        -4.2281    0.9114   -0.0000    0.0000   -0.0000   -0.0043
C         0.9115    4.2288   -0.0000   -0.0000    0.0000   -0.0987
C        -4.3008   -0.4569   -0.0000    0.0000   -0.0000    0.0270
C         2.5639    2.3048   -0.0000   -0.0000    0.0000   -0.0624
C        -2.5638   -2.3048   -0.0000    0.0000   -0.0000    0.0624
C         2.9414    0.9520   -0.0000    0.0000    0.0000   -0.0332
C        -1.2591   -2.8242   -0.0000    0.0000   -0.0000    0.0687
C         2.8236   -1.2591   -0.0000    0.0000    0.0000    0.0173
C         0.9520   -2.9419    0.0000    0.0000    0.0000    0.0622
C         2.3046   -2.5640   -0.0000    0.0000    0.0000    0.0486
C         4.3008    0.4568   -0.0000    0.0000    0.0000   -0.0270
C        -0.9115   -4.2288   -0.0000    0.0000   -0.0000    0.0987
C         4.2281   -0.9115   -0.0000    0.0000    0.0000    0.0043
C         0.4569   -4.3014   -0.0000    0.0000    0.0000    0.0945
H        -3.0344    3.3753   -0.0000   -0.0000   -0.0000   -0.0637
H        -1.0767    5.1949   -0.0000   -0.0000   -0.0000   -0.1116
H        -5.0505    1.6227   -0.0000    0.0000   -0.0000   -0.0172
H         1.6229    5.0511   -0.0000   -0.0000    0.0000   -0.1199
H        -5.1940   -1.0770   -0.0000    0.0000   -0.0000    0.0444
H         3.3756    3.0341   -0.0000   -0.0000    0.0000   -0.0821
H        -3.3754   -3.0341   -0.0000    0.0000   -0.0000    0.0821
H         3.0341   -3.3754   -0.0000    0.0000    0.0000    0.0638
H         5.1941    1.0769   -0.0000    0.0000    0.0000   -0.0444
H        -1.6227   -5.0513   -0.0000    0.0000   -0.0000    0.1199
H         5.0504   -1.6228   -0.0000    0.0000    0.0000    0.0172
H         1.0767   -5.1949   -0.0000    0.0000    0.0000    0.1117
Mg       -0.0001    0.0000    0.0000    0.0000    0.0000   -0.0000
    37
stable frequency at     55.065 1/cm IR int. is 5.521 a.m.u.; force const. is 0.010 mDyne/Ang.
N         0.1100    2.0652    0.0000   -0.0000   -0.0000   -0.0193
N        -2.0647    0.1100    0.0000   -0.0000   -0.0000    0.0187
N         2.0647   -0.1099    0.0000   -0.0000   -0.0000    0.0187
N        -0.1099   -2.0653    0.0000   -0.0000   -0.0000   -0.0193
C        -0.9521    2.9419    0.0000   -0.0000   -0.0000   -0.0296
C        -2.8236    1.2591   -0.0000   -0.0000   -0.0000    0.0477
C         1.2590    2.8241    0.0000   -0.0000   -0.0000   -0.0478
C        -2.9413   -0.9521   -0.0000   -0.0000   -0.0000    0.0295
C        -2.3047    2.5641   -0.0000   -0.0000   -0.0000    0.0157
C        -0.4569    4.3015   -0.0000   -0.0000   -0.0000   -0.0789
C        -4.2281    0.9114   -0.0000   -0.0000   -0.0000    0.0924
C         0.9115    4.2288   -0.0000   -0.0000   -0.0000   -0.0918
C        -4.3008   -0.4569   -0.0000   -0.0000   -0.0000    0.0795
C         2.5639    2.3048   -0.0000   -0.0000   -0.0000   -0.0157
C        -2.5638   -2.3048   -0.0000   -0.0000   -0.0000   -0.0157
C         2.9414    0.9520   -0.0000   -0.0000   -0.0000    0.0295
C        -1.2591   -2.8242   -0.0000   -0.0000   -0.0000   -0.0478
C         2.8236   -1.2591   -0.0000   -0.0000   -0.0000    0.0477
C         0.9520   -2.9419    0.0000   -0.0000   -0.0000   -0.0296
C         2.3046   -2.5640   -0.0000   -0.0000   -0.0000    0.0157
C         4.3008    0.4568   -0.0000   -0.0000   -0.0000    0.0795
C        -0.9115   -4.2288   -0.0000   -0.0000   -0.0000   -0.0918
C         4.2281   -0.9115   -0.0000   -0.0000   -0.0000    0.0924
C         0.4569   -4.3014   -0.0000   -0.0000   -0.0000   -0.0789
H        -3.0344    3.3753   -0.0000   -0.0000   -0.0000    0.0236
H        -1.0767    5.1949   -0.0000    0.0000   -0.0000   -0.0990
H        -5.0505    1.6227   -0.0000   -0.0000    0.0000    0.1283
H         1.6229    5.0511   -0.0000    0.0000   -0.0000   -0.1271
H        -5.1940   -1.0770   -0.0000   -0.0000   -0.0000    0.1002
H         3.3756    3.0341   -0.0000   -0.0000   -0.0000   -0.0232
H        -3.3754   -3.0341   -0.0000   -0.0000   -0.0000   -0.0232
H         3.0341   -3.3754   -0.0000   -0.0000   -0.0000    0.0237
H         5.1941    1.0769   -0.0000   -0.0000   -0.0000    0.1002
H        -1.6227   -5.0513   -0.0000   -0.0000   -0.0000   -0.1271
H         5.0504   -1.6228   -0.0000   -0.0000   -0.0000    0.1283
H         1.0767   -5.1949   -0.0000   -0.0000   -0.0000   -0.0990
Mg       -0.0001    0.0000    0.0000   -0.0000   -0.0000   -0.0005
    37
stable frequency at     71.741 1/cm IR int. is 5.038 a.m.u.; force const. is 0.015 mDyne/Ang.
N         0.1100    2.0652    0.0000   -0.0000   -0.0000    0.0040
N        -2.0647    0.1100    0.0000   -0.0000   -0.0000   -0.0043
N         2.0647   -0.1099    0.0000   -0.0000   -0.0000   -0.0045
N        -0.1099   -2.0653    0.0000   -0.0000   -0.0000    0.0039
C        -0.9521    2.9419    0.0000   -0.0000   -0.0000    0.0612
C        -2.8236    1.2591   -0.0000   -0.0000   -0.0000    0.0474
C         1.2590    2.8241    0.0000   -0.0000   -0.0000   -0.0473
C        -2.9413   -0.9521   -0.0000   -0.0000   -0.0000   -0.0612
C        -2.3047    2.5641   -0.0000   -0.0000   -0.0000    0.0942
C        -0.4569    4.3015   -0.0000   -0.0000   -0.0000    0.0525
C        -4.2281    0.9114   -0.0000   -0.0000   -0.0000    0.0242
C         0.9115    4.2288   -0.0000   -0.0000   -0.0000   -0.0235
C        -4.3008   -0.4569   -0.0000   -0.0000   -0.0000   -0.0519
C         2.5639    2.3048   -0.0000   -0.0000   -0.0000   -0.0942
C        -2.5638   -2.3048   -0.0000   -0.0000   -0.0000   -0.0942
C         2.9414    0.9520   -0.0000   -0.0000   -0.0000   -0.0613
C        -1.2591   -2.8242   -0.0000   -0.0000   -0.0000   -0.0474
C         2.8236   -1.2591   -0.0000   -0.0000   -0.0000    0.0472
C         0.9520   -2.9419    0.0000   -0.0000   -0.0000    0.0612
C         2.3046   -2.5640   -0.0000   -0.0000   -0.0000    0.0941
C         4.3008    0.4568   -0.0000   -0.0000   -0.0000   -0.0522
C        -0.9115   -4.2288   -0.0000   -0.0000   -0.0000   -0.0236
C         4.2281   -0.9115   -0.0000   -0.0000   -0.0000    0.0239
C         0.4569   -4.3014   -0.0000   -0.0000   -0.0000    0.0525
H        -3.0344    3.3753   -0.0000   -0.0000   -0.0000    0.1410
H        -1.0767    5.1949   -0.0000   -0.0000   -0.0000    0.0922
H        -5.0505    1.6227   -0.0000   -0.0000   -0.0000    0.0572
H         1.6229    5.0511   -0.0000   -0.0000   -0.0000   -0.0561
H        -5.1940   -1.0770   -0.0000   -0.0000   -0.0000   -0.0912
H         3.3756    3.0341   -0.0000   -0.0000   -0.0000   -0.1406
H        -3.3754   -3.0341   -0.0000   -0.0000   -0.0000   -0.1406
H         3.0341   -3.3754   -0.0000   -0.0000   -0.0000    0.1410
H         5.1941    1.0769   -0.0000   -0.0000   -0.0000   -0.0915
H        -1.6227   -5.0513   -0.0000    0.0000   -0.0000   -0.0561
H         5.0504   -1.6228   -0.0000   -0.0000   -0.0000    0.0568
H         1.0767   -5.1949   -0.0000    0.0000   -0.0000    0.0923
Mg       -0.0001    0.0000    0.0000   -0.0000   -0.0000   -0.0004
    37
stable frequency at     78.585 1/cm IR int. is 5.785 a.m.u.; force const. is 0.021 mDyne/Ang.
N         0.1100    2.0652    0.0000    0.0000   -0.0000    0.0599
N        -2.0647    0.1100    0.0000    0.0000   -0.0000    0.0601
N         2.0647   -0.1099    0.0000    0.0000   -0.0000    0.0602
N        -0.1099   -2.0653    0.0000   -0.0000   -0.0000    0.0600
C        -0.9521    2.9419    0.0000    0.0000   -0.0000    0.0110
C        -2.8236    1.2591   -0.0000    0.0000   -0.0000    0.0107
C         1.2590    2.8241    0.0000    0.0000   -0.0000    0.0098
C        -2.9413   -0.9521   -0.0000    0.0000   -0.0000    0.0109
C        -2.3047    2.5641   -0.0000    0.0000   -0.0000    0.0004
C        -0.4569    4.3015   -0.0000    0.0000   -0.0000   -0.0619
C        -4.2281    0.9114   -0.0000    0.0000   -0.0000   -0.0621
C         0.9115    4.2288   -0.0000    0.0000   -0.0000   -0.0632
C        -4.3008   -0.4569   -0.0000    0.0000   -0.0000   -0.0616
C         2.5639    2.3048   -0.0000    0.0000   -0.0000   -0.0005
C        -2.5638   -2.3048   -0.0000   -0.0000   -0.0000   -0.0005
C         2.9414    0.9520   -0.0000    0.0000   -0.0000    0.0109
C        -1.2591   -2.8242   -0.0000   -0.0000   -0.0000    0.0099
C         2.8236   -1.2591   -0.0000    0.0000   -0.0000    0.0107
C         0.9520   -2.9419    0.0000   -0.0000   -0.0000    0.0111
C         2.3046   -2.5640   -0.0000   -0.0000   -0.0000    0.0004
C         4.3008    0.4568   -0.0000    0.0000   -0.0000   -0.0615
C        -0.9115   -4.2288   -0.0000   -0.0000   -0.0000   -0.0631
C         4.2281   -0.9115   -0.0000    0.0000   -0.0000   -0.0621
C         0.4569   -4.3014   -0.0000    0.0000   -0.0000   -0.0619
H        -3.0344    3.3753   -0.0000    0.0000   -0.0000   -0.0442
H        -1.0767    5.1949   -0.0000    0.0000    0.0000   -0.1140
H        -5.0505    1.6227   -0.0000    0.0000   -0.0000   -0.1157
H         1.6229    5.0511   -0.0000    0.0000   -0.0000   -0.1173
H        -5.1940   -1.0770   -0.0000    0.0000   -0.0000   -0.1139
H         3.3756    3.0341   -0.0000    0.0000   -0.0000   -0.0455
H        -3.3754   -3.0341   -0.0000   -0.0000   -0.0000   -0.0455
H         3.0341   -3.3754   -0.0000   -0.0000   -0.0000   -0.0442
H         5.1941    1.0769   -0.0000    0.0000   -0.0000   -0.1138
H        -1.6227   -5.0513   -0.0000    0.0000   -0.0000   -0.1172
H         5.0504   -1.6228   -0.0000   -0.0000   -0.0000   -0.1157
H         1.0767   -5.1949   -0.0000    0.0000    0.0000   -0.1140
Mg       -0.0001    0.0000    0.0000    0.0000    0.0000    0.1112
    37
stable frequency at    137.567 1/cm IR int. is 5.035 a.m.u.; force const. is 0.056 mDyne/Ang.
N         0.1100    2.0652    0.0000   -0.0000    0.0000    0.0097
N        -2.0647    0.1100    0.0000   -0.0000    0.0000   -0.0876
N         2.0647   -0.1099    0.0000   -0.0000   -0.0000    0.0877
N        -0.1099   -2.0653    0.0000   -0.0000   -0.0000   -0.0098
C        -0.9521    2.9419    0.0000   -0.0000    0.0000   -0.0406
C        -2.8236    1.2591   -0.0000   -0.0000    0.0000   -0.0237
C         1.2590    2.8241    0.0000   -0.0000    0.0000    0.0465
C        -2.9413   -0.9521   -0.0000   -0.0000    0.0000   -0.0363
C        -2.3047    2.5641   -0.0000   -0.0000    0.0000   -0.0471
C        -0.4569    4.3015   -0.0000   -0.0000    0.0000   -0.0415
C        -4.2281    0.9114   -0.0000   -0.0000    0.0000    0.0864
C         0.9115    4.2288   -0.0000   -0.0000    0.0000    0.0197
C        -4.3008   -0.4569   -0.0000   -0.0000    0.0000    0.0767
C         2.5639    2.3048   -0.0000   -0.0000   -0.0000    0.0618
C        -2.5638   -2.3048   -0.0000    0.0000    0.0000   -0.0616
C         2.9414    0.9520   -0.0000   -0.0000   -0.0000    0.0364
C        -1.2591   -2.8242   -0.0000    0.0000   -0.0000   -0.0465
C         2.8236   -1.2591   -0.0000    0.0000   -0.0000    0.0236
C         0.9520   -2.9419    0.0000    0.0000    0.0000    0.0405
C         2.3046   -2.5640   -0.0000    0.0000   -0.0000    0.0470
C         4.3008    0.4568   -0.0000   -0.0000    0.0000   -0.0766
C        -0.9115   -4.2288   -0.0000    0.0000   -0.0000   -0.0197
C         4.2281   -0.9115   -0.0000   -0.0000    0.0000   -0.0864
C         0.4569   -4.3014   -0.0000    0.0000    0.0000    0.0415
H        -3.0344    3.3753   -0.0000   -0.0000    0.0000   -0.0439
H        -1.0767    5.1949   -0.0000   -0.0000    0.0000   -0.0801
H        -5.0505    1.6227   -0.0000   -0.0000    0.0000    0.1694
H         1.6229    5.0511   -0.0000   -0.0000    0.0000    0.0404
H        -5.1940   -1.0770   -0.0000   -0.0000    0.0000    0.1491
H         3.3756    3.0341   -0.0000   -0.0000   -0.0000    0.0590
H        -3.3754   -3.0341   -0.0000   -0.0000    0.0000   -0.0588
H         3.0341   -3.3754   -0.0000    0.0000   -0.0000    0.0437
H         5.1941    1.0769   -0.0000   -0.0000    0.0000   -0.1490
H        -1.6227   -5.0513   -0.0000    0.0000   -0.0000   -0.0404
H         5.0504   -1.6228   -0.0000    0.0000    0.0000   -0.1696
H         1.0767   -5.1949   -0.0000    0.0000    0.0000    0.0800
Mg       -0.0001    0.0000    0.0000   -0.0000   -0.0000    0.0000
    37
stable frequency at    137.760 1/cm IR int. is 5.034 a.m.u.; force const. is 0.056 mDyne/Ang.
N         0.1100    2.0652    0.0000    0.0000   -0.0000    0.0875
N        -2.0647    0.1100    0.0000   -0.0000   -0.0000    0.0098
N         2.0647   -0.1099    0.0000   -0.0000   -0.0000   -0.0098
N        -0.1099   -2.0653    0.0000   -0.0000   -0.0000   -0.0875
C        -0.9521    2.9419    0.0000    0.0000   -0.0000    0.0363
C        -2.8236    1.2591   -0.0000   -0.0000   -0.0000    0.0465
C         1.2590    2.8241    0.0000    0.0000   -0.0000    0.0236
C        -2.9413   -0.9521   -0.0000   -0.0000   -0.0000   -0.0406
C        -2.3047    2.5641   -0.0000    0.0000   -0.0000    0.0617
C        -0.4569    4.3015   -0.0000    0.0000   -0.0000   -0.0767
C        -4.2281    0.9114   -0.0000   -0.0000   -0.0000    0.0197
C         0.9115    4.2288   -0.0000    0.0000   -0.0000   -0.0864
C        -4.3008   -0.4569   -0.0000   -0.0000   -0.0000   -0.0415
C         2.5639    2.3048   -0.0000    0.0000   -0.0000    0.0471
C        -2.5638   -2.3048   -0.0000   -0.0000   -0.0000   -0.0471
C         2.9414    0.9520   -0.0000    0.0000   -0.0000    0.0406
C        -1.2591   -2.8242   -0.0000   -0.0000   -0.0000   -0.0236
C         2.8236   -1.2591   -0.0000   -0.0000   -0.0000   -0.0466
C         0.9520   -2.9419    0.0000   -0.0000   -0.0000   -0.0363
C         2.3046   -2.5640   -0.0000   -0.0000   -0.0000   -0.0618
C         4.3008    0.4568   -0.0000    0.0000   -0.0000    0.0416
C        -0.9115   -4.2288   -0.0000   -0.0000   -0.0000    0.0864
C         4.2281   -0.9115   -0.0000   -0.0000   -0.0000   -0.0198
C         0.4569   -4.3014   -0.0000   -0.0000   -0.0000    0.0767
H        -3.0344    3.3753   -0.0000    0.0000   -0.0000    0.0589
H        -1.0767    5.1949   -0.0000    0.0000   -0.0000   -0.1491
H        -5.0505    1.6227   -0.0000   -0.0000   -0.0000    0.0405
H         1.6229    5.0511   -0.0000   -0.0000   -0.0000   -0.1694
H        -5.1940   -1.0770   -0.0000    0.0000   -0.0000   -0.0801
H         3.3756    3.0341   -0.0000    0.0000   -0.0000    0.0439
H        -3.3754   -3.0341   -0.0000   -0.0000   -0.0000   -0.0439
H         3.0341   -3.3754   -0.0000   -0.0000   -0.0000   -0.0590
H         5.1941    1.0769   -0.0000    0.0000   -0.0000    0.0802
H        -1.6227   -5.0513   -0.0000   -0.0000   -0.0000    0.1694
H         5.0504   -1.6228   -0.0000   -0.0000   -0.0000   -0.0405
H         1.0767   -5.1949   -0.0000   -0.0000   -0.0000    0.1491
Mg       -0.0001    0.0000    0.0000   -0.0000   -0.0000   -0.0000
    37
stable frequency at    190.976 1/cm IR int. is 7.462 a.m.u.; force const. is 0.160 mDyne/Ang.
N         0.1100    2.0652    0.0000   -0.0000   -0.0000    0.1085
N        -2.0647    0.1100    0.0000   -0.0000    0.0000   -0.1090
N         2.0647   -0.1099    0.0000   -0.0000   -0.0000   -0.1085
N        -0.1099   -2.0653    0.0000    0.0000   -0.0000    0.1087
C        -0.9521    2.9419    0.0000   -0.0000    0.0000    0.0464
C        -2.8236    1.2591   -0.0000   -0.0000    0.0000   -0.0475
C         1.2590    2.8241    0.0000   -0.0000   -0.0000    0.0472
C        -2.9413   -0.9521   -0.0000    0.0000    0.0000   -0.0466
C        -2.3047    2.5641   -0.0000   -0.0000    0.0000   -0.0011
C        -0.4569    4.3015   -0.0000   -0.0000    0.0000   -0.0255
C        -4.2281    0.9114   -0.0000   -0.0000    0.0000    0.0254
C         0.9115    4.2288   -0.0000   -0.0000   -0.0000   -0.0253
C        -4.3008   -0.4569   -0.0000    0.0000    0.0000    0.0256
C         2.5639    2.3048   -0.0000   -0.0000   -0.0000    0.0010
C        -2.5638   -2.3048   -0.0000    0.0000    0.0000    0.0011
C         2.9414    0.9520   -0.0000   -0.0000   -0.0000   -0.0463
C        -1.2591   -2.8242   -0.0000    0.0000    0.0000    0.0475
C         2.8236   -1.2591   -0.0000    0.0000   -0.0000   -0.0474
C         0.9520   -2.9419    0.0000    0.0000   -0.0000    0.0463
C         2.3046   -2.5640   -0.0000    0.0000   -0.0000   -0.0013
C         4.3008    0.4568   -0.0000   -0.0000    0.0000    0.0257
C        -0.9115   -4.2288   -0.0000    0.0000    0.0000   -0.0252
C         4.2281   -0.9115   -0.0000    0.0000   -0.0000    0.0253
C         0.4569   -4.3014   -0.0000    0.0000   -0.0000   -0.0257
H        -3.0344    3.3753   -0.0000   -0.0000    0.0000   -0.0014
H        -1.0767    5.1949   -0.0000    0.0000    0.0000   -0.0891
H        -5.0505    1.6227   -0.0000   -0.0000   -0.0000    0.0898
H         1.6229    5.0511   -0.0000    0.0000   -0.0000   -0.0894
H        -5.1940   -1.0770   -0.0000    0.0000   -0.0000    0.0896
H         3.3756    3.0341   -0.0000   -0.0000   -0.0000    0.0015
H        -3.3754   -3.0341   -0.0000    0.0000    0.0000    0.0016
H         3.0341   -3.3754   -0.0000    0.0000   -0.0000   -0.0020
H         5.1941    1.0769   -0.0000   -0.0000    0.0000    0.0895
H        -1.6227   -5.0513   -0.0000   -0.0000    0.0000   -0.0891
H         5.0504   -1.6228   -0.0000    0.0000    0.0000    0.0893
H         1.0767   -5.1949   -0.0000   -0.0000   -0.0000   -0.0896
Mg       -0.0001    0.0000    0.0000   -0.0000   -0.0000    0.0004
    37
stable frequency at    200.545 1/cm IR int. is 8.632 a.m.u.; force const. is 0.205 mDyne/Ang.
N         0.1100    2.0652    0.0000    0.0690   -0.0059    0.0000
N        -2.0647    0.1100    0.0000   -0.0059   -0.0690    0.0000
N         2.0647   -0.1099    0.0000    0.0059    0.0690   -0.0000
N        -0.1099   -2.0653    0.0000   -0.0690    0.0059   -0.0000
C        -0.9521    2.9419    0.0000    0.0476   -0.0370   -0.0000
C        -2.8236    1.2591   -0.0000    0.0271   -0.0512    0.0000
C         1.2590    2.8241    0.0000    0.0512    0.0271    0.0000
C        -2.9413   -0.9521   -0.0000   -0.0371   -0.0476    0.0000
C        -2.3047    2.5641   -0.0000    0.0526   -0.0601   -0.0000
C        -0.4569    4.3015   -0.0000    0.0094   -0.0229   -0.0000
C        -4.2281    0.9114   -0.0000    0.0168   -0.0114   -0.0000
C         0.9115    4.2288   -0.0000    0.0114    0.0168    0.0000
C        -4.3008   -0.4569   -0.0000   -0.0229   -0.0094    0.0000
C         2.5639    2.3048   -0.0000    0.0601    0.0526    0.0000
C        -2.5638   -2.3048   -0.0000   -0.0601   -0.0526   -0.0000
C         2.9414    0.9520   -0.0000    0.0371    0.0476   -0.0000
C        -1.2591   -2.8242   -0.0000   -0.0512   -0.0271   -0.0000
C         2.8236   -1.2591   -0.0000   -0.0271    0.0512   -0.0000
C         0.9520   -2.9419    0.0000   -0.0476    0.0371    0.0000
C         2.3046   -2.5640   -0.0000   -0.0526    0.0601    0.0000
C         4.3008    0.4568   -0.0000    0.0229    0.0094   -0.0000
C        -0.9115   -4.2288   -0.0000   -0.0114   -0.0168   -0.0000
C         4.2281   -0.9115   -0.0000   -0.0168    0.0114    0.0000
C         0.4569   -4.3014   -0.0000   -0.0094    0.0229    0.0000
H        -3.0344    3.3753   -0.0000    0.0543   -0.0578   -0.0000
H        -1.0767    5.1949   -0.0000   -0.0166   -0.0408   -0.0000
H        -5.0505    1.6227   -0.0000    0.0372    0.0121   -0.0000
H         1.6229    5.0511   -0.0000   -0.0121    0.0372    0.0000
H        -5.1940   -1.0770   -0.0000   -0.0408    0.0166    0.0000
H         3.3756    3.0341   -0.0000    0.0578    0.0543    0.0000
H        -3.3754   -3.0341   -0.0000   -0.0578   -0.0543   -0.0000
H         3.0341   -3.3754   -0.0000   -0.0543    0.0578    0.0000
H         5.1941    1.0769   -0.0000    0.0408   -0.0166   -0.0000
H        -1.6227   -5.0513   -0.0000    0.0121   -0.0372   -0.0000
H         5.0504   -1.6228   -0.0000   -0.0372   -0.0121    0.0000
H         1.0767   -5.1949   -0.0000    0.0166    0.0408    0.0000
Mg       -0.0001    0.0000    0.0000   -0.0000    0.0000   -0.0000
    37
stable frequency at    202.081 1/cm IR int. is 5.641 a.m.u.; force const. is 0.136 mDyne/Ang.
N         0.1100    2.0652    0.0000    0.0000   -0.0000   -0.0572
N        -2.0647    0.1100    0.0000   -0.0000   -0.0000   -0.0996
N         2.0647   -0.1099    0.0000    0.0000    0.0000    0.1001
N        -0.1099   -2.0653    0.0000   -0.0000    0.0000    0.0567
C        -0.9521    2.9419    0.0000    0.0000   -0.0000    0.0254
C        -2.8236    1.2591   -0.0000    0.0000   -0.0000   -0.0153
C         1.2590    2.8241    0.0000    0.0000    0.0000   -0.0735
C        -2.9413   -0.9521   -0.0000   -0.0000   -0.0000   -0.0693
C        -2.3047    2.5641   -0.0000    0.0000   -0.0000    0.0672
C        -0.4569    4.3015   -0.0000    0.0000   -0.0000    0.0474
C        -4.2281    0.9114   -0.0000    0.0000   -0.0000    0.0240
C         0.9115    4.2288   -0.0000    0.0000    0.0000   -0.0460
C        -4.3008   -0.4569   -0.0000   -0.0000   -0.0000   -0.0275
C         2.5639    2.3048   -0.0000    0.0000    0.0000   -0.0203
C        -2.5638   -2.3048   -0.0000   -0.0000   -0.0000    0.0202
C         2.9414    0.9520   -0.0000    0.0000    0.0000    0.0694
C        -1.2591   -2.8242   -0.0000   -0.0000   -0.0000    0.0733
C         2.8236   -1.2591   -0.0000   -0.0000    0.0000    0.0157
C         0.9520   -2.9419    0.0000   -0.0000    0.0000   -0.0256
C         2.3046   -2.5640   -0.0000   -0.0000    0.0000   -0.0672
C         4.3008    0.4568   -0.0000    0.0000    0.0000    0.0273
C        -0.9115   -4.2288   -0.0000   -0.0000   -0.0000    0.0461
C         4.2281   -0.9115   -0.0000   -0.0000    0.0000   -0.0239
C         0.4569   -4.3014   -0.0000   -0.0000    0.0000   -0.0473
H        -3.0344    3.3753   -0.0000    0.0000   -0.0000    0.1651
H        -1.0767    5.1949   -0.0000   -0.0000   -0.0000    0.1120
H        -5.0505    1.6227   -0.0000    0.0000    0.0000    0.0864
H         1.6229    5.0511   -0.0000   -0.0000    0.0000   -0.0642
H        -5.1940   -1.0770   -0.0000   -0.0000    0.0000   -0.0087
H         3.3756    3.0341   -0.0000    0.0000    0.0000   -0.0479
H        -3.3754   -3.0341   -0.0000   -0.0000   -0.0000    0.0477
H         3.0341   -3.3754   -0.0000   -0.0000    0.0000   -0.1650
H         5.1941    1.0769   -0.0000    0.0000   -0.0000    0.0082
H        -1.6227   -5.0513   -0.0000    0.0000   -0.0000    0.0646
H         5.0504   -1.6228   -0.0000   -0.0000   -0.0000   -0.0865
H         1.0767   -5.1949   -0.0000    0.0000    0.0000   -0.1116
Mg       -0.0001    0.0000    0.0000   -0.0000   -0.0000   -0.0001
    37
stable frequency at    202.117 1/cm IR int. is 5.641 a.m.u.; force const. is 0.136 mDyne/Ang.
N         0.1100    2.0652    0.0000    0.0000    0.0000   -0.0999
N        -2.0647    0.1100    0.0000    0.0000   -0.0000    0.0569
N         2.0647   -0.1099    0.0000   -0.0000    0.0000   -0.0569
N        -0.1099   -2.0653    0.0000   -0.0000   -0.0000    0.0999
C        -0.9521    2.9419    0.0000    0.0000    0.0000   -0.0694
C        -2.8236    1.2591   -0.0000    0.0000   -0.0000    0.0734
C         1.2590    2.8241    0.0000    0.0000    0.0000   -0.0155
C        -2.9413   -0.9521   -0.0000   -0.0000   -0.0000   -0.0255
C        -2.3047    2.5641   -0.0000    0.0000   -0.0000    0.0202
C        -0.4569    4.3015   -0.0000    0.0000    0.0000   -0.0273
C        -4.2281    0.9114   -0.0000    0.0000   -0.0000    0.0461
C         0.9115    4.2288   -0.0000    0.0000    0.0000    0.0241
C        -4.3008   -0.4569   -0.0000    0.0000   -0.0000   -0.0473
C         2.5639    2.3048   -0.0000    0.0000    0.0000    0.0672
C        -2.5638   -2.3048   -0.0000   -0.0000   -0.0000   -0.0672
C         2.9414    0.9520   -0.0000   -0.0000    0.0000    0.0255
C        -1.2591   -2.8242   -0.0000   -0.0000   -0.0000    0.0155
C         2.8236   -1.2591   -0.0000   -0.0000    0.0000   -0.0734
C         0.9520   -2.9419    0.0000   -0.0000   -0.0000    0.0694
C         2.3046   -2.5640   -0.0000   -0.0000    0.0000   -0.0202
C         4.3008    0.4568   -0.0000   -0.0000    0.0000    0.0473
C        -0.9115   -4.2288   -0.0000   -0.0000   -0.0000   -0.0241
C         4.2281   -0.9115   -0.0000   -0.0000    0.0000   -0.0460
C         0.4569   -4.3014   -0.0000   -0.0000   -0.0000    0.0273
H        -3.0344    3.3753   -0.0000    0.0000   -0.0000    0.0477
H        -1.0767    5.1949   -0.0000    0.0000    0.0000   -0.0083
H        -5.0505    1.6227   -0.0000    0.0000    0.0000    0.0644
H         1.6229    5.0511   -0.0000    0.0000    0.0000    0.0866
H        -5.1940   -1.0770   -0.0000   -0.0000    0.0000   -0.1117
H         3.3756    3.0341   -0.0000    0.0000    0.0000    0.1650
H        -3.3754   -3.0341   -0.0000   -0.0000   -0.0000   -0.1651
H         3.0341   -3.3754   -0.0000   -0.0000    0.0000   -0.0478
H         5.1941    1.0769   -0.0000   -0.0000   -0.0000    0.1117
H        -1.6227   -5.0513   -0.0000   -0.0000   -0.0000   -0.0866
H         5.0504   -1.6228   -0.0000   -0.0000    0.0000   -0.0644
H         1.0767   -5.1949   -0.0000   -0.0000   -0.0000    0.0083
Mg       -0.0001    0.0000    0.0000   -0.0000    0.0000   -0.0000
    37
stable frequency at    214.995 1/cm IR int. is 8.948 a.m.u.; force const. is 0.244 mDyne/Ang.
N         0.1100    2.0652    0.0000   -0.0058   -0.0573   -0.0000
N        -2.0647    0.1100    0.0000   -0.0572    0.0058    0.0000
N         2.0647   -0.1099    0.0000    0.0572   -0.0058   -0.0000
N        -0.1099   -2.0653    0.0000    0.0058    0.0573    0.0000
C        -0.9521    2.9419    0.0000   -0.0096   -0.0572   -0.0000
C        -2.8236    1.2591   -0.0000   -0.0601    0.0005    0.0000
C         1.2590    2.8241    0.0000   -0.0005   -0.0601   -0.0000
C        -2.9413   -0.9521   -0.0000   -0.0571    0.0096   -0.0000
C        -2.3047    2.5641   -0.0000   -0.0233   -0.0169   -0.0000
C        -0.4569    4.3015   -0.0000   -0.0036   -0.0641    0.0000
C        -4.2281    0.9114   -0.0000   -0.0656    0.0042    0.0000
C         0.9115    4.2288   -0.0000   -0.0042   -0.0656    0.0000
C        -4.3008   -0.4569   -0.0000   -0.0641    0.0036   -0.0000
C         2.5639    2.3048   -0.0000    0.0169   -0.0233    0.0000
C        -2.5638   -2.3048   -0.0000   -0.0169    0.0233   -0.0000
C         2.9414    0.9520   -0.0000    0.0571   -0.0096    0.0000
C        -1.2591   -2.8242   -0.0000    0.0005    0.0601   -0.0000
C         2.8236   -1.2591   -0.0000    0.0601   -0.0005   -0.0000
C         0.9520   -2.9419    0.0000    0.0096    0.0572    0.0000
C         2.3046   -2.5640   -0.0000    0.0233    0.0169   -0.0000
C         4.3008    0.4568   -0.0000    0.0641   -0.0036    0.0000
C        -0.9115   -4.2288   -0.0000    0.0043    0.0656   -0.0000
C         4.2281   -0.9115   -0.0000    0.0656   -0.0042   -0.0000
C         0.4569   -4.3014   -0.0000    0.0036    0.0642    0.0000
H        -3.0344    3.3753   -0.0000    0.0082    0.0116   -0.0000
H        -1.0767    5.1949   -0.0000   -0.0011   -0.0623    0.0000
H        -5.0505    1.6227   -0.0000   -0.0653    0.0049    0.0000
H         1.6229    5.0511   -0.0000   -0.0049   -0.0654    0.0000
H        -5.1940   -1.0770   -0.0000   -0.0623    0.0010   -0.0000
H         3.3756    3.0341   -0.0000   -0.0116    0.0082    0.0000
H        -3.3754   -3.0341   -0.0000    0.0116   -0.0082   -0.0000
H         3.0341   -3.3754   -0.0000   -0.0082   -0.0116    0.0000
H         5.1941    1.0769   -0.0000    0.0623   -0.0010    0.0000
H        -1.6227   -5.0513   -0.0000    0.0049    0.0654   -0.0000
H         5.0504   -1.6228   -0.0000    0.0653   -0.0049   -0.0000
H         1.0767   -5.1949   -0.0000    0.0011    0.0624    0.0000
Mg       -0.0001    0.0000    0.0000   -0.0000   -0.0000    0.0000
    37
stable frequency at    223.889 1/cm IR int. is 11.220 a.m.u.; force const. is 0.331 mDyne/Ang.
N         0.1100    2.0652    0.0000   -0.0000   -0.0000    0.0497
N        -2.0647    0.1100    0.0000   -0.0000    0.0000    0.0492
N         2.0647   -0.1099    0.0000    0.0000    0.0000    0.0492
N        -0.1099   -2.0653    0.0000    0.0000    0.0000    0.0497
C        -0.9521    2.9419    0.0000   -0.0000   -0.0000    0.0289
C        -2.8236    1.2591   -0.0000   -0.0000   -0.0000    0.0276
C         1.2590    2.8241    0.0000   -0.0000   -0.0000    0.0278
C        -2.9413   -0.9521   -0.0000   -0.0000    0.0000    0.0287
C        -2.3047    2.5641   -0.0000   -0.0000   -0.0000    0.0342
C        -0.4569    4.3015   -0.0000   -0.0000   -0.0000   -0.0286
C        -4.2281    0.9114   -0.0000   -0.0000    0.0000   -0.0299
C         0.9115    4.2288   -0.0000   -0.0000   -0.0000   -0.0300
C        -4.3008   -0.4569   -0.0000   -0.0000    0.0000   -0.0285
C         2.5639    2.3048   -0.0000    0.0000   -0.0000    0.0342
C        -2.5638   -2.3048   -0.0000   -0.0000    0.0000    0.0343
C         2.9414    0.9520   -0.0000    0.0000    0.0000    0.0287
C        -1.2591   -2.8242   -0.0000    0.0000    0.0000    0.0278
C         2.8236   -1.2591   -0.0000    0.0000   -0.0000    0.0276
C         0.9520   -2.9419    0.0000   -0.0000    0.0000    0.0289
C         2.3046   -2.5640   -0.0000    0.0000    0.0000    0.0343
C         4.3008    0.4568   -0.0000    0.0000   -0.0000   -0.0285
C        -0.9115   -4.2288   -0.0000    0.0000    0.0000   -0.0300
C         4.2281   -0.9115   -0.0000    0.0000   -0.0000   -0.0298
C         0.4569   -4.3014   -0.0000   -0.0000    0.0000   -0.0286
H        -3.0344    3.3753   -0.0000   -0.0000   -0.0000    0.0163
H        -1.0767    5.1949   -0.0000   -0.0000   -0.0000   -0.0650
H        -5.0505    1.6227   -0.0000   -0.0000    0.0000   -0.0677
H         1.6229    5.0511   -0.0000   -0.0000   -0.0000   -0.0681
H        -5.1940   -1.0770   -0.0000   -0.0000    0.0000   -0.0645
H         3.3756    3.0341   -0.0000   -0.0000    0.0000    0.0163
H        -3.3754   -3.0341   -0.0000    0.0000   -0.0000    0.0163
H         3.0341   -3.3754   -0.0000   -0.0000    0.0000    0.0164
H         5.1941    1.0769   -0.0000    0.0000   -0.0000   -0.0646
H        -1.6227   -5.0513   -0.0000    0.0000    0.0000   -0.0681
H         5.0504   -1.6228   -0.0000    0.0000   -0.0000   -0.0677
H         1.0767   -5.1949   -0.0000   -0.0000    0.0000   -0.0649
Mg       -0.0001    0.0000    0.0000    0.0000    0.0000   -0.1586
    37
stable frequency at    293.089 1/cm IR int. is 4.737 a.m.u.; force const. is 0.240 mDyne/Ang.
N         0.1100    2.0652    0.0000   -0.0000    0.0000    0.0013
N        -2.0647    0.1100    0.0000   -0.0000   -0.0000    0.0013
N         2.0647   -0.1099    0.0000   -0.0000   -0.0000    0.0013
N        -0.1099   -2.0653    0.0000    0.0000    0.0000    0.0012
C        -0.9521    2.9419    0.0000   -0.0000    0.0000   -0.0632
C        -2.8236    1.2591   -0.0000   -0.0000   -0.0000    0.0638
C         1.2590    2.8241    0.0000    0.0000    0.0000    0.0638
C        -2.9413   -0.9521   -0.0000    0.0000   -0.0000   -0.0631
C        -2.3047    2.5641   -0.0000   -0.0000   -0.0000   -0.0001
C        -0.4569    4.3015   -0.0000    0.0000    0.0000   -0.0708
C        -4.2281    0.9114   -0.0000   -0.0000   -0.0000    0.0694
C         0.9115    4.2288   -0.0000    0.0000   -0.0000    0.0694
C        -4.3008   -0.4569   -0.0000    0.0000   -0.0000   -0.0708
C         2.5639    2.3048   -0.0000    0.0000   -0.0000   -0.0001
C        -2.5638   -2.3048   -0.0000    0.0000   -0.0000   -0.0001
C         2.9414    0.9520   -0.0000    0.0000   -0.0000   -0.0632
C        -1.2591   -2.8242   -0.0000    0.0000    0.0000    0.0637
C         2.8236   -1.2591   -0.0000   -0.0000   -0.0000    0.0638
C         0.9520   -2.9419    0.0000   -0.0000    0.0000   -0.0632
C         2.3046   -2.5640   -0.0000   -0.0000   -0.0000   -0.0001
C         4.3008    0.4568   -0.0000   -0.0000   -0.0000   -0.0709
C        -0.9115   -4.2288   -0.0000    0.0000    0.0000    0.0694
C         4.2281   -0.9115   -0.0000   -0.0000   -0.0000    0.0694
C         0.4569   -4.3014   -0.0000    0.0000    0.0000   -0.0708
H        -3.0344    3.3753   -0.0000   -0.0000   -0.0000   -0.0016
H        -1.0767    5.1949   -0.0000    0.0000    0.0000   -0.1321
H        -5.0505    1.6227   -0.0000   -0.0000   -0.0000    0.1321
H         1.6229    5.0511   -0.0000    0.0000   -0.0000    0.1321
H        -5.1940   -1.0770   -0.0000    0.0000   -0.0000   -0.1320
H         3.3756    3.0341   -0.0000    0.0000   -0.0000   -0.0015
H        -3.3754   -3.0341   -0.0000    0.0000   -0.0000   -0.0016
H         3.0341   -3.3754   -0.0000   -0.0000   -0.0000   -0.0014
H         5.1941    1.0769   -0.0000    0.0000   -0.0000   -0.1321
H        -1.6227   -5.0513   -0.0000    0.0000    0.0000    0.1321
H         5.0504   -1.6228   -0.0000   -0.0000   -0.0000    0.1322
H         1.0767   -5.1949   -0.0000    0.0000    0.0000   -0.1319
Mg       -0.0001    0.0000    0.0000   -0.0000    0.0000   -0.0009
    37
stable frequency at    317.915 1/cm IR int. is 8.165 a.m.u.; force const. is 0.486 mDyne/Ang.
N         0.1100    2.0652    0.0000    0.0006    0.0565   -0.0000
N        -2.0647    0.1100    0.0000    0.0016   -0.0304   -0.0000
N         2.0647   -0.1099    0.0000    0.0015   -0.0304   -0.0000
N        -0.1099   -2.0653    0.0000    0.0006    0.0565   -0.0000
C        -0.9521    2.9419    0.0000   -0.0175    0.0348    0.0000
C        -2.8236    1.2591   -0.0000   -0.0107   -0.0387   -0.0000
C         1.2590    2.8241    0.0000    0.0163    0.0326   -0.0000
C        -2.9413   -0.9521   -0.0000    0.0106   -0.0385    0.0000
C        -2.3047    2.5641   -0.0000   -0.0160   -0.0238    0.0000
C        -0.4569    4.3015   -0.0000   -0.0047    0.0375    0.0000
C        -4.2281    0.9114   -0.0000   -0.0119   -0.0727   -0.0000
C         0.9115    4.2288   -0.0000    0.0022    0.0371   -0.0000
C        -4.3008   -0.4569   -0.0000    0.0089   -0.0734    0.0000
C         2.5639    2.3048   -0.0000    0.0102   -0.0249    0.0000
C        -2.5638   -2.3048   -0.0000    0.0102   -0.0249    0.0000
C         2.9414    0.9520   -0.0000    0.0106   -0.0385    0.0000
C        -1.2591   -2.8242   -0.0000    0.0163    0.0326   -0.0000
C         2.8236   -1.2591   -0.0000   -0.0107   -0.0387   -0.0000
C         0.9520   -2.9419    0.0000   -0.0175    0.0348    0.0000
C         2.3046   -2.5640   -0.0000   -0.0160   -0.0238    0.0000
C         4.3008    0.4568   -0.0000    0.0089   -0.0734    0.0000
C        -0.9115   -4.2288   -0.0000    0.0022    0.0371   -0.0000
C         4.2281   -0.9115   -0.0000   -0.0119   -0.0727   -0.0000
C         0.4569   -4.3014   -0.0000   -0.0047    0.0375    0.0000
H        -3.0344    3.3753   -0.0000   -0.0386   -0.0431    0.0000
H        -1.0767    5.1949   -0.0000    0.0070    0.0459    0.0000
H        -5.0505    1.6227   -0.0000   -0.0292   -0.0930   -0.0000
H         1.6229    5.0511   -0.0000   -0.0090    0.0474   -0.0000
H        -5.1940   -1.0770   -0.0000    0.0234   -0.0939    0.0000
H         3.3756    3.0341   -0.0000    0.0280   -0.0435    0.0000
H        -3.3754   -3.0341   -0.0000    0.0280   -0.0435    0.0000
H         3.0341   -3.3754   -0.0000   -0.0386   -0.0430    0.0000
H         5.1941    1.0769   -0.0000    0.0234   -0.0939   -0.0000
H        -1.6227   -5.0513   -0.0000   -0.0090    0.0474   -0.0000
H         5.0504   -1.6228   -0.0000   -0.0292   -0.0930   -0.0000
H         1.0767   -5.1949   -0.0000    0.0070    0.0459    0.0000
Mg       -0.0001    0.0000    0.0000    0.0116    0.1130    0.0000
    37
stable frequency at    317.969 1/cm IR int. is 8.160 a.m.u.; force const. is 0.486 mDyne/Ang.
N         0.1100    2.0652    0.0000   -0.0305   -0.0015   -0.0000
N        -2.0647    0.1100    0.0000    0.0566   -0.0006   -0.0000
N         2.0647   -0.1099    0.0000    0.0566   -0.0006   -0.0000
N        -0.1099   -2.0653    0.0000   -0.0305   -0.0015   -0.0000
C        -0.9521    2.9419    0.0000   -0.0386   -0.0105   -0.0000
C        -2.8236    1.2591   -0.0000    0.0327   -0.0163    0.0000
C         1.2590    2.8241    0.0000   -0.0387    0.0106    0.0000
C        -2.9413   -0.9521   -0.0000    0.0349    0.0175   -0.0000
C        -2.3047    2.5641   -0.0000   -0.0249   -0.0101    0.0000
C        -0.4569    4.3015   -0.0000   -0.0734   -0.0088   -0.0000
C        -4.2281    0.9114   -0.0000    0.0372   -0.0022    0.0000
C         0.9115    4.2288   -0.0000   -0.0727    0.0119   -0.0000
C        -4.3008   -0.4569   -0.0000    0.0376    0.0047   -0.0000
C         2.5639    2.3048   -0.0000   -0.0238    0.0159    0.0000
C        -2.5638   -2.3048   -0.0000   -0.0238    0.0159    0.0000
C         2.9414    0.9520   -0.0000    0.0349    0.0175   -0.0000
C        -1.2591   -2.8242   -0.0000   -0.0387    0.0106    0.0000
C         2.8236   -1.2591   -0.0000    0.0327   -0.0163    0.0000
C         0.9520   -2.9419    0.0000   -0.0386   -0.0105   -0.0000
C         2.3046   -2.5640   -0.0000   -0.0249   -0.0101    0.0000
C         4.3008    0.4568   -0.0000    0.0376    0.0047   -0.0000
C        -0.9115   -4.2288   -0.0000   -0.0727    0.0119    0.0000
C         4.2281   -0.9115   -0.0000    0.0373   -0.0022    0.0000
C         0.4569   -4.3014   -0.0000   -0.0734   -0.0088   -0.0000
H        -3.0344    3.3753   -0.0000   -0.0436   -0.0280    0.0000
H        -1.0767    5.1949   -0.0000   -0.0938   -0.0233   -0.0000
H        -5.0505    1.6227   -0.0000    0.0475    0.0090    0.0000
H         1.6229    5.0511   -0.0000   -0.0930    0.0291    0.0000
H        -5.1940   -1.0770   -0.0000    0.0460   -0.0070   -0.0000
H         3.3756    3.0341   -0.0000   -0.0431    0.0386    0.0000
H        -3.3754   -3.0341   -0.0000   -0.0431    0.0386    0.0000
H         3.0341   -3.3754   -0.0000   -0.0436   -0.0280    0.0000
H         5.1941    1.0769   -0.0000    0.0460   -0.0070   -0.0000
H        -1.6227   -5.0513   -0.0000   -0.0929    0.0291    0.0000
H         5.0504   -1.6228   -0.0000    0.0475    0.0090    0.0000
H         1.0767   -5.1949   -0.0000   -0.0938   -0.0233   -0.0000
Mg       -0.0001    0.0000    0.0000    0.1128   -0.0116    0.0000
    37
stable frequency at    334.782 1/cm IR int. is 3.577 a.m.u.; force const. is 0.236 mDyne/Ang.
N         0.1100    2.0652    0.0000    0.0000   -0.0000   -0.0592
N        -2.0647    0.1100    0.0000   -0.0000    0.0000   -0.0592
N         2.0647   -0.1099    0.0000   -0.0000    0.0000   -0.0592
N        -0.1099   -2.0653    0.0000    0.0000   -0.0000   -0.0592
C        -0.9521    2.9419    0.0000    0.0000   -0.0000   -0.0056
C        -2.8236    1.2591   -0.0000   -0.0000    0.0000   -0.0047
C         1.2590    2.8241    0.0000    0.0000   -0.0000   -0.0047
C        -2.9413   -0.9521   -0.0000   -0.0000    0.0000   -0.0056
C        -2.3047    2.5641   -0.0000    0.0000    0.0000    0.1029
C        -0.4569    4.3015   -0.0000    0.0000   -0.0000   -0.0249
C        -4.2281    0.9114   -0.0000   -0.0000    0.0000   -0.0242
C         0.9115    4.2288   -0.0000    0.0000   -0.0000   -0.0242
C        -4.3008   -0.4569   -0.0000   -0.0000    0.0000   -0.0250
C         2.5639    2.3048   -0.0000    0.0000    0.0000    0.1029
C        -2.5638   -2.3048   -0.0000    0.0000    0.0000    0.1030
C         2.9414    0.9520   -0.0000   -0.0000    0.0000   -0.0055
C        -1.2591   -2.8242   -0.0000    0.0000   -0.0000   -0.0047
C         2.8236   -1.2591   -0.0000   -0.0000    0.0000   -0.0047
C         0.9520   -2.9419    0.0000    0.0000   -0.0000   -0.0055
C         2.3046   -2.5640   -0.0000    0.0000    0.0000    0.1029
C         4.3008    0.4568   -0.0000   -0.0000    0.0000   -0.0249
C        -0.9115   -4.2288   -0.0000    0.0000   -0.0000   -0.0242
C         4.2281   -0.9115   -0.0000   -0.0000    0.0000   -0.0242
C         0.4569   -4.3014   -0.0000    0.0000   -0.0000   -0.0250
H        -3.0344    3.3753   -0.0000    0.0000    0.0000    0.2276
H        -1.0767    5.1949   -0.0000   -0.0000   -0.0000   -0.0355
H        -5.0505    1.6227   -0.0000   -0.0000    0.0000   -0.0357
H         1.6229    5.0511   -0.0000    0.0000   -0.0000   -0.0357
H        -5.1940   -1.0770   -0.0000   -0.0000    0.0000   -0.0356
H         3.3756    3.0341   -0.0000    0.0000    0.0000    0.2276
H        -3.3754   -3.0341   -0.0000    0.0000    0.0000    0.2277
H         3.0341   -3.3754   -0.0000    0.0000    0.0000    0.2277
H         5.1941    1.0769   -0.0000   -0.0000    0.0000   -0.0354
H        -1.6227   -5.0513   -0.0000    0.0000   -0.0000   -0.0357
H         5.0504   -1.6228   -0.0000   -0.0000    0.0000   -0.0358
H         1.0767   -5.1949   -0.0000   -0.0000   -0.0000   -0.0356
Mg       -0.0001    0.0000    0.0000   -0.0000   -0.0000    0.0245
    37
stable frequency at    341.491 1/cm IR int. is 5.517 a.m.u.; force const. is 0.379 mDyne/Ang.
N         0.1100    2.0652    0.0000   -0.0063    0.0240   -0.0000
N        -2.0647    0.1100    0.0000   -0.0015   -0.0801   -0.0000
N         2.0647   -0.1099    0.0000   -0.0015   -0.0801   -0.0000
N        -0.1099   -2.0653    0.0000   -0.0063    0.0240   -0.0000
C        -0.9521    2.9419    0.0000    0.0069    0.0290   -0.0000
C        -2.8236    1.2591   -0.0000    0.0650   -0.0422   -0.0000
C         1.2590    2.8241    0.0000   -0.0123    0.0186    0.0000
C        -2.9413   -0.9521   -0.0000   -0.0644   -0.0368   -0.0000
C        -2.3047    2.5641   -0.0000    0.0339   -0.0300    0.0000
C        -0.4569    4.3015   -0.0000    0.0050    0.0342   -0.0000
C        -4.2281    0.9114   -0.0000    0.0524    0.0450   -0.0000
C         0.9115    4.2288   -0.0000    0.0053    0.0259   -0.0000
C        -4.3008   -0.4569   -0.0000   -0.0412    0.0499   -0.0000
C         2.5639    2.3048   -0.0000   -0.0437   -0.0328    0.0000
C        -2.5638   -2.3048   -0.0000   -0.0437   -0.0328    0.0000
C         2.9414    0.9520   -0.0000   -0.0644   -0.0367   -0.0000
C        -1.2591   -2.8242   -0.0000   -0.0123    0.0186    0.0000
C         2.8236   -1.2591   -0.0000    0.0650   -0.0423    0.0000
C         0.9520   -2.9419    0.0000    0.0069    0.0290   -0.0000
C         2.3046   -2.5640   -0.0000    0.0339   -0.0300    0.0000
C         4.3008    0.4568   -0.0000   -0.0411    0.0499   -0.0000
C        -0.9115   -4.2288   -0.0000    0.0053    0.0259   -0.0000
C         4.2281   -0.9115   -0.0000    0.0524    0.0450   -0.0000
C         0.4569   -4.3014   -0.0000    0.0050    0.0341   -0.0000
H        -3.0344    3.3753   -0.0000   -0.0088   -0.0685    0.0000
H        -1.0767    5.1949   -0.0000    0.0068    0.0353   -0.0000
H        -5.0505    1.6227   -0.0000    0.1053    0.1065   -0.0000
H         1.6229    5.0511   -0.0000    0.0143    0.0182   -0.0000
H        -5.1940   -1.0770   -0.0000   -0.0865    0.1155   -0.0000
H         3.3756    3.0341   -0.0000   -0.0109   -0.0692    0.0000
H        -3.3754   -3.0341   -0.0000   -0.0109   -0.0693    0.0000
H         3.0341   -3.3754   -0.0000   -0.0089   -0.0685    0.0000
H         5.1941    1.0769   -0.0000   -0.0865    0.1155   -0.0000
H        -1.6227   -5.0513   -0.0000    0.0143    0.0182   -0.0000
H         5.0504   -1.6228   -0.0000    0.1054    0.1066   -0.0000
H         1.0767   -5.1949   -0.0000    0.0068    0.0353   -0.0000
Mg       -0.0001    0.0000    0.0000    0.0005   -0.0068    0.0000
    37
stable frequency at    341.526 1/cm IR int. is 5.514 a.m.u.; force const. is 0.379 mDyne/Ang.
N         0.1100    2.0652    0.0000    0.0801   -0.0016    0.0000
N        -2.0647    0.1100    0.0000   -0.0238   -0.0063    0.0000
N         2.0647   -0.1099    0.0000   -0.0240   -0.0063    0.0000
N        -0.1099   -2.0653    0.0000    0.0801   -0.0014    0.0000
C        -0.9521    2.9419    0.0000    0.0367   -0.0645   -0.0000
C        -2.8236    1.2591   -0.0000   -0.0185   -0.0124    0.0000
C         1.2590    2.8241    0.0000    0.0422    0.0649    0.0000
C        -2.9413   -0.9521   -0.0000   -0.0288    0.0069   -0.0000
C        -2.3047    2.5641   -0.0000    0.0328   -0.0437   -0.0000
C        -0.4569    4.3015   -0.0000   -0.0500   -0.0412    0.0000
C        -4.2281    0.9114   -0.0000   -0.0257    0.0053    0.0000
C         0.9115    4.2288   -0.0000   -0.0451    0.0523    0.0000
C        -4.3008   -0.4569   -0.0000   -0.0340    0.0050    0.0000
C         2.5639    2.3048   -0.0000    0.0300    0.0339   -0.0000
C        -2.5638   -2.3048   -0.0000    0.0300    0.0339   -0.0000
C         2.9414    0.9520   -0.0000   -0.0290    0.0069   -0.0000
C        -1.2591   -2.8242   -0.0000    0.0422    0.0651    0.0000
C         2.8236   -1.2591   -0.0000   -0.0187   -0.0123    0.0000
C         0.9520   -2.9419    0.0000    0.0367   -0.0643   -0.0000
C         2.3046   -2.5640   -0.0000    0.0328   -0.0436   -0.0000
C         4.3008    0.4568   -0.0000   -0.0342    0.0050   -0.0000
C        -0.9115   -4.2288   -0.0000   -0.0451    0.0526    0.0000
C         4.2281   -0.9115   -0.0000   -0.0259    0.0053    0.0000
C         0.4569   -4.3014   -0.0000   -0.0501   -0.0411   -0.0000
H        -3.0344    3.3753   -0.0000    0.0692   -0.0110   -0.0000
H        -1.0767    5.1949   -0.0000   -0.1156   -0.0866    0.0000
H        -5.0505    1.6227   -0.0000   -0.0179    0.0143    0.0000
H         1.6229    5.0511   -0.0000   -0.1067    0.1053    0.0000
H        -5.1940   -1.0770   -0.0000   -0.0351    0.0068    0.0000
H         3.3756    3.0341   -0.0000    0.0683   -0.0088   -0.0000
H        -3.3754   -3.0341   -0.0000    0.0685   -0.0088   -0.0000
H         3.0341   -3.3754   -0.0000    0.0691   -0.0109   -0.0000
H         5.1941    1.0769   -0.0000   -0.0353    0.0068    0.0000
H        -1.6227   -5.0513   -0.0000   -0.1067    0.1056    0.0000
H         5.0504   -1.6228   -0.0000   -0.0182    0.0143    0.0000
H         1.0767   -5.1949   -0.0000   -0.1157   -0.0864    0.0000
Mg       -0.0001    0.0000    0.0000    0.0068    0.0005    0.0000
    37
stable frequency at    352.662 1/cm IR int. is 8.163 a.m.u.; force const. is 0.598 mDyne/Ang.
N         0.1100    2.0652    0.0000   -0.0031   -0.0612   -0.0000
N        -2.0647    0.1100    0.0000    0.0613   -0.0029   -0.0000
N         2.0647   -0.1099    0.0000   -0.0612    0.0029    0.0000
N        -0.1099   -2.0653    0.0000    0.0028    0.0612    0.0000
C        -0.9521    2.9419    0.0000    0.0117   -0.0550    0.0000
C        -2.8236    1.2591   -0.0000    0.0530   -0.0171   -0.0000
C         1.2590    2.8241    0.0000   -0.0172   -0.0530   -0.0000
C        -2.9413   -0.9521   -0.0000    0.0552    0.0117    0.0000
C        -2.3047    2.5641   -0.0000    0.0213   -0.0236   -0.0000
C        -0.4569    4.3015   -0.0000   -0.0013   -0.0641    0.0000
C        -4.2281    0.9114   -0.0000    0.0636   -0.0057   -0.0000
C         0.9115    4.2288   -0.0000   -0.0056   -0.0635   -0.0000
C        -4.3008   -0.4569   -0.0000    0.0643   -0.0014    0.0000
C         2.5639    2.3048   -0.0000   -0.0238   -0.0214    0.0000
C        -2.5638   -2.3048   -0.0000    0.0236    0.0213    0.0000
C         2.9414    0.9520   -0.0000   -0.0551   -0.0118    0.0000
C        -1.2591   -2.8242   -0.0000    0.0170    0.0528   -0.0000
C         2.8236   -1.2591   -0.0000   -0.0529    0.0171   -0.0000
C         0.9520   -2.9419    0.0000   -0.0118    0.0552    0.0000
C         2.3046   -2.5640   -0.0000   -0.0214    0.0238    0.0000
C         4.3008    0.4568   -0.0000   -0.0642    0.0014    0.0000
C        -0.9115   -4.2288   -0.0000    0.0058    0.0634   -0.0000
C         4.2281   -0.9115   -0.0000   -0.0635    0.0057   -0.0000
C         0.4569   -4.3014   -0.0000    0.0015    0.0643    0.0000
H        -3.0344    3.3753   -0.0000    0.0227   -0.0241    0.0000
H        -1.0767    5.1949   -0.0000   -0.0106   -0.0712    0.0000
H        -5.0505    1.6227   -0.0000    0.0713    0.0020   -0.0000
H         1.6229    5.0511   -0.0000    0.0022   -0.0714   -0.0000
H        -5.1940   -1.0770   -0.0000    0.0715   -0.0108    0.0000
H         3.3756    3.0341   -0.0000   -0.0242   -0.0229    0.0000
H        -3.3754   -3.0341   -0.0000    0.0239    0.0228    0.0000
H         3.0341   -3.3754   -0.0000   -0.0229    0.0241    0.0000
H         5.1941    1.0769   -0.0000   -0.0714    0.0109    0.0000
H        -1.6227   -5.0513   -0.0000   -0.0018    0.0710   -0.0000
H         5.0504   -1.6228   -0.0000   -0.0712   -0.0020   -0.0000
H         1.0767   -5.1949   -0.0000    0.0111    0.0715    0.0000
Mg       -0.0001    0.0000    0.0000    0.0000   -0.0001   -0.0000
    37
stable frequency at    402.216 1/cm IR int. is 4.933 a.m.u.; force const. is 0.470 mDyne/Ang.
N         0.1100    2.0652    0.0000   -0.0695    0.0033    0.0000
N        -2.0647    0.1100    0.0000   -0.0033   -0.0695   -0.0000
N         2.0647   -0.1099    0.0000    0.0033    0.0695    0.0000
N        -0.1099   -2.0653    0.0000    0.0695   -0.0033   -0.0000
C        -0.9521    2.9419    0.0000   -0.0334    0.0526    0.0000
C        -2.8236    1.2591   -0.0000    0.0494   -0.0387   -0.0000
C         1.2590    2.8241    0.0000   -0.0388   -0.0493   -0.0000
C        -2.9413   -0.9521   -0.0000   -0.0526   -0.0333   -0.0000
C        -2.3047    2.5641   -0.0000   -0.0106   -0.0094   -0.0000
C        -0.4569    4.3015   -0.0000    0.0265    0.0377    0.0000
C        -4.2281    0.9114   -0.0000    0.0413    0.0226    0.0000
C         0.9115    4.2288   -0.0000    0.0224   -0.0412   -0.0000
C        -4.3008   -0.4569   -0.0000   -0.0378    0.0267   -0.0000
C         2.5639    2.3048   -0.0000   -0.0094    0.0106   -0.0000
C        -2.5638   -2.3048   -0.0000    0.0094   -0.0106    0.0000
C         2.9414    0.9520   -0.0000    0.0526    0.0333    0.0000
C        -1.2591   -2.8242   -0.0000    0.0388    0.0493    0.0000
C         2.8236   -1.2591   -0.0000   -0.0494    0.0388   -0.0000
C         0.9520   -2.9419    0.0000    0.0333   -0.0525    0.0000
C         2.3046   -2.5640   -0.0000    0.0106    0.0094    0.0000
C         4.3008    0.4568   -0.0000    0.0378   -0.0267    0.0000
C        -0.9115   -4.2288   -0.0000   -0.0224    0.0412    0.0000
C         4.2281   -0.9115   -0.0000   -0.0413   -0.0226   -0.0000
C         0.4569   -4.3014   -0.0000   -0.0265   -0.0377   -0.0000
H        -3.0344    3.3753   -0.0000   -0.0705   -0.0632   -0.0000
H        -1.0767    5.1949   -0.0000    0.0805    0.0749    0.0000
H        -5.0505    1.6227   -0.0000    0.0845    0.0728    0.0000
H         1.6229    5.0511   -0.0000    0.0725   -0.0843   -0.0000
H        -5.1940   -1.0770   -0.0000   -0.0750    0.0808   -0.0000
H         3.3756    3.0341   -0.0000   -0.0632    0.0705   -0.0000
H        -3.3754   -3.0341   -0.0000    0.0632   -0.0705    0.0000
H         3.0341   -3.3754   -0.0000    0.0705    0.0632    0.0000
H         5.1941    1.0769   -0.0000    0.0750   -0.0808    0.0000
H        -1.6227   -5.0513   -0.0000   -0.0725    0.0843   -0.0000
H         5.0504   -1.6228   -0.0000   -0.0845   -0.0728   -0.0000
H         1.0767   -5.1949   -0.0000   -0.0804   -0.0748   -0.0000
Mg       -0.0001    0.0000    0.0000    0.0000   -0.0000    0.0000
    37
stable frequency at    410.865 1/cm IR int. is 4.254 a.m.u.; force const. is 0.423 mDyne/Ang.
N         0.1100    2.0652    0.0000   -0.0007    0.0002   -0.0000
N        -2.0647    0.1100    0.0000    0.0002    0.0009   -0.0000
N         2.0647   -0.1099    0.0000   -0.0002   -0.0009   -0.0000
N        -0.1099   -2.0653    0.0000    0.0007   -0.0001    0.0000
C        -0.9521    2.9419    0.0000   -0.0152   -0.0232   -0.0000
C        -2.8236    1.2591   -0.0000    0.0246    0.0124   -0.0000
C         1.2590    2.8241    0.0000   -0.0123    0.0247    0.0000
C        -2.9413   -0.9521   -0.0000   -0.0230    0.0153    0.0000
C        -2.3047    2.5641   -0.0000    0.0004   -0.0006    0.0000
C        -0.4569    4.3015   -0.0000   -0.0869   -0.0190   -0.0000
C        -4.2281    0.9114   -0.0000    0.0279    0.0844   -0.0000
C         0.9115    4.2288   -0.0000   -0.0845    0.0280    0.0000
C        -4.3008   -0.4569   -0.0000   -0.0189    0.0868    0.0000
C         2.5639    2.3048   -0.0000    0.0007    0.0004   -0.0000
C        -2.5638   -2.3048   -0.0000   -0.0007   -0.0004    0.0000
C         2.9414    0.9520   -0.0000    0.0230   -0.0153   -0.0000
C        -1.2591   -2.8242   -0.0000    0.0123   -0.0247   -0.0000
C         2.8236   -1.2591   -0.0000   -0.0246   -0.0124   -0.0000
C         0.9520   -2.9419    0.0000    0.0152    0.0231    0.0000
C         2.3046   -2.5640   -0.0000   -0.0004    0.0006   -0.0000
C         4.3008    0.4568   -0.0000    0.0188   -0.0868    0.0000
C        -0.9115   -4.2288   -0.0000    0.0845   -0.0280   -0.0000
C         4.2281   -0.9115   -0.0000   -0.0279   -0.0844    0.0000
C         0.4569   -4.3014   -0.0000    0.0869    0.0190    0.0000
H        -3.0344    3.3753   -0.0000    0.0012   -0.0014    0.0000
H        -1.0767    5.1949   -0.0000   -0.1323   -0.0508   -0.0000
H        -5.0505    1.6227   -0.0000    0.0669    0.1299   -0.0000
H         1.6229    5.0511   -0.0000   -0.1301    0.0671    0.0000
H        -5.1940   -1.0770   -0.0000   -0.0507    0.1320    0.0000
H         3.3756    3.0341   -0.0000    0.0016    0.0010   -0.0000
H        -3.3754   -3.0341   -0.0000   -0.0015   -0.0010    0.0000
H         3.0341   -3.3754   -0.0000   -0.0011    0.0014   -0.0000
H         5.1941    1.0769   -0.0000    0.0506   -0.1320    0.0000
H        -1.6227   -5.0513   -0.0000    0.1301   -0.0671   -0.0000
H         5.0504   -1.6228   -0.0000   -0.0669   -0.1299    0.0000
H         1.0767   -5.1949   -0.0000    0.1322    0.0508    0.0000
Mg       -0.0001    0.0000    0.0000   -0.0000   -0.0000    0.0000
    37
stable frequency at    431.038 1/cm IR int. is 3.684 a.m.u.; force const. is 0.403 mDyne/Ang.
N         0.1100    2.0652    0.0000   -0.0000   -0.0000   -0.0442
N        -2.0647    0.1100    0.0000   -0.0000   -0.0000   -0.0115
N         2.0647   -0.1099    0.0000   -0.0000    0.0000    0.0115
N        -0.1099   -2.0653    0.0000    0.0000   -0.0000    0.0442
C        -0.9521    2.9419    0.0000   -0.0000   -0.0000    0.0007
C        -2.8236    1.2591   -0.0000    0.0000    0.0000   -0.0354
C         1.2590    2.8241    0.0000   -0.0000   -0.0000    0.0201
C        -2.9413   -0.9521   -0.0000   -0.0000    0.0000    0.0406
C        -2.3047    2.5641   -0.0000    0.0000   -0.0000    0.0970
C        -0.4569    4.3015   -0.0000    0.0000   -0.0000   -0.0375
C        -4.2281    0.9114   -0.0000    0.0000    0.0000   -0.0843
C         0.9115    4.2288   -0.0000    0.0000   -0.0000    0.0023
C        -4.3008   -0.4569   -0.0000   -0.0000    0.0000    0.0765
C         2.5639    2.3048   -0.0000   -0.0000   -0.0000    0.0589
C        -2.5638   -2.3048   -0.0000   -0.0000   -0.0000   -0.0588
C         2.9414    0.9520   -0.0000   -0.0000    0.0000   -0.0406
C        -1.2591   -2.8242   -0.0000   -0.0000   -0.0000   -0.0200
C         2.8236   -1.2591   -0.0000    0.0000    0.0000    0.0354
C         0.9520   -2.9419    0.0000    0.0000   -0.0000   -0.0007
C         2.3046   -2.5640   -0.0000    0.0000   -0.0000   -0.0970
C         4.3008    0.4568   -0.0000   -0.0000    0.0000   -0.0765
C        -0.9115   -4.2288   -0.0000   -0.0000   -0.0000   -0.0024
C         4.2281   -0.9115   -0.0000    0.0000    0.0000    0.0843
C         0.4569   -4.3014   -0.0000   -0.0000   -0.0000    0.0375
H        -3.0344    3.3753   -0.0000    0.0000    0.0000    0.1886
H        -1.0767    5.1949   -0.0000    0.0000   -0.0000   -0.0792
H        -5.0505    1.6227   -0.0000    0.0000    0.0000   -0.1668
H         1.6229    5.0511   -0.0000    0.0000   -0.0000   -0.0034
H        -5.1940   -1.0770   -0.0000   -0.0000    0.0000    0.1435
H         3.3756    3.0341   -0.0000   -0.0000    0.0000    0.1133
H        -3.3754   -3.0341   -0.0000   -0.0000   -0.0000   -0.1132
H         3.0341   -3.3754   -0.0000    0.0000    0.0000   -0.1886
H         5.1941    1.0769   -0.0000   -0.0000    0.0000   -0.1435
H        -1.6227   -5.0513   -0.0000   -0.0000   -0.0000    0.0033
H         5.0504   -1.6228   -0.0000    0.0000    0.0000    0.1669
H         1.0767   -5.1949   -0.0000   -0.0000   -0.0000    0.0792
Mg       -0.0001    0.0000    0.0000    0.0000    0.0000    0.0000
    37
stable frequency at    431.055 1/cm IR int. is 3.684 a.m.u.; force const. is 0.403 mDyne/Ang.
N         0.1100    2.0652    0.0000    0.0000    0.0000    0.0115
N        -2.0647    0.1100    0.0000    0.0000   -0.0000   -0.0442
N         2.0647   -0.1099    0.0000   -0.0000   -0.0000    0.0442
N        -0.1099   -2.0653    0.0000    0.0000    0.0000   -0.0115
C        -0.9521    2.9419    0.0000    0.0000    0.0000   -0.0406
C        -2.8236    1.2591   -0.0000   -0.0000   -0.0000    0.0201
C         1.2590    2.8241    0.0000    0.0000    0.0000    0.0354
C        -2.9413   -0.9521   -0.0000    0.0000   -0.0000    0.0007
C        -2.3047    2.5641   -0.0000   -0.0000    0.0000    0.0588
C        -0.4569    4.3015   -0.0000    0.0000    0.0000   -0.0765
C        -4.2281    0.9114   -0.0000   -0.0000   -0.0000    0.0024
C         0.9115    4.2288   -0.0000    0.0000    0.0000    0.0842
C        -4.3008   -0.4569   -0.0000    0.0000   -0.0000   -0.0375
C         2.5639    2.3048   -0.0000    0.0000    0.0000   -0.0970
C        -2.5638   -2.3048   -0.0000    0.0000    0.0000    0.0970
C         2.9414    0.9520   -0.0000    0.0000   -0.0000   -0.0007
C        -1.2591   -2.8242   -0.0000    0.0000    0.0000   -0.0354
C         2.8236   -1.2591   -0.0000   -0.0000   -0.0000   -0.0200
C         0.9520   -2.9419    0.0000   -0.0000    0.0000    0.0406
C         2.3046   -2.5640   -0.0000   -0.0000    0.0000   -0.0589
C         4.3008    0.4568   -0.0000    0.0000   -0.0000    0.0374
C        -0.9115   -4.2288   -0.0000   -0.0000    0.0000   -0.0843
C         4.2281   -0.9115   -0.0000   -0.0000   -0.0000   -0.0023
C         0.4569   -4.3014   -0.0000   -0.0000    0.0000    0.0765
H        -3.0344    3.3753   -0.0000   -0.0000   -0.0000    0.1131
H        -1.0767    5.1949   -0.0000    0.0000    0.0000   -0.1435
H        -5.0505    1.6227   -0.0000   -0.0000   -0.0000   -0.0032
H         1.6229    5.0511   -0.0000    0.0000    0.0000    0.1667
H        -5.1940   -1.0770   -0.0000    0.0000   -0.0000   -0.0792
H         3.3756    3.0341   -0.0000    0.0000   -0.0000   -0.1886
H        -3.3754   -3.0341   -0.0000    0.0000   -0.0000    0.1887
H         3.0341   -3.3754   -0.0000   -0.0000   -0.0000   -0.1134
H         5.1941    1.0769   -0.0000    0.0000   -0.0000    0.0791
H        -1.6227   -5.0513   -0.0000   -0.0000    0.0000   -0.1668
H         5.0504   -1.6228   -0.0000   -0.0000   -0.0000    0.0034
H         1.0767   -5.1949   -0.0000   -0.0000    0.0000    0.1436
Mg       -0.0001    0.0000    0.0000   -0.0000   -0.0000   -0.0000
    37
stable frequency at    451.143 1/cm IR int. is 10.900 a.m.u.; force const. is 1.307 mDyne/Ang.
N         0.1100    2.0652    0.0000   -0.0017   -0.0310    0.0000
N        -2.0647    0.1100    0.0000   -0.0001    0.0022   -0.0000
N         2.0647   -0.1099    0.0000   -0.0001    0.0022    0.0000
N        -0.1099   -2.0653    0.0000   -0.0017   -0.0310   -0.0000
C        -0.9521    2.9419    0.0000    0.0003   -0.0406   -0.0000
C        -2.8236    1.2591   -0.0000    0.0066    0.0041    0.0000
C         1.2590    2.8241    0.0000   -0.0046   -0.0406   -0.0000
C        -2.9413   -0.9521   -0.0000   -0.0067    0.0048   -0.0000
C        -2.3047    2.5641   -0.0000    0.0047   -0.0089   -0.0000
C        -0.4569    4.3015   -0.0000   -0.0022   -0.0599   -0.0000
C        -4.2281    0.9114   -0.0000    0.0102    0.0425    0.0000
C         0.9115    4.2288   -0.0000   -0.0033   -0.0601    0.0000
C        -4.3008   -0.4569   -0.0000   -0.0065    0.0433   -0.0000
C         2.5639    2.3048   -0.0000   -0.0057   -0.0084   -0.0000
C        -2.5638   -2.3048   -0.0000   -0.0057   -0.0084    0.0000
C         2.9414    0.9520   -0.0000   -0.0067    0.0048    0.0000
C        -1.2591   -2.8242   -0.0000   -0.0046   -0.0406   -0.0000
C         2.8236   -1.2591   -0.0000    0.0066    0.0041   -0.0000
C         0.9520   -2.9419    0.0000    0.0003   -0.0406    0.0000
C         2.3046   -2.5640   -0.0000    0.0047   -0.0089    0.0000
C         4.3008    0.4568   -0.0000   -0.0066    0.0433    0.0000
C        -0.9115   -4.2288   -0.0000   -0.0033   -0.0601   -0.0000
C         4.2281   -0.9115   -0.0000    0.0101    0.0425   -0.0000
C         0.4569   -4.3014   -0.0000   -0.0022   -0.0599    0.0000
H        -3.0344    3.3753   -0.0000    0.0191    0.0027   -0.0000
H        -1.0767    5.1949   -0.0000   -0.0042   -0.0623   -0.0000
H        -5.0505    1.6227   -0.0000    0.0289    0.0641    0.0000
H         1.6229    5.0511   -0.0000   -0.0013   -0.0632    0.0000
H        -5.1940   -1.0770   -0.0000   -0.0217    0.0646   -0.0000
H         3.3756    3.0341   -0.0000   -0.0186    0.0044   -0.0000
H        -3.3754   -3.0341   -0.0000   -0.0186    0.0044    0.0000
H         3.0341   -3.3754   -0.0000    0.0191    0.0027    0.0000
H         5.1941    1.0769   -0.0000   -0.0217    0.0646    0.0000
H        -1.6227   -5.0513   -0.0000   -0.0013   -0.0632   -0.0000
H         5.0504   -1.6228   -0.0000    0.0288    0.0641   -0.0000
H         1.0767   -5.1949   -0.0000   -0.0042   -0.0622   -0.0000
Mg       -0.0001    0.0000    0.0000    0.0092    0.1547   -0.0000
    37
stable frequency at    451.599 1/cm IR int. is 10.923 a.m.u.; force const. is 1.312 mDyne/Ang.
N         0.1100    2.0652    0.0000   -0.0022   -0.0001   -0.0000
N        -2.0647    0.1100    0.0000    0.0309   -0.0017   -0.0000
N         2.0647   -0.1099    0.0000    0.0308   -0.0017    0.0000
N        -0.1099   -2.0653    0.0000   -0.0022   -0.0001   -0.0000
C        -0.9521    2.9419    0.0000   -0.0048   -0.0066    0.0000
C        -2.8236    1.2591   -0.0000    0.0406   -0.0045   -0.0000
C         1.2590    2.8241    0.0000   -0.0040    0.0065    0.0000
C        -2.9413   -0.9521   -0.0000    0.0406    0.0002    0.0000
C        -2.3047    2.5641   -0.0000    0.0084   -0.0057    0.0000
C        -0.4569    4.3015   -0.0000   -0.0431   -0.0065   -0.0000
C        -4.2281    0.9114   -0.0000    0.0601   -0.0033   -0.0000
C         0.9115    4.2288   -0.0000   -0.0423    0.0101    0.0000
C        -4.3008   -0.4569   -0.0000    0.0599   -0.0022    0.0000
C         2.5639    2.3048   -0.0000    0.0089    0.0046   -0.0000
C        -2.5638   -2.3048   -0.0000    0.0089    0.0046   -0.0000
C         2.9414    0.9520   -0.0000    0.0406    0.0002   -0.0000
C        -1.2591   -2.8242   -0.0000   -0.0040    0.0065   -0.0000
C         2.8236   -1.2591   -0.0000    0.0405   -0.0045   -0.0000
C         0.9520   -2.9419    0.0000   -0.0048   -0.0066   -0.0000
C         2.3046   -2.5640   -0.0000    0.0084   -0.0056    0.0000
C         4.3008    0.4568   -0.0000    0.0599   -0.0022    0.0000
C        -0.9115   -4.2288   -0.0000   -0.0423    0.0101    0.0000
C         4.2281   -0.9115   -0.0000    0.0601   -0.0033   -0.0000
C         0.4569   -4.3014   -0.0000   -0.0431   -0.0065   -0.0000
H        -3.0344    3.3753   -0.0000   -0.0044   -0.0185    0.0000
H        -1.0767    5.1949   -0.0000   -0.0644   -0.0216   -0.0000
H        -5.0505    1.6227   -0.0000    0.0632   -0.0013   -0.0000
H         1.6229    5.0511   -0.0000   -0.0639    0.0287    0.0000
H        -5.1940   -1.0770   -0.0000    0.0622   -0.0042    0.0000
H         3.3756    3.0341   -0.0000   -0.0027    0.0190   -0.0000
H        -3.3754   -3.0341   -0.0000   -0.0027    0.0190   -0.0000
H         3.0341   -3.3754   -0.0000   -0.0044   -0.0185    0.0000
H         5.1941    1.0769   -0.0000    0.0622   -0.0042    0.0000
H        -1.6227   -5.0513   -0.0000   -0.0640    0.0287    0.0000
H         5.0504   -1.6228   -0.0000    0.0631   -0.0013   -0.0000
H         1.0767   -5.1949   -0.0000   -0.0644   -0.0216   -0.0000
Mg       -0.0001    0.0000    0.0000   -0.1548    0.0092    0.0000
    37
stable frequency at    475.850 1/cm IR int. is 3.676 a.m.u.; force const. is 0.490 mDyne/Ang.
N         0.1100    2.0652    0.0000    0.0000    0.0000    0.0007
N        -2.0647    0.1100    0.0000   -0.0000   -0.0000   -0.0007
N         2.0647   -0.1099    0.0000   -0.0000    0.0000   -0.0006
N        -0.1099   -2.0653    0.0000    0.0000    0.0000    0.0006
C        -0.9521    2.9419    0.0000    0.0000    0.0000   -0.0169
C        -2.8236    1.2591   -0.0000   -0.0000   -0.0000   -0.0165
C         1.2590    2.8241    0.0000    0.0000    0.0000    0.0165
C        -2.9413   -0.9521   -0.0000   -0.0000   -0.0000    0.0169
C        -2.3047    2.5641   -0.0000   -0.0000    0.0000    0.0786
C        -0.4569    4.3015   -0.0000    0.0000    0.0000   -0.0704
C        -4.2281    0.9114   -0.0000   -0.0000   -0.0000   -0.0693
C         0.9115    4.2288   -0.0000    0.0000    0.0000    0.0694
C        -4.3008   -0.4569   -0.0000   -0.0000   -0.0000    0.0703
C         2.5639    2.3048   -0.0000   -0.0000    0.0000   -0.0787
C        -2.5638   -2.3048   -0.0000   -0.0000    0.0000   -0.0786
C         2.9414    0.9520   -0.0000   -0.0000    0.0000    0.0168
C        -1.2591   -2.8242   -0.0000    0.0000    0.0000    0.0165
C         2.8236   -1.2591   -0.0000   -0.0000    0.0000   -0.0165
C         0.9520   -2.9419    0.0000    0.0000    0.0000   -0.0168
C         2.3046   -2.5640   -0.0000   -0.0000    0.0000    0.0786
C         4.3008    0.4568   -0.0000   -0.0000   -0.0000    0.0704
C        -0.9115   -4.2288   -0.0000    0.0000    0.0000    0.0693
C         4.2281   -0.9115   -0.0000   -0.0000   -0.0000   -0.0693
C         0.4569   -4.3014   -0.0000    0.0000    0.0000   -0.0703
H        -3.0344    3.3753   -0.0000   -0.0000    0.0000    0.1206
H        -1.0767    5.1949   -0.0000    0.0000    0.0000   -0.1343
H        -5.0505    1.6227   -0.0000   -0.0000   -0.0000   -0.1377
H         1.6229    5.0511   -0.0000    0.0000    0.0000    0.1378
H        -5.1940   -1.0770   -0.0000   -0.0000   -0.0000    0.1342
H         3.3756    3.0341   -0.0000    0.0000   -0.0000   -0.1207
H        -3.3754   -3.0341   -0.0000    0.0000   -0.0000   -0.1205
H         3.0341   -3.3754   -0.0000   -0.0000    0.0000    0.1205
H         5.1941    1.0769   -0.0000   -0.0000   -0.0000    0.1342
H        -1.6227   -5.0513   -0.0000    0.0000    0.0000    0.1376
H         5.0504   -1.6228   -0.0000   -0.0000   -0.0000   -0.1378
H         1.0767   -5.1949   -0.0000    0.0000    0.0000   -0.1341
Mg       -0.0001    0.0000    0.0000    0.0000   -0.0000   -0.0000
    37
stable frequency at    653.757 1/cm IR int. is 2.728 a.m.u.; force const. is 0.687 mDyne/Ang.
N         0.1100    2.0652    0.0000    0.0000   -0.0000    0.0706
N        -2.0647    0.1100    0.0000   -0.0000    0.0000   -0.0707
N         2.0647   -0.1099    0.0000    0.0000    0.0000   -0.0707
N        -0.1099   -2.0653    0.0000    0.0000   -0.0000    0.0707
C        -0.9521    2.9419    0.0000    0.0000    0.0000   -0.0636
C        -2.8236    1.2591   -0.0000    0.0000    0.0000    0.0660
C         1.2590    2.8241    0.0000   -0.0000    0.0000   -0.0660
C        -2.9413   -0.9521   -0.0000   -0.0000    0.0000    0.0637
C        -2.3047    2.5641   -0.0000    0.0000    0.0000   -0.0007
C        -0.4569    4.3015   -0.0000   -0.0000    0.0000   -0.0020
C        -4.2281    0.9114   -0.0000    0.0000   -0.0000    0.0018
C         0.9115    4.2288   -0.0000   -0.0000    0.0000   -0.0017
C        -4.3008   -0.4569   -0.0000    0.0000   -0.0000    0.0020
C         2.5639    2.3048   -0.0000   -0.0000   -0.0000    0.0006
C        -2.5638   -2.3048   -0.0000    0.0000    0.0000    0.0007
C         2.9414    0.9520   -0.0000    0.0000   -0.0000    0.0636
C        -1.2591   -2.8242   -0.0000   -0.0000    0.0000   -0.0659
C         2.8236   -1.2591   -0.0000    0.0000    0.0000    0.0662
C         0.9520   -2.9419    0.0000    0.0000    0.0000   -0.0638
C         2.3046   -2.5640   -0.0000    0.0000    0.0000   -0.0007
C         4.3008    0.4568   -0.0000    0.0000   -0.0000    0.0021
C        -0.9115   -4.2288   -0.0000   -0.0000    0.0000   -0.0018
C         4.2281   -0.9115   -0.0000    0.0000   -0.0000    0.0018
C         0.4569   -4.3014   -0.0000   -0.0000    0.0000   -0.0019
H        -3.0344    3.3753   -0.0000    0.0000    0.0000   -0.0034
H        -1.0767    5.1949   -0.0000   -0.0000   -0.0000    0.1983
H        -5.0505    1.6227   -0.0000    0.0000   -0.0000   -0.1968
H         1.6229    5.0511   -0.0000    0.0000   -0.0000    0.1964
H        -5.1940   -1.0770   -0.0000    0.0000   -0.0000   -0.1988
H         3.3756    3.0341   -0.0000   -0.0000   -0.0000    0.0035
H        -3.3754   -3.0341   -0.0000    0.0000   -0.0000    0.0032
H         3.0341   -3.3754   -0.0000   -0.0000    0.0000   -0.0034
H         5.1941    1.0769   -0.0000    0.0000   -0.0000   -0.1988
H        -1.6227   -5.0513   -0.0000   -0.0000    0.0000    0.1965
H         5.0504   -1.6228   -0.0000   -0.0000   -0.0000   -0.1974
H         1.0767   -5.1949   -0.0000   -0.0000   -0.0000    0.1989
Mg       -0.0001    0.0000    0.0000   -0.0000   -0.0000   -0.0000
    37
stable frequency at    661.006 1/cm IR int. is 3.019 a.m.u.; force const. is 0.777 mDyne/Ang.
N         0.1100    2.0652    0.0000   -0.0000   -0.0000    0.0252
N        -2.0647    0.1100    0.0000   -0.0000    0.0000   -0.0511
N         2.0647   -0.1099    0.0000    0.0000    0.0000    0.0509
N        -0.1099   -2.0653    0.0000   -0.0000   -0.0000   -0.0250
C        -0.9521    2.9419    0.0000    0.0000    0.0000   -0.0982
C        -2.8236    1.2591   -0.0000    0.0000    0.0000    0.0894
C         1.2590    2.8241    0.0000   -0.0000    0.0000    0.0454
C        -2.9413   -0.9521   -0.0000   -0.0000    0.0000    0.0172
C        -2.3047    2.5641   -0.0000    0.0000    0.0000   -0.0044
C        -0.4569    4.3015   -0.0000    0.0000    0.0000    0.0477
C        -4.2281    0.9114   -0.0000    0.0000   -0.0000   -0.0197
C         0.9115    4.2288   -0.0000    0.0000    0.0000   -0.0519
C        -4.3008   -0.4569   -0.0000    0.0000   -0.0000    0.0301
C         2.5639    2.3048   -0.0000   -0.0000    0.0000    0.0111
C        -2.5638   -2.3048   -0.0000    0.0000    0.0000   -0.0111
C         2.9414    0.9520   -0.0000    0.0000    0.0000   -0.0169
C        -1.2591   -2.8242   -0.0000   -0.0000   -0.0000   -0.0458
C         2.8236   -1.2591   -0.0000    0.0000   -0.0000   -0.0894
C         0.9520   -2.9419    0.0000    0.0000    0.0000    0.0984
C         2.3046   -2.5640   -0.0000    0.0000   -0.0000    0.0044
C         4.3008    0.4568   -0.0000    0.0000    0.0000   -0.0301
C        -0.9115   -4.2288   -0.0000   -0.0000    0.0000    0.0521
C         4.2281   -0.9115   -0.0000    0.0000    0.0000    0.0197
C         0.4569   -4.3014   -0.0000   -0.0000    0.0000   -0.0479
H        -3.0344    3.3753   -0.0000    0.0000    0.0000    0.0354
H        -1.0767    5.1949   -0.0000   -0.0000    0.0000    0.2080
H        -5.0505    1.6227   -0.0000   -0.0000   -0.0000   -0.2460
H         1.6229    5.0511   -0.0000    0.0000    0.0000   -0.0235
H        -5.1940   -1.0770   -0.0000   -0.0000    0.0000   -0.1375
H         3.3756    3.0341   -0.0000    0.0000   -0.0000   -0.1070
H        -3.3754   -3.0341   -0.0000    0.0000   -0.0000    0.1072
H         3.0341   -3.3754   -0.0000    0.0000   -0.0000   -0.0358
H         5.1941    1.0769   -0.0000    0.0000   -0.0000    0.1369
H        -1.6227   -5.0513   -0.0000   -0.0000   -0.0000    0.0243
H         5.0504   -1.6228   -0.0000   -0.0000   -0.0000    0.2460
H         1.0767   -5.1949   -0.0000   -0.0000    0.0000   -0.2079
Mg       -0.0001    0.0000    0.0000   -0.0000   -0.0000   -0.0000
    37
stable frequency at    661.035 1/cm IR int. is 3.022 a.m.u.; force const. is 0.778 mDyne/Ang.
N         0.1100    2.0652    0.0000    0.0000    0.0000    0.0510
N        -2.0647    0.1100    0.0000   -0.0000   -0.0000    0.0251
N         2.0647   -0.1099    0.0000    0.0000   -0.0000   -0.0251
N        -0.1099   -2.0653    0.0000    0.0000    0.0000   -0.0509
C        -0.9521    2.9419    0.0000    0.0000    0.0000   -0.0171
C        -2.8236    1.2591   -0.0000    0.0000    0.0000    0.0457
C         1.2590    2.8241    0.0000   -0.0000    0.0000   -0.0893
C        -2.9413   -0.9521   -0.0000    0.0000    0.0000   -0.0984
C        -2.3047    2.5641   -0.0000    0.0000   -0.0000    0.0110
C        -0.4569    4.3015   -0.0000   -0.0000    0.0000   -0.0300
C        -4.2281    0.9114   -0.0000   -0.0000    0.0000   -0.0521
C         0.9115    4.2288   -0.0000   -0.0000    0.0000    0.0197
C        -4.3008   -0.4569   -0.0000    0.0000    0.0000    0.0478
C         2.5639    2.3048   -0.0000   -0.0000   -0.0000    0.0044
C        -2.5638   -2.3048   -0.0000    0.0000    0.0000   -0.0044
C         2.9414    0.9520   -0.0000    0.0000   -0.0000    0.0984
C        -1.2591   -2.8242   -0.0000    0.0000   -0.0000    0.0893
C         2.8236   -1.2591   -0.0000   -0.0000   -0.0000   -0.0457
C         0.9520   -2.9419    0.0000   -0.0000    0.0000    0.0170
C         2.3046   -2.5640   -0.0000   -0.0000    0.0000   -0.0110
C         4.3008    0.4568   -0.0000    0.0000   -0.0000   -0.0478
C        -0.9115   -4.2288   -0.0000   -0.0000   -0.0000   -0.0198
C         4.2281   -0.9115   -0.0000    0.0000   -0.0000    0.0521
C         0.4569   -4.3014   -0.0000   -0.0000    0.0000    0.0301
H        -3.0344    3.3753   -0.0000    0.0000   -0.0000   -0.1070
H        -1.0767    5.1949   -0.0000   -0.0000    0.0000    0.1371
H        -5.0505    1.6227   -0.0000   -0.0000   -0.0000   -0.0240
H         1.6229    5.0511   -0.0000    0.0000    0.0000    0.2457
H        -5.1940   -1.0770   -0.0000   -0.0000    0.0000    0.2082
H         3.3756    3.0341   -0.0000   -0.0000    0.0000   -0.0358
H        -3.3754   -3.0341   -0.0000    0.0000    0.0000    0.0357
H         3.0341   -3.3754   -0.0000   -0.0000   -0.0000    0.1073
H         5.1941    1.0769   -0.0000    0.0000    0.0000   -0.2082
H        -1.6227   -5.0513   -0.0000   -0.0000   -0.0000   -0.2455
H         5.0504   -1.6228   -0.0000   -0.0000   -0.0000    0.0239
H         1.0767   -5.1949   -0.0000    0.0000    0.0000   -0.1368
Mg       -0.0001    0.0000    0.0000   -0.0000   -0.0000   -0.0000
    37
stable frequency at    675.584 1/cm IR int. is 4.810 a.m.u.; force const. is 1.294 mDyne/Ang.
N         0.1100    2.0652    0.0000   -0.0000    0.0000   -0.0005
N        -2.0647    0.1100    0.0000   -0.0000   -0.0000   -0.0005
N         2.0647   -0.1099    0.0000    0.0000    0.0000   -0.0004
N        -0.1099   -2.0653    0.0000   -0.0000    0.0000   -0.0006
C        -0.9521    2.9419    0.0000    0.0000    0.0000   -0.0792
C        -2.8236    1.2591   -0.0000   -0.0000   -0.0000    0.0801
C         1.2590    2.8241    0.0000   -0.0000   -0.0000    0.0800
C        -2.9413   -0.9521   -0.0000    0.0000   -0.0000   -0.0793
C        -2.3047    2.5641   -0.0000    0.0000   -0.0000   -0.0007
C        -0.4569    4.3015   -0.0000    0.0000    0.0000    0.0520
C        -4.2281    0.9114   -0.0000   -0.0000    0.0000   -0.0509
C         0.9115    4.2288   -0.0000    0.0000   -0.0000   -0.0509
C        -4.3008   -0.4569   -0.0000   -0.0000    0.0000    0.0521
C         2.5639    2.3048   -0.0000   -0.0000    0.0000   -0.0006
C        -2.5638   -2.3048   -0.0000    0.0000   -0.0000   -0.0006
C         2.9414    0.9520   -0.0000    0.0000    0.0000   -0.0794
C        -1.2591   -2.8242   -0.0000    0.0000   -0.0000    0.0798
C         2.8236   -1.2591   -0.0000   -0.0000   -0.0000    0.0799
C         0.9520   -2.9419    0.0000   -0.0000   -0.0000   -0.0790
C         2.3046   -2.5640   -0.0000   -0.0000   -0.0000   -0.0007
C         4.3008    0.4568   -0.0000   -0.0000    0.0000    0.0520
C        -0.9115   -4.2288   -0.0000    0.0000   -0.0000   -0.0507
C         4.2281   -0.9115   -0.0000   -0.0000   -0.0000   -0.0508
C         0.4569   -4.3014   -0.0000   -0.0000   -0.0000    0.0519
H        -3.0344    3.3753   -0.0000    0.0000   -0.0000    0.0002
H        -1.0767    5.1949   -0.0000   -0.0000    0.0000    0.1259
H        -5.0505    1.6227   -0.0000   -0.0000    0.0000   -0.1350
H         1.6229    5.0511   -0.0000   -0.0000   -0.0000   -0.1348
H        -5.1940   -1.0770   -0.0000   -0.0000    0.0000    0.1260
H         3.3756    3.0341   -0.0000   -0.0000    0.0000    0.0007
H        -3.3754   -3.0341   -0.0000    0.0000   -0.0000    0.0009
H         3.0341   -3.3754   -0.0000   -0.0000   -0.0000    0.0002
H         5.1941    1.0769   -0.0000   -0.0000    0.0000    0.1263
H        -1.6227   -5.0513   -0.0000   -0.0000    0.0000   -0.1346
H         5.0504   -1.6228   -0.0000    0.0000    0.0000   -0.1345
H         1.0767   -5.1949   -0.0000    0.0000   -0.0000    0.1255
Mg       -0.0001    0.0000    0.0000    0.0000    0.0000   -0.0000
    37
stable frequency at    682.421 1/cm IR int. is 3.194 a.m.u.; force const. is 0.876 mDyne/Ang.
N         0.1100    2.0652    0.0000    0.0000   -0.0000    0.0010
N        -2.0647    0.1100    0.0000    0.0000   -0.0000   -0.0012
N         2.0647   -0.1099    0.0000   -0.0000   -0.0000   -0.0008
N        -0.1099   -2.0653    0.0000   -0.0000    0.0000    0.0011
C        -0.9521    2.9419    0.0000   -0.0000    0.0000   -0.0801
C        -2.8236    1.2591   -0.0000    0.0000   -0.0000   -0.0775
C         1.2590    2.8241    0.0000    0.0000   -0.0000    0.0778
C        -2.9413   -0.9521   -0.0000    0.0000    0.0000    0.0801
C        -2.3047    2.5641   -0.0000   -0.0000    0.0000    0.0236
C        -0.4569    4.3015   -0.0000    0.0000   -0.0000    0.0360
C        -4.2281    0.9114   -0.0000    0.0000   -0.0000    0.0350
C         0.9115    4.2288   -0.0000    0.0000   -0.0000   -0.0352
C        -4.3008   -0.4569   -0.0000   -0.0000    0.0000   -0.0359
C         2.5639    2.3048   -0.0000    0.0000    0.0000   -0.0236
C        -2.5638   -2.3048   -0.0000   -0.0000    0.0000   -0.0237
C         2.9414    0.9520   -0.0000   -0.0000    0.0000    0.0798
C        -1.2591   -2.8242   -0.0000   -0.0000   -0.0000    0.0779
C         2.8236   -1.2591   -0.0000    0.0000   -0.0000   -0.0779
C         0.9520   -2.9419    0.0000    0.0000    0.0000   -0.0804
C         2.3046   -2.5640   -0.0000    0.0000   -0.0000    0.0237
C         4.3008    0.4568   -0.0000   -0.0000    0.0000   -0.0359
C        -0.9115   -4.2288   -0.0000    0.0000   -0.0000   -0.0352
C         4.2281   -0.9115   -0.0000    0.0000   -0.0000    0.0350
C         0.4569   -4.3014   -0.0000    0.0000    0.0000    0.0361
H        -3.0344    3.3753   -0.0000   -0.0000   -0.0000    0.2238
H        -1.0767    5.1949   -0.0000    0.0000   -0.0000    0.0798
H        -5.0505    1.6227   -0.0000    0.0000   -0.0000    0.0775
H         1.6229    5.0511   -0.0000    0.0000   -0.0000   -0.0782
H        -5.1940   -1.0770   -0.0000   -0.0000    0.0000   -0.0799
H         3.3756    3.0341   -0.0000    0.0000    0.0000   -0.2240
H        -3.3754   -3.0341   -0.0000   -0.0000    0.0000   -0.2243
H         3.0341   -3.3754   -0.0000    0.0000   -0.0000    0.2247
H         5.1941    1.0769   -0.0000   -0.0000    0.0000   -0.0789
H        -1.6227   -5.0513   -0.0000    0.0000   -0.0000   -0.0782
H         5.0504   -1.6228   -0.0000    0.0000   -0.0000    0.0786
H         1.0767   -5.1949   -0.0000    0.0000    0.0000    0.0801
Mg       -0.0001    0.0000    0.0000   -0.0000    0.0000   -0.0000
    37
stable frequency at    694.346 1/cm IR int. is 3.092 a.m.u.; force const. is 0.878 mDyne/Ang.
N         0.1100    2.0652    0.0000   -0.0000    0.0000    0.0221
N        -2.0647    0.1100    0.0000    0.0000    0.0000    0.0696
N         2.0647   -0.1099    0.0000   -0.0000    0.0000   -0.0698
N        -0.1099   -2.0653    0.0000    0.0000    0.0000   -0.0223
C        -0.9521    2.9419    0.0000   -0.0000   -0.0000   -0.0939
C        -2.8236    1.2591   -0.0000    0.0000   -0.0000   -0.0854
C         1.2590    2.8241    0.0000   -0.0000    0.0000    0.0542
C        -2.9413   -0.9521   -0.0000    0.0000    0.0000   -0.0394
C        -2.3047    2.5641   -0.0000    0.0000   -0.0000    0.0331
C        -0.4569    4.3015   -0.0000   -0.0000   -0.0000    0.0298
C        -4.2281    0.9114   -0.0000   -0.0000   -0.0000    0.0030
C         0.9115    4.2288   -0.0000   -0.0000    0.0000   -0.0339
C        -4.3008   -0.4569   -0.0000    0.0000    0.0000   -0.0175
C         2.5639    2.3048   -0.0000    0.0000    0.0000   -0.0175
C        -2.5638   -2.3048   -0.0000   -0.0000    0.0000    0.0173
C         2.9414    0.9520   -0.0000    0.0000    0.0000    0.0399
C        -1.2591   -2.8242   -0.0000   -0.0000    0.0000   -0.0537
C         2.8236   -1.2591   -0.0000   -0.0000   -0.0000    0.0853
C         0.9520   -2.9419    0.0000   -0.0000   -0.0000    0.0937
C         2.3046   -2.5640   -0.0000    0.0000   -0.0000   -0.0330
C         4.3008    0.4568   -0.0000    0.0000   -0.0000    0.0174
C        -0.9115   -4.2288   -0.0000    0.0000   -0.0000    0.0338
C         4.2281   -0.9115   -0.0000   -0.0000    0.0000   -0.0027
C         0.4569   -4.3014   -0.0000    0.0000   -0.0000   -0.0296
H        -3.0344    3.3753   -0.0000    0.0000   -0.0000    0.1876
H        -1.0767    5.1949   -0.0000    0.0000    0.0000    0.1394
H        -5.0505    1.6227   -0.0000   -0.0000   -0.0000    0.2025
H         1.6229    5.0511   -0.0000   -0.0000    0.0000   -0.0258
H        -5.1940   -1.0770   -0.0000   -0.0000    0.0000    0.1615
H         3.3756    3.0341   -0.0000    0.0000    0.0000   -0.0978
H        -3.3754   -3.0341   -0.0000   -0.0000    0.0000    0.0966
H         3.0341   -3.3754   -0.0000   -0.0000   -0.0000   -0.1871
H         5.1941    1.0769   -0.0000    0.0000   -0.0000   -0.1626
H        -1.6227   -5.0513   -0.0000    0.0000   -0.0000    0.0249
H         5.0504   -1.6228   -0.0000   -0.0000    0.0000   -0.2030
H         1.0767   -5.1949   -0.0000    0.0000    0.0000   -0.1396
Mg       -0.0001    0.0000    0.0000   -0.0000    0.0000    0.0000
    37
stable frequency at    694.377 1/cm IR int. is 3.093 a.m.u.; force const. is 0.879 mDyne/Ang.
N         0.1100    2.0652    0.0000    0.0000   -0.0000    0.0696
N        -2.0647    0.1100    0.0000   -0.0000    0.0000   -0.0223
N         2.0647   -0.1099    0.0000   -0.0000    0.0000    0.0220
N        -0.1099   -2.0653    0.0000   -0.0000    0.0000   -0.0700
C        -0.9521    2.9419    0.0000   -0.0000   -0.0000   -0.0396
C        -2.8236    1.2591   -0.0000   -0.0000    0.0000   -0.0537
C         1.2590    2.8241    0.0000    0.0000    0.0000   -0.0853
C        -2.9413   -0.9521   -0.0000    0.0000   -0.0000    0.0938
C        -2.3047    2.5641   -0.0000   -0.0000    0.0000    0.0173
C        -0.4569    4.3015   -0.0000   -0.0000   -0.0000   -0.0174
C        -4.2281    0.9114   -0.0000    0.0000   -0.0000    0.0338
C         0.9115    4.2288   -0.0000   -0.0000   -0.0000    0.0029
C        -4.3008   -0.4569   -0.0000    0.0000   -0.0000   -0.0296
C         2.5639    2.3048   -0.0000    0.0000    0.0000    0.0330
C        -2.5638   -2.3048   -0.0000   -0.0000   -0.0000   -0.0331
C         2.9414    0.9520   -0.0000   -0.0000    0.0000   -0.0935
C        -1.2591   -2.8242   -0.0000   -0.0000   -0.0000    0.0857
C         2.8236   -1.2591   -0.0000   -0.0000   -0.0000    0.0541
C         0.9520   -2.9419    0.0000   -0.0000    0.0000    0.0399
C         2.3046   -2.5640   -0.0000    0.0000   -0.0000   -0.0175
C         4.3008    0.4568   -0.0000   -0.0000   -0.0000    0.0297
C        -0.9115   -4.2288   -0.0000    0.0000    0.0000   -0.0029
C         4.2281   -0.9115   -0.0000   -0.0000   -0.0000   -0.0338
C         0.4569   -4.3014   -0.0000    0.0000    0.0000    0.0175
H        -3.0344    3.3753   -0.0000   -0.0000    0.0000    0.0969
H        -1.0767    5.1949   -0.0000   -0.0000   -0.0000    0.1616
H        -5.0505    1.6227   -0.0000    0.0000   -0.0000    0.0248
H         1.6229    5.0511   -0.0000   -0.0000   -0.0000    0.2023
H        -5.1940   -1.0770   -0.0000   -0.0000    0.0000   -0.1398
H         3.3756    3.0341   -0.0000    0.0000    0.0000    0.1872
H        -3.3754   -3.0341   -0.0000   -0.0000   -0.0000   -0.1875
H         3.0341   -3.3754   -0.0000    0.0000   -0.0000   -0.0974
H         5.1941    1.0769   -0.0000   -0.0000    0.0000    0.1387
H        -1.6227   -5.0513   -0.0000   -0.0000    0.0000   -0.2034
H         5.0504   -1.6228   -0.0000   -0.0000   -0.0000   -0.0258
H         1.0767   -5.1949   -0.0000    0.0000    0.0000   -0.1628
Mg       -0.0001    0.0000    0.0000    0.0000   -0.0000    0.0000
    37
stable frequency at    697.674 1/cm IR int. is 2.267 a.m.u.; force const. is 0.650 mDyne/Ang.
N         0.1100    2.0652    0.0000    0.0000   -0.0000   -0.0619
N        -2.0647    0.1100    0.0000   -0.0000    0.0000   -0.0616
N         2.0647   -0.1099    0.0000   -0.0000    0.0000   -0.0615
N        -0.1099   -2.0653    0.0000    0.0000    0.0000   -0.0614
C        -0.9521    2.9419    0.0000    0.0000   -0.0000    0.0596
C        -2.8236    1.2591   -0.0000    0.0000    0.0000    0.0580
C         1.2590    2.8241    0.0000    0.0000    0.0000    0.0580
C        -2.9413   -0.9521   -0.0000   -0.0000   -0.0000    0.0591
C        -2.3047    2.5641   -0.0000   -0.0000    0.0000   -0.0309
C        -0.4569    4.3015   -0.0000    0.0000   -0.0000    0.0124
C        -4.2281    0.9114   -0.0000    0.0000   -0.0000    0.0129
C         0.9115    4.2288   -0.0000   -0.0000   -0.0000    0.0130
C        -4.3008   -0.4569   -0.0000    0.0000   -0.0000    0.0125
C         2.5639    2.3048   -0.0000    0.0000    0.0000   -0.0308
C        -2.5638   -2.3048   -0.0000   -0.0000   -0.0000   -0.0307
C         2.9414    0.9520   -0.0000    0.0000    0.0000    0.0595
C        -1.2591   -2.8242   -0.0000   -0.0000    0.0000    0.0578
C         2.8236   -1.2591   -0.0000   -0.0000   -0.0000    0.0574
C         0.9520   -2.9419    0.0000    0.0000    0.0000    0.0591
C         2.3046   -2.5640   -0.0000    0.0000   -0.0000   -0.0307
C         4.3008    0.4568   -0.0000   -0.0000    0.0000    0.0122
C        -0.9115   -4.2288   -0.0000    0.0000    0.0000    0.0129
C         4.2281   -0.9115   -0.0000   -0.0000    0.0000    0.0131
C         0.4569   -4.3014   -0.0000    0.0000    0.0000    0.0124
H        -3.0344    3.3753   -0.0000    0.0000    0.0000   -0.0638
H        -1.0767    5.1949   -0.0000    0.0000   -0.0000   -0.2232
H        -5.0505    1.6227   -0.0000    0.0000   -0.0000   -0.2119
H         1.6229    5.0511   -0.0000   -0.0000   -0.0000   -0.2122
H        -5.1940   -1.0770   -0.0000    0.0000    0.0000   -0.2223
H         3.3756    3.0341   -0.0000   -0.0000    0.0000   -0.0638
H        -3.3754   -3.0341   -0.0000   -0.0000   -0.0000   -0.0630
H         3.0341   -3.3754   -0.0000    0.0000   -0.0000   -0.0626
H         5.1941    1.0769   -0.0000    0.0000   -0.0000   -0.2227
H        -1.6227   -5.0513   -0.0000    0.0000    0.0000   -0.2112
H         5.0504   -1.6228   -0.0000   -0.0000   -0.0000   -0.2112
H         1.0767   -5.1949   -0.0000   -0.0000    0.0000   -0.2221
Mg       -0.0001    0.0000    0.0000   -0.0000   -0.0000    0.0037
    37
stable frequency at    716.285 1/cm IR int. is 6.962 a.m.u.; force const. is 2.105 mDyne/Ang.
N         0.1100    2.0652    0.0000   -0.0002   -0.0101    0.0000
N        -2.0647    0.1100    0.0000    0.0100   -0.0002    0.0000
N         2.0647   -0.1099    0.0000   -0.0100    0.0002    0.0000
N        -0.1099   -2.0653    0.0000    0.0002    0.0102    0.0000
C        -0.9521    2.9419    0.0000   -0.0350    0.0007   -0.0000
C        -2.8236    1.2591   -0.0000    0.0030    0.0354    0.0000
C         1.2590    2.8241    0.0000    0.0352   -0.0030   -0.0000
C        -2.9413   -0.9521   -0.0000   -0.0008   -0.0352   -0.0000
C        -2.3047    2.5641   -0.0000   -0.0807    0.0903    0.0000
C        -0.4569    4.3015   -0.0000   -0.0011   -0.0332    0.0000
C        -4.2281    0.9114   -0.0000    0.0330   -0.0026   -0.0000
C         0.9115    4.2288   -0.0000   -0.0027   -0.0329   -0.0000
C        -4.3008   -0.4569   -0.0000    0.0331   -0.0011    0.0000
C         2.5639    2.3048   -0.0000    0.0901    0.0809    0.0000
C        -2.5638   -2.3048   -0.0000   -0.0899   -0.0809    0.0000
C         2.9414    0.9520   -0.0000    0.0007    0.0352   -0.0000
C        -1.2591   -2.8242   -0.0000   -0.0351    0.0030   -0.0000
C         2.8236   -1.2591   -0.0000   -0.0030   -0.0354   -0.0000
C         0.9520   -2.9419    0.0000    0.0349   -0.0007   -0.0000
C         2.3046   -2.5640   -0.0000    0.0805   -0.0902    0.0000
C         4.3008    0.4568   -0.0000   -0.0332    0.0012   -0.0000
C        -0.9115   -4.2288   -0.0000    0.0026    0.0329   -0.0000
C         4.2281   -0.9115   -0.0000   -0.0329    0.0026    0.0000
C         0.4569   -4.3014   -0.0000    0.0011    0.0331   -0.0000
H        -3.0344    3.3753   -0.0000   -0.0823    0.0896   -0.0000
H        -1.0767    5.1949   -0.0000    0.0246   -0.0156    0.0000
H        -5.0505    1.6227   -0.0000    0.0127   -0.0265    0.0000
H         1.6229    5.0511   -0.0000   -0.0264   -0.0128    0.0000
H        -5.1940   -1.0770   -0.0000    0.0153    0.0249    0.0000
H         3.3756    3.0341   -0.0000    0.0893    0.0827    0.0000
H        -3.3754   -3.0341   -0.0000   -0.0889   -0.0828    0.0000
H         3.0341   -3.3754   -0.0000    0.0820   -0.0896   -0.0000
H         5.1941    1.0769   -0.0000   -0.0155   -0.0247    0.0000
H        -1.6227   -5.0513   -0.0000    0.0263    0.0128    0.0000
H         5.0504   -1.6228   -0.0000   -0.0126    0.0266    0.0000
H         1.0767   -5.1949   -0.0000   -0.0245    0.0156    0.0000
Mg       -0.0001    0.0000    0.0000    0.0000   -0.0000   -0.0000
    37
stable frequency at    731.976 1/cm IR int. is 4.316 a.m.u.; force const. is 1.362 mDyne/Ang.
N         0.1100    2.0652    0.0000   -0.0026   -0.0421    0.0000
N        -2.0647    0.1100    0.0000   -0.0419    0.0026    0.0000
N         2.0647   -0.1099    0.0000    0.0421   -0.0025    0.0000
N        -0.1099   -2.0653    0.0000    0.0025    0.0419    0.0000
C        -0.9521    2.9419    0.0000    0.0569   -0.0075   -0.0000
C        -2.8236    1.2591   -0.0000   -0.0012    0.0573   -0.0000
C         1.2590    2.8241    0.0000   -0.0578   -0.0012   -0.0000
C        -2.9413   -0.9521   -0.0000   -0.0074   -0.0563   -0.0000
C        -2.3047    2.5641   -0.0000    0.0694    0.0615   -0.0000
C        -0.4569    4.3015   -0.0000    0.0076    0.0055    0.0000
C        -4.2281    0.9114   -0.0000    0.0061    0.0071    0.0000
C         0.9115    4.2288   -0.0000   -0.0071    0.0064    0.0000
C        -4.3008   -0.4569   -0.0000    0.0052   -0.0076   -0.0000
C         2.5639    2.3048   -0.0000   -0.0625    0.0689   -0.0000
C        -2.5638   -2.3048   -0.0000    0.0618   -0.0684    0.0000
C         2.9414    0.9520   -0.0000    0.0075    0.0568   -0.0000
C        -1.2591   -2.8242   -0.0000    0.0573    0.0012   -0.0000
C         2.8236   -1.2591   -0.0000    0.0012   -0.0575   -0.0000
C         0.9520   -2.9419    0.0000   -0.0565    0.0074   -0.0000
C         2.3046   -2.5640   -0.0000   -0.0687   -0.0621   -0.0000
C         4.3008    0.4568   -0.0000   -0.0052    0.0074    0.0000
C        -0.9115   -4.2288   -0.0000    0.0072   -0.0063    0.0000
C         4.2281   -0.9115   -0.0000   -0.0063   -0.0073    0.0000
C         0.4569   -4.3014   -0.0000   -0.0074   -0.0052    0.0000
H        -3.0344    3.3753   -0.0000    0.1378    0.1227    0.0000
H        -1.0767    5.1949   -0.0000   -0.0481   -0.0345   -0.0000
H        -5.0505    1.6227   -0.0000   -0.0388   -0.0430   -0.0000
H         1.6229    5.0511   -0.0000    0.0433   -0.0388   -0.0000
H        -5.1940   -1.0770   -0.0000   -0.0345    0.0476   -0.0000
H         3.3756    3.0341   -0.0000   -0.1239    0.1376    0.0000
H        -3.3754   -3.0341   -0.0000    0.1227   -0.1365    0.0000
H         3.0341   -3.3754   -0.0000   -0.1370   -0.1231    0.0000
H         5.1941    1.0769   -0.0000    0.0349   -0.0485   -0.0000
H        -1.6227   -5.0513   -0.0000   -0.0426    0.0383   -0.0000
H         5.0504   -1.6228   -0.0000    0.0385    0.0427   -0.0000
H         1.0767   -5.1949   -0.0000    0.0482    0.0346   -0.0000
Mg       -0.0001    0.0000    0.0000   -0.0000    0.0001   -0.0000
    37
stable frequency at    736.954 1/cm IR int. is 4.577 a.m.u.; force const. is 1.464 mDyne/Ang.
N         0.1100    2.0652    0.0000    0.0192   -0.0019   -0.0000
N        -2.0647    0.1100    0.0000   -0.0224    0.0020    0.0000
N         2.0647   -0.1099    0.0000   -0.0222    0.0020   -0.0000
N        -0.1099   -2.0653    0.0000    0.0192   -0.0017   -0.0000
C        -0.9521    2.9419    0.0000    0.0173   -0.0028    0.0000
C        -2.8236    1.2591   -0.0000   -0.0025    0.0658   -0.0000
C         1.2590    2.8241    0.0000    0.0142    0.0006    0.0000
C        -2.9413   -0.9521   -0.0000   -0.0097   -0.0641   -0.0000
C        -2.3047    2.5641   -0.0000   -0.0030    0.1038    0.0000
C        -0.4569    4.3015   -0.0000   -0.0266   -0.0178   -0.0000
C        -4.2281    0.9114   -0.0000    0.0247    0.0034    0.0000
C         0.9115    4.2288   -0.0000   -0.0251    0.0213   -0.0000
C        -4.3008   -0.4569   -0.0000    0.0247   -0.0075    0.0000
C         2.5639    2.3048   -0.0000   -0.0191   -0.1025   -0.0000
C        -2.5638   -2.3048   -0.0000   -0.0188   -0.1028    0.0000
C         2.9414    0.9520   -0.0000   -0.0096   -0.0639    0.0000
C        -1.2591   -2.8242   -0.0000    0.0145    0.0006    0.0000
C         2.8236   -1.2591   -0.0000   -0.0025    0.0656    0.0000
C         0.9520   -2.9419    0.0000    0.0170   -0.0028    0.0000
C         2.3046   -2.5640   -0.0000   -0.0033    0.1035    0.0000
C         4.3008    0.4568   -0.0000    0.0247   -0.0075   -0.0000
C        -0.9115   -4.2288   -0.0000   -0.0250    0.0213   -0.0000
C         4.2281   -0.9115   -0.0000    0.0246    0.0034   -0.0000
C         0.4569   -4.3014   -0.0000   -0.0266   -0.0179   -0.0000
H        -3.0344    3.3753   -0.0000    0.0498    0.1520   -0.0000
H        -1.0767    5.1949   -0.0000   -0.0783   -0.0540    0.0000
H        -5.0505    1.6227   -0.0000   -0.0229   -0.0506    0.0000
H         1.6229    5.0511   -0.0000   -0.0717    0.0619    0.0000
H        -5.1940   -1.0770   -0.0000   -0.0160    0.0499    0.0000
H         3.3756    3.0341   -0.0000    0.0269   -0.1551   -0.0000
H        -3.3754   -3.0341   -0.0000    0.0274   -0.1557   -0.0000
H         3.0341   -3.3754   -0.0000    0.0491    0.1514   -0.0000
H         5.1941    1.0769   -0.0000   -0.0158    0.0497    0.0000
H        -1.6227   -5.0513   -0.0000   -0.0719    0.0621    0.0000
H         5.0504   -1.6228   -0.0000   -0.0228   -0.0504    0.0000
H         1.0767   -5.1949   -0.0000   -0.0780   -0.0539    0.0000
Mg       -0.0001    0.0000    0.0000    0.0178   -0.0005   -0.0000
    37
stable frequency at    737.016 1/cm IR int. is 4.577 a.m.u.; force const. is 1.465 mDyne/Ang.
N         0.1100    2.0652    0.0000   -0.0020   -0.0222    0.0000
N        -2.0647    0.1100    0.0000    0.0020    0.0192    0.0000
N         2.0647   -0.1099    0.0000    0.0016    0.0192    0.0000
N        -0.1099   -2.0653    0.0000   -0.0020   -0.0225    0.0000
C        -0.9521    2.9419    0.0000    0.0637   -0.0096   -0.0000
C        -2.8236    1.2591   -0.0000   -0.0006    0.0142   -0.0000
C         1.2590    2.8241    0.0000   -0.0655   -0.0025   -0.0000
C        -2.9413   -0.9521   -0.0000    0.0029    0.0173   -0.0000
C        -2.3047    2.5641   -0.0000    0.1023   -0.0191   -0.0000
C        -0.4569    4.3015   -0.0000    0.0075    0.0247    0.0000
C        -4.2281    0.9114   -0.0000   -0.0213   -0.0251    0.0000
C         0.9115    4.2288   -0.0000   -0.0034    0.0246    0.0000
C        -4.3008   -0.4569   -0.0000    0.0179   -0.0265    0.0000
C         2.5639    2.3048   -0.0000   -0.1034   -0.0033   -0.0000
C        -2.5638   -2.3048   -0.0000   -0.1040   -0.0030    0.0000
C         2.9414    0.9520   -0.0000    0.0028    0.0169   -0.0000
C        -1.2591   -2.8242   -0.0000   -0.0660   -0.0025   -0.0000
C         2.8236   -1.2591   -0.0000   -0.0006    0.0145   -0.0000
C         0.9520   -2.9419    0.0000    0.0642   -0.0096   -0.0000
C         2.3046   -2.5640   -0.0000    0.1029   -0.0189    0.0000
C         4.3008    0.4568   -0.0000    0.0179   -0.0266    0.0000
C        -0.9115   -4.2288   -0.0000   -0.0034    0.0247    0.0000
C         4.2281   -0.9115   -0.0000   -0.0213   -0.0250    0.0000
C         0.4569   -4.3014   -0.0000    0.0075    0.0248    0.0000
H        -3.0344    3.3753   -0.0000    0.1547    0.0268    0.0000
H        -1.0767    5.1949   -0.0000   -0.0496   -0.0157   -0.0000
H        -5.0505    1.6227   -0.0000   -0.0619   -0.0717   -0.0000
H         1.6229    5.0511   -0.0000    0.0502   -0.0226   -0.0000
H        -5.1940   -1.0770   -0.0000    0.0541   -0.0783   -0.0000
H         3.3756    3.0341   -0.0000   -0.1511    0.0491    0.0000
H        -3.3754   -3.0341   -0.0000   -0.1522    0.0499    0.0000
H         3.0341   -3.3754   -0.0000    0.1559    0.0275    0.0000
H         5.1941    1.0769   -0.0000    0.0538   -0.0780   -0.0000
H        -1.6227   -5.0513   -0.0000    0.0506   -0.0229   -0.0000
H         5.0504   -1.6228   -0.0000   -0.0622   -0.0720   -0.0000
H         1.0767   -5.1949   -0.0000   -0.0500   -0.0159   -0.0000
Mg       -0.0001    0.0000    0.0000    0.0005    0.0178   -0.0000
    37
stable frequency at    742.934 1/cm IR int. is 1.654 a.m.u.; force const. is 0.538 mDyne/Ang.
N         0.1100    2.0652    0.0000    0.0000    0.0000    0.0384
N        -2.0647    0.1100    0.0000   -0.0000   -0.0000    0.0385
N         2.0647   -0.1099    0.0000   -0.0000   -0.0000    0.0386
N        -0.1099   -2.0653    0.0000    0.0000   -0.0000    0.0386
C        -0.9521    2.9419    0.0000   -0.0000    0.0000   -0.0439
C        -2.8236    1.2591   -0.0000    0.0000    0.0000   -0.0448
C         1.2590    2.8241    0.0000    0.0000    0.0000   -0.0446
C        -2.9413   -0.9521   -0.0000   -0.0000   -0.0000   -0.0440
C        -2.3047    2.5641   -0.0000   -0.0000    0.0000   -0.0141
C        -0.4569    4.3015   -0.0000   -0.0000   -0.0000    0.0386
C        -4.2281    0.9114   -0.0000    0.0000    0.0000    0.0383
C         0.9115    4.2288   -0.0000   -0.0000   -0.0000    0.0381
C        -4.3008   -0.4569   -0.0000   -0.0000    0.0000    0.0387
C         2.5639    2.3048   -0.0000    0.0000   -0.0000   -0.0141
C        -2.5638   -2.3048   -0.0000    0.0000   -0.0000   -0.0142
C         2.9414    0.9520   -0.0000   -0.0000   -0.0000   -0.0442
C        -1.2591   -2.8242   -0.0000    0.0000    0.0000   -0.0449
C         2.8236   -1.2591   -0.0000    0.0000    0.0000   -0.0449
C         0.9520   -2.9419    0.0000   -0.0000    0.0000   -0.0440
C         2.3046   -2.5640   -0.0000   -0.0000    0.0000   -0.0143
C         4.3008    0.4568   -0.0000   -0.0000    0.0000    0.0388
C        -0.9115   -4.2288   -0.0000   -0.0000    0.0000    0.0383
C         4.2281   -0.9115   -0.0000    0.0000    0.0000    0.0384
C         0.4569   -4.3014   -0.0000   -0.0000   -0.0000    0.0387
H        -3.0344    3.3753   -0.0000   -0.0000    0.0000    0.2264
H        -1.0767    5.1949   -0.0000    0.0000    0.0000   -0.2183
H        -5.0505    1.6227   -0.0000    0.0000    0.0000   -0.2072
H         1.6229    5.0511   -0.0000   -0.0000    0.0000   -0.2067
H        -5.1940   -1.0770   -0.0000   -0.0000    0.0000   -0.2191
H         3.3756    3.0341   -0.0000    0.0000   -0.0000    0.2268
H        -3.3754   -3.0341   -0.0000    0.0000   -0.0000    0.2269
H         3.0341   -3.3754   -0.0000   -0.0000    0.0000    0.2276
H         5.1941    1.0769   -0.0000   -0.0000    0.0000   -0.2194
H        -1.6227   -5.0513   -0.0000   -0.0000    0.0000   -0.2076
H         5.0504   -1.6228   -0.0000    0.0000   -0.0000   -0.2082
H         1.0767   -5.1949   -0.0000   -0.0000   -0.0000   -0.2197
Mg       -0.0001    0.0000    0.0000   -0.0000   -0.0000   -0.0043
    37
stable frequency at    755.397 1/cm IR int. is 1.701 a.m.u.; force const. is 0.572 mDyne/Ang.
N         0.1100    2.0652    0.0000    0.0000   -0.0000   -0.0053
N        -2.0647    0.1100    0.0000   -0.0000    0.0000   -0.0421
N         2.0647   -0.1099    0.0000   -0.0000    0.0000    0.0421
N        -0.1099   -2.0653    0.0000    0.0000   -0.0000    0.0052
C        -0.9521    2.9419    0.0000    0.0000    0.0000   -0.0082
C        -2.8236    1.2591   -0.0000    0.0000    0.0000    0.0615
C         1.2590    2.8241    0.0000   -0.0000   -0.0000    0.0243
C        -2.9413   -0.9521   -0.0000    0.0000   -0.0000    0.0649
C        -2.3047    2.5641   -0.0000    0.0000    0.0000    0.0145
C        -0.4569    4.3015   -0.0000   -0.0000    0.0000    0.0013
C        -4.2281    0.9114   -0.0000    0.0000   -0.0000   -0.0577
C         0.9115    4.2288   -0.0000   -0.0000   -0.0000   -0.0164
C        -4.3008   -0.4569   -0.0000    0.0000   -0.0000   -0.0618
C         2.5639    2.3048   -0.0000   -0.0000   -0.0000   -0.0113
C        -2.5638   -2.3048   -0.0000   -0.0000   -0.0000    0.0114
C         2.9414    0.9520   -0.0000    0.0000   -0.0000   -0.0649
C        -1.2591   -2.8242   -0.0000   -0.0000    0.0000   -0.0242
C         2.8236   -1.2591   -0.0000   -0.0000    0.0000   -0.0614
C         0.9520   -2.9419    0.0000    0.0000   -0.0000    0.0084
C         2.3046   -2.5640   -0.0000    0.0000    0.0000   -0.0145
C         4.3008    0.4568   -0.0000    0.0000    0.0000    0.0617
C        -0.9115   -4.2288   -0.0000   -0.0000    0.0000    0.0162
C         4.2281   -0.9115   -0.0000   -0.0000    0.0000    0.0577
C         0.4569   -4.3014   -0.0000   -0.0000    0.0000   -0.0015
H        -3.0344    3.3753   -0.0000    0.0000    0.0000   -0.1789
H        -1.0767    5.1949   -0.0000   -0.0000    0.0000    0.0839
H        -5.0505    1.6227   -0.0000   -0.0000   -0.0000    0.3241
H         1.6229    5.0511   -0.0000   -0.0000   -0.0000    0.0004
H        -5.1940   -1.0770   -0.0000    0.0000   -0.0000    0.3357
H         3.3756    3.0341   -0.0000    0.0000   -0.0000    0.1389
H        -3.3754   -3.0341   -0.0000   -0.0000    0.0000   -0.1395
H         3.0341   -3.3754   -0.0000    0.0000    0.0000    0.1786
H         5.1941    1.0769   -0.0000    0.0000    0.0000   -0.3350
H        -1.6227   -5.0513   -0.0000   -0.0000    0.0000    0.0006
H         5.0504   -1.6228   -0.0000   -0.0000   -0.0000   -0.3239
H         1.0767   -5.1949   -0.0000   -0.0000   -0.0000   -0.0830
Mg       -0.0001    0.0000    0.0000    0.0000   -0.0000    0.0000
    37
stable frequency at    755.444 1/cm IR int. is 1.700 a.m.u.; force const. is 0.572 mDyne/Ang.
N         0.1100    2.0652    0.0000    0.0000   -0.0000    0.0421
N        -2.0647    0.1100    0.0000   -0.0000   -0.0000   -0.0052
N         2.0647   -0.1099    0.0000   -0.0000    0.0000    0.0053
N        -0.1099   -2.0653    0.0000    0.0000   -0.0000   -0.0420
C        -0.9521    2.9419    0.0000   -0.0000    0.0000   -0.0649
C        -2.8236    1.2591   -0.0000    0.0000    0.0000    0.0241
C         1.2590    2.8241    0.0000    0.0000   -0.0000   -0.0614
C        -2.9413   -0.9521   -0.0000   -0.0000   -0.0000   -0.0084
C        -2.3047    2.5641   -0.0000   -0.0000    0.0000   -0.0114
C        -0.4569    4.3015   -0.0000   -0.0000    0.0000    0.0618
C        -4.2281    0.9114   -0.0000    0.0000   -0.0000   -0.0162
C         0.9115    4.2288   -0.0000   -0.0000    0.0000    0.0576
C        -4.3008   -0.4569   -0.0000   -0.0000   -0.0000    0.0015
C         2.5639    2.3048   -0.0000   -0.0000   -0.0000   -0.0145
C        -2.5638   -2.3048   -0.0000   -0.0000    0.0000    0.0145
C         2.9414    0.9520   -0.0000   -0.0000   -0.0000    0.0082
C        -1.2591   -2.8242   -0.0000    0.0000    0.0000    0.0614
C         2.8236   -1.2591   -0.0000    0.0000    0.0000   -0.0244
C         0.9520   -2.9419    0.0000    0.0000   -0.0000    0.0648
C         2.3046   -2.5640   -0.0000   -0.0000    0.0000    0.0114
C         4.3008    0.4568   -0.0000   -0.0000   -0.0000   -0.0013
C        -0.9115   -4.2288   -0.0000   -0.0000    0.0000   -0.0576
C         4.2281   -0.9115   -0.0000    0.0000   -0.0000    0.0164
C         0.4569   -4.3014   -0.0000   -0.0000   -0.0000   -0.0618
H        -3.0344    3.3753   -0.0000   -0.0000    0.0000    0.1395
H        -1.0767    5.1949   -0.0000   -0.0000   -0.0000   -0.3358
H        -5.0505    1.6227   -0.0000    0.0000   -0.0000   -0.0007
H         1.6229    5.0511   -0.0000   -0.0000    0.0000   -0.3241
H        -5.1940   -1.0770   -0.0000   -0.0000    0.0000    0.0829
H         3.3756    3.0341   -0.0000    0.0000   -0.0000    0.1790
H        -3.3754   -3.0341   -0.0000    0.0000   -0.0000   -0.1782
H         3.0341   -3.3754   -0.0000   -0.0000    0.0000   -0.1390
H         5.1941    1.0769   -0.0000   -0.0000    0.0000   -0.0841
H        -1.6227   -5.0513   -0.0000   -0.0000    0.0000    0.3237
H         5.0504   -1.6228   -0.0000    0.0000   -0.0000   -0.0004
H         1.0767   -5.1949   -0.0000   -0.0000   -0.0000    0.3358
Mg       -0.0001    0.0000    0.0000    0.0000   -0.0000   -0.0000
    37
stable frequency at    765.060 1/cm IR int. is 1.819 a.m.u.; force const. is 0.627 mDyne/Ang.
N         0.1100    2.0652    0.0000    0.0000    0.0000    0.0258
N        -2.0647    0.1100    0.0000    0.0000    0.0000   -0.0257
N         2.0647   -0.1099    0.0000    0.0000    0.0000   -0.0257
N        -0.1099   -2.0653    0.0000    0.0000    0.0000    0.0257
C        -0.9521    2.9419    0.0000   -0.0000   -0.0000   -0.0492
C        -2.8236    1.2591   -0.0000   -0.0000   -0.0000    0.0500
C         1.2590    2.8241    0.0000   -0.0000    0.0000   -0.0500
C        -2.9413   -0.9521   -0.0000    0.0000    0.0000    0.0491
C        -2.3047    2.5641   -0.0000   -0.0000   -0.0000   -0.0001
C        -0.4569    4.3015   -0.0000    0.0000   -0.0000    0.0474
C        -4.2281    0.9114   -0.0000   -0.0000    0.0000   -0.0469
C         0.9115    4.2288   -0.0000    0.0000    0.0000    0.0469
C        -4.3008   -0.4569   -0.0000    0.0000    0.0000   -0.0473
C         2.5639    2.3048   -0.0000   -0.0000   -0.0000   -0.0000
C        -2.5638   -2.3048   -0.0000   -0.0000   -0.0000    0.0000
C         2.9414    0.9520   -0.0000    0.0000   -0.0000    0.0491
C        -1.2591   -2.8242   -0.0000   -0.0000    0.0000   -0.0500
C         2.8236   -1.2591   -0.0000   -0.0000    0.0000    0.0499
C         0.9520   -2.9419    0.0000   -0.0000   -0.0000   -0.0491
C         2.3046   -2.5640   -0.0000   -0.0000   -0.0000   -0.0001
C         4.3008    0.4568   -0.0000    0.0000    0.0000   -0.0472
C        -0.9115   -4.2288   -0.0000    0.0000    0.0000    0.0468
C         4.2281   -0.9115   -0.0000   -0.0000    0.0000   -0.0468
C         0.4569   -4.3014   -0.0000    0.0000   -0.0000    0.0473
H        -3.0344    3.3753   -0.0000   -0.0000   -0.0000   -0.0006
H        -1.0767    5.1949   -0.0000    0.0000   -0.0000   -0.2593
H        -5.0505    1.6227   -0.0000   -0.0000    0.0000    0.2459
H         1.6229    5.0511   -0.0000    0.0000    0.0000   -0.2466
H        -5.1940   -1.0770   -0.0000    0.0000   -0.0000    0.2586
H         3.3756    3.0341   -0.0000   -0.0000   -0.0000    0.0014
H        -3.3754   -3.0341   -0.0000   -0.0000   -0.0000    0.0008
H         3.0341   -3.3754   -0.0000   -0.0000    0.0000   -0.0007
H         5.1941    1.0769   -0.0000    0.0000    0.0000    0.2579
H        -1.6227   -5.0513   -0.0000    0.0000    0.0000   -0.2459
H         5.0504   -1.6228   -0.0000   -0.0000    0.0000    0.2458
H         1.0767   -5.1949   -0.0000    0.0000   -0.0000   -0.2589
Mg       -0.0001    0.0000    0.0000    0.0000    0.0000   -0.0000
    37
stable frequency at    787.863 1/cm IR int. is 6.695 a.m.u.; force const. is 2.449 mDyne/Ang.
N         0.1100    2.0652    0.0000   -0.0059    0.0001   -0.0000
N        -2.0647    0.1100    0.0000    0.0000   -0.0060   -0.0000
N         2.0647   -0.1099    0.0000    0.0004    0.0059    0.0000
N        -0.1099   -2.0653    0.0000    0.0060   -0.0002    0.0000
C        -0.9521    2.9419    0.0000   -0.0268   -0.0393   -0.0000
C        -2.8236    1.2591   -0.0000   -0.0414   -0.0225    0.0000
C         1.2590    2.8241    0.0000   -0.0226    0.0420    0.0000
C        -2.9413   -0.9521   -0.0000    0.0387   -0.0265    0.0000
C        -2.3047    2.5641   -0.0000   -0.0506   -0.0443    0.0000
C        -0.4569    4.3015   -0.0000    0.0585   -0.0428    0.0000
C        -4.2281    0.9114   -0.0000   -0.0358    0.0622   -0.0000
C         0.9115    4.2288   -0.0000    0.0629    0.0365   -0.0000
C        -4.3008   -0.4569   -0.0000    0.0421    0.0579   -0.0000
C         2.5639    2.3048   -0.0000   -0.0451    0.0501    0.0000
C        -2.5638   -2.3048   -0.0000    0.0440   -0.0498    0.0000
C         2.9414    0.9520   -0.0000   -0.0389    0.0267   -0.0000
C        -1.2591   -2.8242   -0.0000    0.0223   -0.0412   -0.0000
C         2.8236   -1.2591   -0.0000    0.0416    0.0224   -0.0000
C         0.9520   -2.9419    0.0000    0.0265    0.0385    0.0000
C         2.3046   -2.5640   -0.0000    0.0494    0.0447   -0.0000
C         4.3008    0.4568   -0.0000   -0.0422   -0.0581   -0.0000
C        -0.9115   -4.2288   -0.0000   -0.0619   -0.0356    0.0000
C         4.2281   -0.9115   -0.0000    0.0362   -0.0625    0.0000
C         0.4569   -4.3014   -0.0000   -0.0575    0.0416   -0.0000
H        -3.0344    3.3753   -0.0000   -0.0642   -0.0562   -0.0000
H        -1.0767    5.1949   -0.0000    0.0599   -0.0409    0.0000
H        -5.0505    1.6227   -0.0000   -0.0302    0.0685    0.0000
H         1.6229    5.0511   -0.0000    0.0687    0.0314   -0.0000
H        -5.1940   -1.0770   -0.0000    0.0399    0.0598    0.0000
H         3.3756    3.0341   -0.0000   -0.0570    0.0638   -0.0000
H        -3.3754   -3.0341   -0.0000    0.0559   -0.0634   -0.0000
H         3.0341   -3.3754   -0.0000    0.0631    0.0566   -0.0000
H         5.1941    1.0769   -0.0000   -0.0400   -0.0600    0.0000
H        -1.6227   -5.0513   -0.0000   -0.0682   -0.0300   -0.0000
H         5.0504   -1.6228   -0.0000    0.0310   -0.0685   -0.0000
H         1.0767   -5.1949   -0.0000   -0.0597    0.0393    0.0000
Mg       -0.0001    0.0000    0.0000   -0.0001    0.0000    0.0000
    37
stable frequency at    789.580 1/cm IR int. is 6.723 a.m.u.; force const. is 2.469 mDyne/Ang.
N         0.1100    2.0652    0.0000    0.0043   -0.0013   -0.0000
N        -2.0647    0.1100    0.0000    0.0295   -0.0017    0.0000
N         2.0647   -0.1099    0.0000    0.0295   -0.0018    0.0000
N        -0.1099   -2.0653    0.0000    0.0042   -0.0013   -0.0000
C        -0.9521    2.9419    0.0000   -0.0204   -0.0544    0.0000
C        -2.8236    1.2591   -0.0000    0.0015   -0.0081   -0.0000
C         1.2590    2.8241    0.0000   -0.0149    0.0564    0.0000
C        -2.9413   -0.9521   -0.0000   -0.0017    0.0096   -0.0000
C        -2.3047    2.5641   -0.0000   -0.0728    0.0116    0.0000
C        -0.4569    4.3015   -0.0000    0.0633   -0.0746   -0.0000
C        -4.2281    0.9114   -0.0000    0.0145   -0.0089   -0.0000
C         0.9115    4.2288   -0.0000    0.0706    0.0669   -0.0000
C        -4.3008   -0.4569   -0.0000    0.0101    0.0026    0.0000
C         2.5639    2.3048   -0.0000   -0.0723    0.0010    0.0000
C        -2.5638   -2.3048   -0.0000   -0.0730    0.0017   -0.0000
C         2.9414    0.9520   -0.0000   -0.0011    0.0092   -0.0000
C        -1.2591   -2.8242   -0.0000   -0.0153    0.0570    0.0000
C         2.8236   -1.2591   -0.0000    0.0009   -0.0085   -0.0000
C         0.9520   -2.9419    0.0000   -0.0208   -0.0549    0.0000
C         2.3046   -2.5640   -0.0000   -0.0735    0.0110    0.0000
C         4.3008    0.4568   -0.0000    0.0107    0.0035    0.0000
C        -0.9115   -4.2288   -0.0000    0.0715    0.0674   -0.0000
C         4.2281   -0.9115   -0.0000    0.0139   -0.0080    0.0000
C         0.4569   -4.3014   -0.0000    0.0642   -0.0752   -0.0000
H        -3.0344    3.3753   -0.0000   -0.0796    0.0049   -0.0000
H        -1.0767    5.1949   -0.0000    0.0193   -0.1045    0.0000
H        -5.0505    1.6227   -0.0000    0.0288    0.0062   -0.0000
H         1.6229    5.0511   -0.0000    0.0364    0.0968    0.0000
H        -5.1940   -1.0770   -0.0000    0.0212   -0.0120   -0.0000
H         3.3756    3.0341   -0.0000   -0.0765    0.0067   -0.0000
H        -3.3754   -3.0341   -0.0000   -0.0774    0.0077    0.0000
H         3.0341   -3.3754   -0.0000   -0.0805    0.0041    0.0000
H         5.1941    1.0769   -0.0000    0.0218   -0.0111   -0.0000
H        -1.6227   -5.0513   -0.0000    0.0374    0.0973    0.0000
H         5.0504   -1.6228   -0.0000    0.0283    0.0072   -0.0000
H         1.0767   -5.1949   -0.0000    0.0202   -0.1051    0.0000
Mg       -0.0001    0.0000    0.0000   -0.0127    0.0011    0.0000
    37
stable frequency at    789.610 1/cm IR int. is 6.723 a.m.u.; force const. is 2.470 mDyne/Ang.
N         0.1100    2.0652    0.0000   -0.0018   -0.0295   -0.0000
N        -2.0647    0.1100    0.0000   -0.0013   -0.0042   -0.0000
N         2.0647   -0.1099    0.0000   -0.0013   -0.0042   -0.0000
N        -0.1099   -2.0653    0.0000   -0.0018   -0.0295    0.0000
C        -0.9521    2.9419    0.0000    0.0094    0.0015    0.0000
C        -2.8236    1.2591   -0.0000    0.0568    0.0151    0.0000
C         1.2590    2.8241    0.0000   -0.0083   -0.0012    0.0000
C        -2.9413   -0.9521   -0.0000   -0.0547    0.0206    0.0000
C        -2.3047    2.5641   -0.0000    0.0014    0.0727   -0.0000
C        -0.4569    4.3015   -0.0000    0.0029   -0.0103    0.0000
C        -4.2281    0.9114   -0.0000    0.0672   -0.0712   -0.0000
C         0.9115    4.2288   -0.0000   -0.0086   -0.0143   -0.0000
C        -4.3008   -0.4569   -0.0000   -0.0750   -0.0639   -0.0000
C         2.5639    2.3048   -0.0000    0.0114    0.0731    0.0000
C        -2.5638   -2.3048   -0.0000    0.0112    0.0733    0.0000
C         2.9414    0.9520   -0.0000   -0.0546    0.0205    0.0000
C        -1.2591   -2.8242   -0.0000   -0.0084   -0.0011   -0.0000
C         2.8236   -1.2591   -0.0000    0.0566    0.0151    0.0000
C         0.9520   -2.9419    0.0000    0.0093    0.0013    0.0000
C         2.3046   -2.5640   -0.0000    0.0012    0.0726   -0.0000
C         4.3008    0.4568   -0.0000   -0.0748   -0.0637   -0.0000
C        -0.9115   -4.2288   -0.0000   -0.0083   -0.0141    0.0000
C         4.2281   -0.9115   -0.0000    0.0671   -0.0710   -0.0000
C         0.4569   -4.3014   -0.0000    0.0031   -0.0104    0.0000
H        -3.0344    3.3753   -0.0000    0.0073    0.0770   -0.0000
H        -1.0767    5.1949   -0.0000   -0.0117   -0.0214   -0.0000
H        -5.0505    1.6227   -0.0000    0.0971   -0.0371    0.0000
H         1.6229    5.0511   -0.0000    0.0066   -0.0286    0.0000
H        -5.1940   -1.0770   -0.0000   -0.1048   -0.0199    0.0000
H         3.3756    3.0341   -0.0000    0.0046    0.0799   -0.0000
H        -3.3754   -3.0341   -0.0000    0.0044    0.0802    0.0000
H         3.0341   -3.3754   -0.0000    0.0071    0.0769    0.0000
H         5.1941    1.0769   -0.0000   -0.1047   -0.0197    0.0000
H        -1.6227   -5.0513   -0.0000    0.0069   -0.0285   -0.0000
H         5.0504   -1.6228   -0.0000    0.0970   -0.0368    0.0000
H         1.0767   -5.1949   -0.0000   -0.0115   -0.0216   -0.0000
Mg       -0.0001    0.0000    0.0000    0.0011    0.0127    0.0000
    37
stable frequency at    810.580 1/cm IR int. is 5.212 a.m.u.; force const. is 2.018 mDyne/Ang.
N         0.1100    2.0652    0.0000    0.0087   -0.0006    0.0000
N        -2.0647    0.1100    0.0000   -0.0006   -0.0087   -0.0000
N         2.0647   -0.1099    0.0000    0.0006    0.0087   -0.0000
N        -0.1099   -2.0653    0.0000   -0.0087    0.0006   -0.0000
C        -0.9521    2.9419    0.0000   -0.0086   -0.0347   -0.0000
C        -2.8236    1.2591   -0.0000    0.0356    0.0049   -0.0000
C         1.2590    2.8241    0.0000   -0.0048    0.0355    0.0000
C        -2.9413   -0.9521   -0.0000   -0.0348    0.0086   -0.0000
C        -2.3047    2.5641   -0.0000   -0.0487    0.0541    0.0000
C        -0.4569    4.3015   -0.0000    0.0332   -0.0638    0.0000
C        -4.2281    0.9114   -0.0000    0.0601   -0.0398   -0.0000
C         0.9115    4.2288   -0.0000    0.0397    0.0601   -0.0000
C        -4.3008   -0.4569   -0.0000   -0.0639   -0.0333    0.0000
C         2.5639    2.3048   -0.0000   -0.0540   -0.0488   -0.0000
C        -2.5638   -2.3048   -0.0000    0.0540    0.0488    0.0000
C         2.9414    0.9520   -0.0000    0.0348   -0.0086    0.0000
C        -1.2591   -2.8242   -0.0000    0.0048   -0.0355    0.0000
C         2.8236   -1.2591   -0.0000   -0.0356   -0.0048   -0.0000
C         0.9520   -2.9419    0.0000    0.0086    0.0347   -0.0000
C         2.3046   -2.5640   -0.0000    0.0487   -0.0541    0.0000
C         4.3008    0.4568   -0.0000    0.0639    0.0333   -0.0000
C        -0.9115   -4.2288   -0.0000   -0.0397   -0.0601   -0.0000
C         4.2281   -0.9115   -0.0000   -0.0601    0.0398    0.0000
C         0.4569   -4.3014   -0.0000   -0.0332    0.0639    0.0000
H        -3.0344    3.3753   -0.0000   -0.0498    0.0525   -0.0000
H        -1.0767    5.1949   -0.0000   -0.0299   -0.1075   -0.0000
H        -5.0505    1.6227   -0.0000    0.1083    0.0152    0.0000
H         1.6229    5.0511   -0.0000   -0.0153    0.1083   -0.0000
H        -5.1940   -1.0770   -0.0000   -0.1075    0.0297   -0.0000
H         3.3756    3.0341   -0.0000   -0.0525   -0.0499    0.0000
H        -3.3754   -3.0341   -0.0000    0.0525    0.0499   -0.0000
H         3.0341   -3.3754   -0.0000    0.0499   -0.0525   -0.0000
H         5.1941    1.0769   -0.0000    0.1075   -0.0297    0.0000
H        -1.6227   -5.0513   -0.0000    0.0154   -0.1083    0.0000
H         5.0504   -1.6228   -0.0000   -0.1083   -0.0153    0.0000
H         1.0767   -5.1949   -0.0000    0.0299    0.1075    0.0000
Mg       -0.0001    0.0000    0.0000    0.0000   -0.0000    0.0000
    37
stable frequency at    825.215 1/cm IR int. is 1.356 a.m.u.; force const. is 0.544 mDyne/Ang.
N         0.1100    2.0652    0.0000    0.0000    0.0000   -0.0001
N        -2.0647    0.1100    0.0000    0.0000    0.0000    0.0001
N         2.0647   -0.1099    0.0000   -0.0000   -0.0000    0.0001
N        -0.1099   -2.0653    0.0000   -0.0000    0.0000   -0.0001
C        -0.9521    2.9419    0.0000   -0.0000   -0.0000    0.0269
C        -2.8236    1.2591   -0.0000    0.0000   -0.0000    0.0265
C         1.2590    2.8241    0.0000   -0.0000    0.0000   -0.0267
C        -2.9413   -0.9521   -0.0000   -0.0000    0.0000   -0.0271
C        -2.3047    2.5641   -0.0000   -0.0000    0.0000   -0.0653
C        -0.4569    4.3015   -0.0000    0.0000   -0.0000    0.0050
C        -4.2281    0.9114   -0.0000    0.0000   -0.0000    0.0060
C         0.9115    4.2288   -0.0000    0.0000    0.0000   -0.0058
C        -4.3008   -0.4569   -0.0000   -0.0000    0.0000   -0.0049
C         2.5639    2.3048   -0.0000   -0.0000   -0.0000    0.0658
C        -2.5638   -2.3048   -0.0000    0.0000    0.0000    0.0656
C         2.9414    0.9520   -0.0000    0.0000   -0.0000   -0.0270
C        -1.2591   -2.8242   -0.0000   -0.0000   -0.0000   -0.0266
C         2.8236   -1.2591   -0.0000   -0.0000    0.0000    0.0270
C         0.9520   -2.9419    0.0000    0.0000    0.0000    0.0274
C         2.3046   -2.5640   -0.0000    0.0000   -0.0000   -0.0664
C         4.3008    0.4568   -0.0000    0.0000    0.0000   -0.0052
C        -0.9115   -4.2288   -0.0000   -0.0000   -0.0000   -0.0060
C         4.2281   -0.9115   -0.0000   -0.0000    0.0000    0.0059
C         0.4569   -4.3014   -0.0000   -0.0000    0.0000    0.0048
H        -3.0344    3.3753   -0.0000   -0.0000   -0.0000    0.3773
H        -1.0767    5.1949   -0.0000   -0.0000   -0.0000   -0.1289
H        -5.0505    1.6227   -0.0000    0.0000   -0.0000   -0.1321
H         1.6229    5.0511   -0.0000   -0.0000    0.0000    0.1313
H        -5.1940   -1.0770   -0.0000   -0.0000   -0.0000    0.1281
H         3.3756    3.0341   -0.0000   -0.0000   -0.0000   -0.3800
H        -3.3754   -3.0341   -0.0000    0.0000    0.0000   -0.3793
H         3.0341   -3.3754   -0.0000    0.0000   -0.0000    0.3832
H         5.1941    1.0769   -0.0000    0.0000   -0.0000    0.1306
H        -1.6227   -5.0513   -0.0000    0.0000   -0.0000    0.1333
H         5.0504   -1.6228   -0.0000   -0.0000   -0.0000   -0.1325
H         1.0767   -5.1949   -0.0000   -0.0000    0.0000   -0.1284
Mg       -0.0001    0.0000    0.0000   -0.0000   -0.0000    0.0000
    37
stable frequency at    832.841 1/cm IR int. is 1.430 a.m.u.; force const. is 0.584 mDyne/Ang.
N         0.1100    2.0652    0.0000   -0.0000    0.0000    0.0005
N        -2.0647    0.1100    0.0000    0.0000   -0.0000    0.0002
N         2.0647   -0.1099    0.0000    0.0000    0.0000   -0.0002
N        -0.1099   -2.0653    0.0000    0.0000    0.0000   -0.0005
C        -0.9521    2.9419    0.0000    0.0000   -0.0000   -0.0409
C        -2.8236    1.2591   -0.0000   -0.0000    0.0000   -0.0353
C         1.2590    2.8241    0.0000   -0.0000   -0.0000   -0.0196
C        -2.9413   -0.9521   -0.0000    0.0000   -0.0000    0.0083
C        -2.3047    2.5641   -0.0000    0.0000    0.0000    0.0877
C        -0.4569    4.3015   -0.0000    0.0000   -0.0000    0.0192
C        -4.2281    0.9114   -0.0000   -0.0000    0.0000   -0.0029
C         0.9115    4.2288   -0.0000    0.0000    0.0000    0.0226
C        -4.3008   -0.4569   -0.0000   -0.0000   -0.0000    0.0205
C         2.5639    2.3048   -0.0000   -0.0000   -0.0000    0.0311
C        -2.5638   -2.3048   -0.0000   -0.0000   -0.0000   -0.0326
C         2.9414    0.9520   -0.0000    0.0000   -0.0000   -0.0076
C        -1.2591   -2.8242   -0.0000   -0.0000   -0.0000    0.0202
C         2.8236   -1.2591   -0.0000   -0.0000   -0.0000    0.0354
C         0.9520   -2.9419    0.0000    0.0000   -0.0000    0.0411
C         2.3046   -2.5640   -0.0000    0.0000   -0.0000   -0.0877
C         4.3008    0.4568   -0.0000    0.0000    0.0000   -0.0207
C        -0.9115   -4.2288   -0.0000   -0.0000   -0.0000   -0.0227
C         4.2281   -0.9115   -0.0000   -0.0000    0.0000    0.0025
C         0.4569   -4.3014   -0.0000   -0.0000    0.0000   -0.0196
H        -3.0344    3.3753   -0.0000    0.0000    0.0000   -0.4850
H        -1.0767    5.1949   -0.0000   -0.0000   -0.0000   -0.0536
H        -5.0505    1.6227   -0.0000   -0.0000    0.0000    0.1036
H         1.6229    5.0511   -0.0000   -0.0000    0.0000   -0.1472
H        -5.1940   -1.0770   -0.0000    0.0000   -0.0000   -0.1858
H         3.3756    3.0341   -0.0000   -0.0000    0.0000   -0.1741
H        -3.3754   -3.0341   -0.0000   -0.0000   -0.0000    0.1822
H         3.0341   -3.3754   -0.0000    0.0000   -0.0000    0.4844
H         5.1941    1.0769   -0.0000    0.0000   -0.0000    0.1856
H        -1.6227   -5.0513   -0.0000    0.0000   -0.0000    0.1464
H         5.0504   -1.6228   -0.0000    0.0000    0.0000   -0.1008
H         1.0767   -5.1949   -0.0000    0.0000    0.0000    0.0567
Mg       -0.0001    0.0000    0.0000    0.0000    0.0000    0.0000
    37
stable frequency at    832.876 1/cm IR int. is 1.430 a.m.u.; force const. is 0.584 mDyne/Ang.
N         0.1100    2.0652    0.0000   -0.0000    0.0000   -0.0002
N        -2.0647    0.1100    0.0000    0.0000   -0.0000    0.0005
N         2.0647   -0.1099    0.0000    0.0000   -0.0000   -0.0005
N        -0.1099   -2.0653    0.0000   -0.0000   -0.0000    0.0002
C        -0.9521    2.9419    0.0000   -0.0000    0.0000   -0.0079
C        -2.8236    1.2591   -0.0000   -0.0000   -0.0000   -0.0199
C         1.2590    2.8241    0.0000    0.0000    0.0000    0.0354
C        -2.9413   -0.9521   -0.0000    0.0000    0.0000   -0.0409
C        -2.3047    2.5641   -0.0000   -0.0000   -0.0000    0.0318
C        -0.4569    4.3015   -0.0000    0.0000    0.0000   -0.0206
C        -4.2281    0.9114   -0.0000   -0.0000    0.0000    0.0227
C         0.9115    4.2288   -0.0000    0.0000    0.0000    0.0027
C        -4.3008   -0.4569   -0.0000    0.0000    0.0000    0.0193
C         2.5639    2.3048   -0.0000    0.0000    0.0000   -0.0879
C        -2.5638   -2.3048   -0.0000    0.0000    0.0000    0.0874
C         2.9414    0.9520   -0.0000   -0.0000    0.0000    0.0411
C        -1.2591   -2.8242   -0.0000   -0.0000    0.0000   -0.0352
C         2.8236   -1.2591   -0.0000    0.0000   -0.0000    0.0200
C         0.9520   -2.9419    0.0000   -0.0000   -0.0000    0.0080
C         2.3046   -2.5640   -0.0000   -0.0000    0.0000   -0.0320
C         4.3008    0.4568   -0.0000   -0.0000    0.0000   -0.0193
C        -0.9115   -4.2288   -0.0000    0.0000    0.0000   -0.0027
C         4.2281   -0.9115   -0.0000   -0.0000    0.0000   -0.0228
C         0.4569   -4.3014   -0.0000    0.0000    0.0000    0.0204
H        -3.0344    3.3753   -0.0000   -0.0000   -0.0000   -0.1780
H        -1.0767    5.1949   -0.0000   -0.0000   -0.0000    0.1859
H        -5.0505    1.6227   -0.0000   -0.0000   -0.0000   -0.1466
H         1.6229    5.0511   -0.0000    0.0000   -0.0000   -0.1021
H        -5.1940   -1.0770   -0.0000    0.0000   -0.0000   -0.0547
H         3.3756    3.0341   -0.0000    0.0000   -0.0000    0.4862
H        -3.3754   -3.0341   -0.0000    0.0000   -0.0000   -0.4834
H         3.0341   -3.3754   -0.0000   -0.0000    0.0000    0.1787
H         5.1941    1.0769   -0.0000    0.0000   -0.0000    0.0546
H        -1.6227   -5.0513   -0.0000    0.0000    0.0000    0.1023
H         5.0504   -1.6228   -0.0000   -0.0000   -0.0000    0.1476
H         1.0767   -5.1949   -0.0000    0.0000   -0.0000   -0.1849
Mg       -0.0001    0.0000    0.0000    0.0000   -0.0000    0.0000
    37
stable frequency at    840.018 1/cm IR int. is 1.542 a.m.u.; force const. is 0.641 mDyne/Ang.
N         0.1100    2.0652    0.0000    0.0000   -0.0000   -0.0007
N        -2.0647    0.1100    0.0000    0.0000   -0.0000   -0.0007
N         2.0647   -0.1099    0.0000    0.0000    0.0000   -0.0008
N        -0.1099   -2.0653    0.0000   -0.0000    0.0000   -0.0008
C        -0.9521    2.9419    0.0000    0.0000   -0.0000    0.0330
C        -2.8236    1.2591   -0.0000   -0.0000    0.0000    0.0323
C         1.2590    2.8241    0.0000   -0.0000    0.0000    0.0321
C        -2.9413   -0.9521   -0.0000    0.0000   -0.0000    0.0329
C        -2.3047    2.5641   -0.0000   -0.0000    0.0000   -0.0703
C        -0.4569    4.3015   -0.0000    0.0000   -0.0000   -0.0237
C        -4.2281    0.9114   -0.0000    0.0000   -0.0000   -0.0179
C         0.9115    4.2288   -0.0000    0.0000    0.0000   -0.0180
C        -4.3008   -0.4569   -0.0000    0.0000   -0.0000   -0.0238
C         2.5639    2.3048   -0.0000   -0.0000    0.0000   -0.0699
C        -2.5638   -2.3048   -0.0000   -0.0000   -0.0000   -0.0700
C         2.9414    0.9520   -0.0000    0.0000    0.0000    0.0328
C        -1.2591   -2.8242   -0.0000   -0.0000   -0.0000    0.0321
C         2.8236   -1.2591   -0.0000   -0.0000   -0.0000    0.0319
C         0.9520   -2.9419    0.0000    0.0000    0.0000    0.0326
C         2.3046   -2.5640   -0.0000    0.0000   -0.0000   -0.0693
C         4.3008    0.4568   -0.0000    0.0000    0.0000   -0.0234
C        -0.9115   -4.2288   -0.0000   -0.0000   -0.0000   -0.0177
C         4.2281   -0.9115   -0.0000   -0.0000    0.0000   -0.0179
C         0.4569   -4.3014   -0.0000   -0.0000    0.0000   -0.0236
H        -3.0344    3.3753   -0.0000   -0.0000   -0.0000    0.3703
H        -1.0767    5.1949   -0.0000   -0.0000   -0.0000    0.1130
H        -5.0505    1.6227   -0.0000   -0.0000   -0.0000    0.0798
H         1.6229    5.0511   -0.0000    0.0000   -0.0000    0.0809
H        -5.1940   -1.0770   -0.0000   -0.0000    0.0000    0.1140
H         3.3756    3.0341   -0.0000   -0.0000   -0.0000    0.3676
H        -3.3754   -3.0341   -0.0000   -0.0000    0.0000    0.3681
H         3.0341   -3.3754   -0.0000    0.0000   -0.0000    0.3642
H         5.1941    1.0769   -0.0000    0.0000   -0.0000    0.1115
H        -1.6227   -5.0513   -0.0000   -0.0000    0.0000    0.0786
H         5.0504   -1.6228   -0.0000   -0.0000   -0.0000    0.0807
H         1.0767   -5.1949   -0.0000   -0.0000   -0.0000    0.1137
Mg       -0.0001    0.0000    0.0000   -0.0000   -0.0000    0.0005
    37
stable frequency at    872.132 1/cm IR int. is 1.353 a.m.u.; force const. is 0.606 mDyne/Ang.
N         0.1100    2.0652    0.0000   -0.0000   -0.0000    0.0001
N        -2.0647    0.1100    0.0000   -0.0000    0.0000    0.0001
N         2.0647   -0.1099    0.0000   -0.0000    0.0000    0.0001
N        -0.1099   -2.0653    0.0000   -0.0000   -0.0000    0.0001
C        -0.9521    2.9419    0.0000   -0.0000    0.0000   -0.0048
C        -2.8236    1.2591   -0.0000   -0.0000    0.0000    0.0085
C         1.2590    2.8241    0.0000    0.0000   -0.0000    0.0084
C        -2.9413   -0.9521   -0.0000    0.0000   -0.0000   -0.0049
C        -2.3047    2.5641   -0.0000   -0.0000   -0.0000   -0.0032
C        -0.4569    4.3015   -0.0000   -0.0000    0.0000    0.0511
C        -4.2281    0.9114   -0.0000   -0.0000    0.0000   -0.0554
C         0.9115    4.2288   -0.0000    0.0000    0.0000   -0.0551
C        -4.3008   -0.4569   -0.0000    0.0000    0.0000    0.0515
C         2.5639    2.3048   -0.0000    0.0000    0.0000   -0.0028
C        -2.5638   -2.3048   -0.0000    0.0000   -0.0000   -0.0029
C         2.9414    0.9520   -0.0000   -0.0000    0.0000   -0.0050
C        -1.2591   -2.8242   -0.0000    0.0000    0.0000    0.0084
C         2.8236   -1.2591   -0.0000    0.0000   -0.0000    0.0086
C         0.9520   -2.9419    0.0000   -0.0000    0.0000   -0.0047
C         2.3046   -2.5640   -0.0000   -0.0000   -0.0000   -0.0034
C         4.3008    0.4568   -0.0000    0.0000    0.0000    0.0519
C        -0.9115   -4.2288   -0.0000   -0.0000    0.0000   -0.0548
C         4.2281   -0.9115   -0.0000    0.0000    0.0000   -0.0558
C         0.4569   -4.3014   -0.0000   -0.0000    0.0000    0.0508
H        -3.0344    3.3753   -0.0000   -0.0000   -0.0000    0.0184
H        -1.0767    5.1949   -0.0000   -0.0000    0.0000   -0.2871
H        -5.0505    1.6227   -0.0000   -0.0000    0.0000    0.3101
H         1.6229    5.0511   -0.0000    0.0000   -0.0000    0.3085
H        -5.1940   -1.0770   -0.0000    0.0000    0.0000   -0.2889
H         3.3756    3.0341   -0.0000    0.0000   -0.0000    0.0167
H        -3.3754   -3.0341   -0.0000    0.0000   -0.0000    0.0169
H         3.0341   -3.3754   -0.0000   -0.0000   -0.0000    0.0196
H         5.1941    1.0769   -0.0000    0.0000   -0.0000   -0.2910
H        -1.6227   -5.0513   -0.0000    0.0000    0.0000    0.3070
H         5.0504   -1.6228   -0.0000    0.0000    0.0000    0.3121
H         1.0767   -5.1949   -0.0000   -0.0000    0.0000   -0.2852
Mg       -0.0001    0.0000    0.0000   -0.0000   -0.0000    0.0001
    37
stable frequency at    876.655 1/cm IR int. is 1.391 a.m.u.; force const. is 0.630 mDyne/Ang.
N         0.1100    2.0652    0.0000    0.0000   -0.0000   -0.0002
N        -2.0647    0.1100    0.0000   -0.0000   -0.0000    0.0000
N         2.0647   -0.1099    0.0000    0.0000    0.0000   -0.0000
N        -0.1099   -2.0653    0.0000    0.0000   -0.0000    0.0002
C        -0.9521    2.9419    0.0000   -0.0000   -0.0000   -0.0092
C        -2.8236    1.2591   -0.0000   -0.0000   -0.0000   -0.0167
C         1.2590    2.8241    0.0000    0.0000    0.0000   -0.0059
C        -2.9413   -0.9521   -0.0000    0.0000    0.0000    0.0118
C        -2.3047    2.5641   -0.0000   -0.0000    0.0000    0.0257
C        -0.4569    4.3015   -0.0000    0.0000   -0.0000    0.0096
C        -4.2281    0.9114   -0.0000   -0.0000    0.0000    0.0763
C         0.9115    4.2288   -0.0000    0.0000    0.0000   -0.0009
C        -4.3008   -0.4569   -0.0000    0.0000    0.0000   -0.0707
C         2.5639    2.3048   -0.0000   -0.0000   -0.0000    0.0181
C        -2.5638   -2.3048   -0.0000    0.0000    0.0000   -0.0178
C         2.9414    0.9520   -0.0000    0.0000    0.0000   -0.0120
C        -1.2591   -2.8242   -0.0000   -0.0000   -0.0000    0.0057
C         2.8236   -1.2591   -0.0000   -0.0000   -0.0000    0.0168
C         0.9520   -2.9419    0.0000    0.0000    0.0000    0.0094
C         2.3046   -2.5640   -0.0000    0.0000   -0.0000   -0.0259
C         4.3008    0.4568   -0.0000    0.0000    0.0000    0.0711
C        -0.9115   -4.2288   -0.0000    0.0000    0.0000    0.0019
C         4.2281   -0.9115   -0.0000   -0.0000    0.0000   -0.0766
C         0.4569   -4.3014   -0.0000   -0.0000    0.0000   -0.0105
H        -3.0344    3.3753   -0.0000   -0.0000   -0.0000   -0.1355
H        -1.0767    5.1949   -0.0000   -0.0000   -0.0000   -0.0476
H        -5.0505    1.6227   -0.0000   -0.0000    0.0000   -0.4134
H         1.6229    5.0511   -0.0000   -0.0000    0.0000    0.0061
H        -5.1940   -1.0770   -0.0000    0.0000   -0.0000    0.3814
H         3.3756    3.0341   -0.0000   -0.0000    0.0000   -0.0910
H        -3.3754   -3.0341   -0.0000    0.0000    0.0000    0.0890
H         3.0341   -3.3754   -0.0000    0.0000   -0.0000    0.1366
H         5.1941    1.0769   -0.0000    0.0000   -0.0000   -0.3836
H        -1.6227   -5.0513   -0.0000    0.0000   -0.0000   -0.0114
H         5.0504   -1.6228   -0.0000    0.0000    0.0000    0.4149
H         1.0767   -5.1949   -0.0000   -0.0000   -0.0000    0.0525
Mg       -0.0001    0.0000    0.0000   -0.0000   -0.0000   -0.0000
    37
stable frequency at    876.747 1/cm IR int. is 1.390 a.m.u.; force const. is 0.630 mDyne/Ang.
N         0.1100    2.0652    0.0000    0.0000    0.0000   -0.0000
N        -2.0647    0.1100    0.0000    0.0000    0.0000   -0.0002
N         2.0647   -0.1099    0.0000    0.0000    0.0000    0.0002
N        -0.1099   -2.0653    0.0000   -0.0000    0.0000    0.0000
C        -0.9521    2.9419    0.0000    0.0000    0.0000   -0.0119
C        -2.8236    1.2591   -0.0000    0.0000   -0.0000   -0.0058
C         1.2590    2.8241    0.0000    0.0000   -0.0000    0.0168
C        -2.9413   -0.9521   -0.0000    0.0000    0.0000   -0.0092
C        -2.3047    2.5641   -0.0000   -0.0000   -0.0000    0.0179
C        -0.4569    4.3015   -0.0000    0.0000   -0.0000    0.0709
C        -4.2281    0.9114   -0.0000   -0.0000   -0.0000   -0.0012
C         0.9115    4.2288   -0.0000   -0.0000   -0.0000   -0.0764
C        -4.3008   -0.4569   -0.0000   -0.0000   -0.0000    0.0099
C         2.5639    2.3048   -0.0000   -0.0000    0.0000   -0.0258
C        -2.5638   -2.3048   -0.0000   -0.0000    0.0000    0.0257
C         2.9414    0.9520   -0.0000   -0.0000    0.0000    0.0093
C        -1.2591   -2.8242   -0.0000   -0.0000   -0.0000   -0.0168
C         2.8236   -1.2591   -0.0000    0.0000   -0.0000    0.0057
C         0.9520   -2.9419    0.0000   -0.0000    0.0000    0.0118
C         2.3046   -2.5640   -0.0000   -0.0000   -0.0000   -0.0178
C         4.3008    0.4568   -0.0000   -0.0000    0.0000   -0.0102
C        -0.9115   -4.2288   -0.0000    0.0000   -0.0000    0.0765
C         4.2281   -0.9115   -0.0000    0.0000    0.0000    0.0016
C         0.4569   -4.3014   -0.0000    0.0000    0.0000   -0.0709
H        -3.0344    3.3753   -0.0000   -0.0000   -0.0000   -0.0900
H        -1.0767    5.1949   -0.0000   -0.0000   -0.0000   -0.3822
H        -5.0505    1.6227   -0.0000   -0.0000   -0.0000    0.0077
H         1.6229    5.0511   -0.0000    0.0000   -0.0000    0.4144
H        -5.1940   -1.0770   -0.0000   -0.0000   -0.0000   -0.0490
H         3.3756    3.0341   -0.0000   -0.0000    0.0000    0.1361
H        -3.3754   -3.0341   -0.0000   -0.0000    0.0000   -0.1359
H         3.0341   -3.3754   -0.0000   -0.0000   -0.0000    0.0891
H         5.1941    1.0769   -0.0000   -0.0000   -0.0000    0.0508
H        -1.6227   -5.0513   -0.0000    0.0000   -0.0000   -0.4149
H         5.0504   -1.6228   -0.0000    0.0000    0.0000   -0.0097
H         1.0767   -5.1949   -0.0000   -0.0000   -0.0000    0.3823
Mg       -0.0001    0.0000    0.0000   -0.0000   -0.0000   -0.0000
    37
stable frequency at    879.155 1/cm IR int. is 1.405 a.m.u.; force const. is 0.640 mDyne/Ang.
N         0.1100    2.0652    0.0000    0.0000    0.0000    0.0002
N        -2.0647    0.1100    0.0000    0.0000   -0.0000   -0.0002
N         2.0647   -0.1099    0.0000    0.0000   -0.0000   -0.0002
N        -0.1099   -2.0653    0.0000   -0.0000   -0.0000    0.0002
C        -0.9521    2.9419    0.0000   -0.0000   -0.0000    0.0116
C        -2.8236    1.2591   -0.0000   -0.0000    0.0000    0.0125
C         1.2590    2.8241    0.0000    0.0000   -0.0000   -0.0125
C        -2.9413   -0.9521   -0.0000   -0.0000   -0.0000   -0.0116
C        -2.3047    2.5641   -0.0000   -0.0000    0.0000   -0.0253
C        -0.4569    4.3015   -0.0000    0.0000   -0.0000   -0.0517
C        -4.2281    0.9114   -0.0000   -0.0000   -0.0000   -0.0535
C         0.9115    4.2288   -0.0000    0.0000   -0.0000    0.0537
C        -4.3008   -0.4569   -0.0000   -0.0000   -0.0000    0.0515
C         2.5639    2.3048   -0.0000   -0.0000   -0.0000    0.0251
C        -2.5638   -2.3048   -0.0000    0.0000   -0.0000    0.0254
C         2.9414    0.9520   -0.0000    0.0000    0.0000   -0.0115
C        -1.2591   -2.8242   -0.0000    0.0000   -0.0000   -0.0126
C         2.8236   -1.2591   -0.0000   -0.0000   -0.0000    0.0123
C         0.9520   -2.9419    0.0000    0.0000    0.0000    0.0115
C         2.3046   -2.5640   -0.0000    0.0000   -0.0000   -0.0250
C         4.3008    0.4568   -0.0000    0.0000    0.0000    0.0507
C        -0.9115   -4.2288   -0.0000   -0.0000   -0.0000    0.0539
C         4.2281   -0.9115   -0.0000   -0.0000    0.0000   -0.0526
C         0.4569   -4.3014   -0.0000   -0.0000    0.0000   -0.0518
H        -3.0344    3.3753   -0.0000    0.0000    0.0000    0.1365
H        -1.0767    5.1949   -0.0000    0.0000    0.0000    0.2741
H        -5.0505    1.6227   -0.0000    0.0000    0.0000    0.2810
H         1.6229    5.0511   -0.0000   -0.0000    0.0000   -0.2821
H        -5.1940   -1.0770   -0.0000   -0.0000    0.0000   -0.2731
H         3.3756    3.0341   -0.0000   -0.0000    0.0000   -0.1354
H        -3.3754   -3.0341   -0.0000    0.0000   -0.0000   -0.1368
H         3.0341   -3.3754   -0.0000    0.0000    0.0000    0.1346
H         5.1941    1.0769   -0.0000    0.0000    0.0000   -0.2685
H        -1.6227   -5.0513   -0.0000   -0.0000   -0.0000   -0.2834
H         5.0504   -1.6228   -0.0000    0.0000    0.0000    0.2757
H         1.0767   -5.1949   -0.0000    0.0000    0.0000    0.2746
Mg       -0.0001    0.0000    0.0000   -0.0000    0.0000   -0.0000
    37
stable frequency at    991.841 1/cm IR int. is 5.353 a.m.u.; force const. is 3.103 mDyne/Ang.
N         0.1100    2.0652    0.0000   -0.0219   -0.0879   -0.0000
N        -2.0647    0.1100    0.0000    0.0871   -0.0220    0.0000
N         2.0647   -0.1099    0.0000   -0.0868    0.0220   -0.0000
N        -0.1099   -2.0653    0.0000    0.0222    0.0877    0.0000
C        -0.9521    2.9419    0.0000    0.0177   -0.0071    0.0000
C        -2.8236    1.2591   -0.0000    0.0178   -0.0144    0.0000
C         1.2590    2.8241    0.0000   -0.0143   -0.0180    0.0000
C        -2.9413   -0.9521   -0.0000    0.0069    0.0178   -0.0000
C        -2.3047    2.5641   -0.0000   -0.0140    0.0309   -0.0000
C        -0.4569    4.3015   -0.0000    0.0007    0.0462   -0.0000
C        -4.2281    0.9114   -0.0000   -0.0674    0.0118    0.0000
C         0.9115    4.2288   -0.0000    0.0119    0.0681    0.0000
C        -4.3008   -0.4569   -0.0000   -0.0454    0.0007   -0.0000
C         2.5639    2.3048   -0.0000    0.0310    0.0136   -0.0000
C        -2.5638   -2.3048   -0.0000   -0.0311   -0.0137    0.0000
C         2.9414    0.9520   -0.0000   -0.0068   -0.0178    0.0000
C        -1.2591   -2.8242   -0.0000    0.0143    0.0180    0.0000
C         2.8236   -1.2591   -0.0000   -0.0177    0.0143    0.0000
C         0.9520   -2.9419    0.0000   -0.0177    0.0071    0.0000
C         2.3046   -2.5640   -0.0000    0.0138   -0.0307   -0.0000
C         4.3008    0.4568   -0.0000    0.0453   -0.0007    0.0000
C        -0.9115   -4.2288   -0.0000   -0.0119   -0.0681    0.0000
C         4.2281   -0.9115   -0.0000    0.0673   -0.0118   -0.0000
C         0.4569   -4.3014   -0.0000   -0.0008   -0.0459   -0.0000
H        -3.0344    3.3753   -0.0000   -0.0178    0.0294    0.0000
H        -1.0767    5.1949   -0.0000   -0.1419   -0.0488    0.0000
H        -5.0505    1.6227   -0.0000   -0.0185    0.0752   -0.0000
H         1.6229    5.0511   -0.0000    0.0755    0.0190   -0.0000
H        -5.1940   -1.0770   -0.0000    0.0496   -0.1419    0.0000
H         3.3756    3.0341   -0.0000    0.0298    0.0171    0.0000
H        -3.3754   -3.0341   -0.0000   -0.0299   -0.0171   -0.0000
H         3.0341   -3.3754   -0.0000    0.0175   -0.0293   -0.0000
H         5.1941    1.0769   -0.0000   -0.0495    0.1416    0.0000
H        -1.6227   -5.0513   -0.0000   -0.0751   -0.0195   -0.0000
H         5.0504   -1.6228   -0.0000    0.0186   -0.0749    0.0000
H         1.0767   -5.1949   -0.0000    0.1420    0.0492    0.0000
Mg       -0.0001    0.0000    0.0000   -0.0000    0.0000   -0.0000
    37
stable frequency at    994.663 1/cm IR int. is 2.717 a.m.u.; force const. is 1.584 mDyne/Ang.
N         0.1100    2.0652    0.0000   -0.0685    0.0279   -0.0000
N        -2.0647    0.1100    0.0000   -0.0270   -0.0682   -0.0000
N         2.0647   -0.1099    0.0000    0.0267    0.0687   -0.0000
N        -0.1099   -2.0653    0.0000    0.0681   -0.0263   -0.0000
C        -0.9521    2.9419    0.0000    0.0058    0.0265    0.0000
C        -2.8236    1.2591   -0.0000    0.0206    0.0115    0.0000
C         1.2590    2.8241    0.0000    0.0114   -0.0204    0.0000
C        -2.9413   -0.9521   -0.0000   -0.0262    0.0059    0.0000
C        -2.3047    2.5641   -0.0000    0.0356    0.0209   -0.0000
C        -0.4569    4.3015   -0.0000    0.0117   -0.0616   -0.0000
C        -4.2281    0.9114   -0.0000   -0.0300    0.0137   -0.0000
C         0.9115    4.2288   -0.0000    0.0139    0.0296   -0.0000
C        -4.3008   -0.4569   -0.0000    0.0607    0.0116    0.0000
C         2.5639    2.3048   -0.0000    0.0209   -0.0354   -0.0000
C        -2.5638   -2.3048   -0.0000   -0.0210    0.0352    0.0000
C         2.9414    0.9520   -0.0000    0.0261   -0.0058    0.0000
C        -1.2591   -2.8242   -0.0000   -0.0113    0.0206    0.0000
C         2.8236   -1.2591   -0.0000   -0.0205   -0.0112    0.0000
C         0.9520   -2.9419    0.0000   -0.0059   -0.0262   -0.0000
C         2.3046   -2.5640   -0.0000   -0.0350   -0.0212    0.0000
C         4.3008    0.4568   -0.0000   -0.0609   -0.0117    0.0000
C        -0.9115   -4.2288   -0.0000   -0.0138   -0.0304    0.0000
C         4.2281   -0.9115   -0.0000    0.0304   -0.0140    0.0000
C         0.4569   -4.3014   -0.0000   -0.0116    0.0604    0.0000
H        -3.0344    3.3753   -0.0000    0.0349    0.0194    0.0000
H        -1.0767    5.1949   -0.0000   -0.1066   -0.1469    0.0000
H        -5.0505    1.6227   -0.0000   -0.1610   -0.1356    0.0000
H         1.6229    5.0511   -0.0000   -0.1362    0.1611    0.0000
H        -5.1940   -1.0770   -0.0000    0.1461   -0.1067   -0.0000
H         3.3756    3.0341   -0.0000    0.0192   -0.0345    0.0000
H        -3.3754   -3.0341   -0.0000   -0.0196    0.0345   -0.0000
H         3.0341   -3.3754   -0.0000   -0.0341   -0.0196   -0.0000
H         5.1941    1.0769   -0.0000   -0.1465    0.1070    0.0000
H        -1.6227   -5.0513   -0.0000    0.1345   -0.1605   -0.0000
H         5.0504   -1.6228   -0.0000    0.1614    0.1354   -0.0000
H         1.0767   -5.1949   -0.0000    0.1075    0.1462   -0.0000
Mg       -0.0001    0.0000    0.0000    0.0000   -0.0002   -0.0000
    37
stable frequency at   1001.917 1/cm IR int. is 6.595 a.m.u.; force const. is 3.901 mDyne/Ang.
N         0.1100    2.0652    0.0000   -0.0123   -0.1168   -0.0000
N        -2.0647    0.1100    0.0000   -0.0102   -0.0482    0.0000
N         2.0647   -0.1099    0.0000   -0.0097   -0.0472    0.0000
N        -0.1099   -2.0653    0.0000   -0.0118   -0.1170   -0.0000
C        -0.9521    2.9419    0.0000    0.0083   -0.0187   -0.0000
C        -2.8236    1.2591   -0.0000   -0.0031   -0.0146   -0.0000
C         1.2590    2.8241    0.0000   -0.0114   -0.0198    0.0000
C        -2.9413   -0.9521   -0.0000    0.0004   -0.0168    0.0000
C        -2.3047    2.5641   -0.0000   -0.0296    0.0257   -0.0000
C        -0.4569    4.3015   -0.0000    0.0002    0.0736   -0.0000
C        -4.2281    0.9114   -0.0000   -0.0189    0.0185    0.0000
C         0.9115    4.2288   -0.0000    0.0107    0.0790    0.0000
C        -4.3008   -0.4569   -0.0000    0.0290    0.0168   -0.0000
C         2.5639    2.3048   -0.0000    0.0391    0.0258    0.0000
C        -2.5638   -2.3048   -0.0000    0.0390    0.0263   -0.0000
C         2.9414    0.9520   -0.0000    0.0008   -0.0169   -0.0000
C        -1.2591   -2.8242   -0.0000   -0.0116   -0.0195    0.0000
C         2.8236   -1.2591   -0.0000   -0.0033   -0.0147    0.0000
C         0.9520   -2.9419    0.0000    0.0083   -0.0190    0.0000
C         2.3046   -2.5640   -0.0000   -0.0298    0.0254   -0.0000
C         4.3008    0.4568   -0.0000    0.0281    0.0166   -0.0000
C        -0.9115   -4.2288   -0.0000    0.0106    0.0786    0.0000
C         4.2281   -0.9115   -0.0000   -0.0187    0.0183    0.0000
C         0.4569   -4.3014   -0.0000    0.0001    0.0742   -0.0000
H        -3.0344    3.3753   -0.0000   -0.0492    0.0101   -0.0000
H        -1.0767    5.1949   -0.0000   -0.1283   -0.0095    0.0000
H        -5.0505    1.6227   -0.0000   -0.0540   -0.0211    0.0000
H         1.6229    5.0511   -0.0000    0.1141   -0.0032   -0.0000
H        -5.1940   -1.0770   -0.0000    0.0483   -0.0095    0.0000
H         3.3756    3.0341   -0.0000    0.0523    0.0136   -0.0000
H        -3.3754   -3.0341   -0.0000    0.0521    0.0142    0.0000
H         3.0341   -3.3754   -0.0000   -0.0493    0.0099   -0.0000
H         5.1941    1.0769   -0.0000    0.0463   -0.0083    0.0000
H        -1.6227   -5.0513   -0.0000    0.1156   -0.0049   -0.0000
H         5.0504   -1.6228   -0.0000   -0.0520   -0.0192   -0.0000
H         1.0767   -5.1949   -0.0000   -0.1271   -0.0080    0.0000
Mg       -0.0001    0.0000    0.0000    0.0028    0.0237   -0.0000
    37
stable frequency at   1002.125 1/cm IR int. is 6.524 a.m.u.; force const. is 3.860 mDyne/Ang.
N         0.1100    2.0652    0.0000    0.0485   -0.0101    0.0000
N        -2.0647    0.1100    0.0000    0.1163   -0.0119   -0.0000
N         2.0647   -0.1099    0.0000    0.1169   -0.0117    0.0000
N        -0.1099   -2.0653    0.0000    0.0487   -0.0101   -0.0000
C        -0.9521    2.9419    0.0000    0.0167    0.0003   -0.0000
C        -2.8236    1.2591   -0.0000    0.0193   -0.0116    0.0000
C         1.2590    2.8241    0.0000    0.0146   -0.0030   -0.0000
C        -2.9413   -0.9521   -0.0000    0.0185    0.0084    0.0000
C        -2.3047    2.5641   -0.0000   -0.0265    0.0389   -0.0000
C        -0.4569    4.3015   -0.0000   -0.0168    0.0291    0.0000
C        -4.2281    0.9114   -0.0000   -0.0781    0.0107    0.0000
C         0.9115    4.2288   -0.0000   -0.0186   -0.0191    0.0000
C        -4.3008   -0.4569   -0.0000   -0.0732    0.0001   -0.0000
C         2.5639    2.3048   -0.0000   -0.0260   -0.0299    0.0000
C        -2.5638   -2.3048   -0.0000   -0.0260   -0.0296   -0.0000
C         2.9414    0.9520   -0.0000    0.0187    0.0084   -0.0000
C        -1.2591   -2.8242   -0.0000    0.0145   -0.0029    0.0000
C         2.8236   -1.2591   -0.0000    0.0193   -0.0116   -0.0000
C         0.9520   -2.9419    0.0000    0.0167    0.0002   -0.0000
C         2.3046   -2.5640   -0.0000   -0.0266    0.0390    0.0000
C         4.3008    0.4568   -0.0000   -0.0738    0.0000    0.0000
C        -0.9115   -4.2288   -0.0000   -0.0187   -0.0192   -0.0000
C         4.2281   -0.9115   -0.0000   -0.0784    0.0107    0.0000
C         0.4569   -4.3014   -0.0000   -0.0168    0.0292    0.0000
H        -3.0344    3.3753   -0.0000   -0.0143    0.0521    0.0000
H        -1.0767    5.1949   -0.0000    0.0105    0.0490    0.0000
H        -5.0505    1.6227   -0.0000    0.0052    0.1154    0.0000
H         1.6229    5.0511   -0.0000    0.0210   -0.0542   -0.0000
H        -5.1940   -1.0770   -0.0000    0.0099   -0.1283    0.0000
H         3.3756    3.0341   -0.0000   -0.0103   -0.0496    0.0000
H        -3.3754   -3.0341   -0.0000   -0.0104   -0.0492    0.0000
H         3.0341   -3.3754   -0.0000   -0.0141    0.0524   -0.0000
H         5.1941    1.0769   -0.0000    0.0093   -0.1285   -0.0000
H        -1.6227   -5.0513   -0.0000    0.0217   -0.0549    0.0000
H         5.0504   -1.6228   -0.0000    0.0059    0.1164   -0.0000
H         1.0767   -5.1949   -0.0000    0.0106    0.0493   -0.0000
Mg       -0.0001    0.0000    0.0000   -0.0237    0.0028   -0.0000
    37
stable frequency at   1010.919 1/cm IR int. is 3.417 a.m.u.; force const. is 2.058 mDyne/Ang.
N         0.1100    2.0652    0.0000    0.0247   -0.0447    0.0000
N        -2.0647    0.1100    0.0000   -0.0105    0.0982    0.0000
N         2.0647   -0.1099    0.0000    0.0093    0.0974    0.0000
N        -0.1099   -2.0653    0.0000    0.0257   -0.0253    0.0000
C        -0.9521    2.9419    0.0000   -0.0113   -0.0362    0.0000
C        -2.8236    1.2591   -0.0000   -0.0372   -0.0100    0.0000
C         1.2590    2.8241    0.0000    0.0037   -0.0221    0.0000
C        -2.9413   -0.9521   -0.0000    0.0172   -0.0076   -0.0000
C        -2.3047    2.5641   -0.0000   -0.0223   -0.0481   -0.0000
C        -0.4569    4.3015   -0.0000   -0.0011    0.0676   -0.0000
C        -4.2281    0.9114   -0.0000    0.0652   -0.0212    0.0000
C         0.9115    4.2288   -0.0000   -0.0033    0.0411   -0.0000
C        -4.3008   -0.4569   -0.0000   -0.0296   -0.0162    0.0000
C         2.5639    2.3048   -0.0000   -0.0088   -0.0479   -0.0000
C        -2.5638   -2.3048   -0.0000   -0.0142   -0.0415    0.0000
C         2.9414    0.9520   -0.0000    0.0228   -0.0090    0.0000
C        -1.2591   -2.8242   -0.0000    0.0027   -0.0164   -0.0000
C         2.8236   -1.2591   -0.0000   -0.0315   -0.0092   -0.0000
C         0.9520   -2.9419    0.0000   -0.0098   -0.0308   -0.0000
C         2.3046   -2.5640   -0.0000   -0.0161   -0.0425   -0.0000
C         4.3008    0.4568   -0.0000   -0.0460   -0.0166    0.0000
C        -0.9115   -4.2288   -0.0000   -0.0052    0.0251    0.0000
C         4.2281   -0.9115   -0.0000    0.0491   -0.0193   -0.0000
C         0.4569   -4.3014   -0.0000   -0.0008    0.0516   -0.0000
H        -3.0344    3.3753   -0.0000   -0.0206   -0.0472    0.0000
H        -1.0767    5.1949   -0.0000    0.0547    0.1120    0.0000
H        -5.0505    1.6227   -0.0000    0.1974    0.1254   -0.0000
H         1.6229    5.0511   -0.0000    0.0279    0.0186    0.0000
H        -5.1940   -1.0770   -0.0000   -0.1427    0.1455    0.0000
H         3.3756    3.0341   -0.0000   -0.0068   -0.0521    0.0000
H        -3.3754   -3.0341   -0.0000   -0.0198   -0.0373   -0.0000
H         3.0341   -3.3754   -0.0000   -0.0061   -0.0342    0.0000
H         5.1941    1.0769   -0.0000   -0.1526    0.1336   -0.0000
H        -1.6227   -5.0513   -0.0000    0.0159    0.0098   -0.0000
H         5.0504   -1.6228   -0.0000    0.1896    0.1388    0.0000
H         1.0767   -5.1949   -0.0000    0.0661    0.1022   -0.0000
Mg       -0.0001    0.0000    0.0000    0.0011    0.0055   -0.0000
    37
stable frequency at   1010.962 1/cm IR int. is 3.910 a.m.u.; force const. is 2.354 mDyne/Ang.
N         0.1100    2.0652    0.0000   -0.0817    0.0377   -0.0000
N        -2.0647    0.1100    0.0000    0.0722    0.0259    0.0000
N         2.0647   -0.1099    0.0000   -0.0088    0.0301   -0.0000
N        -0.1099   -2.0653    0.0000   -0.0860   -0.0422    0.0000
C        -0.9521    2.9419    0.0000    0.0099    0.0269    0.0000
C        -2.8236    1.2591   -0.0000    0.0266    0.0040    0.0000
C         1.2590    2.8241    0.0000    0.0067   -0.0198   -0.0000
C        -2.9413   -0.9521   -0.0000    0.0420   -0.0126    0.0000
C        -2.3047    2.5641   -0.0000    0.0505   -0.0010   -0.0000
C        -0.4569    4.3015   -0.0000    0.0148   -0.0627   -0.0000
C        -4.2281    0.9114   -0.0000   -0.0593   -0.0008    0.0000
C         0.9115    4.2288   -0.0000    0.0134    0.0190    0.0000
C        -4.3008   -0.4569   -0.0000   -0.0887   -0.0026   -0.0000
C         2.5639    2.3048   -0.0000    0.0274   -0.0070   -0.0000
C        -2.5638   -2.3048   -0.0000    0.0501   -0.0327   -0.0000
C         2.9414    0.9520   -0.0000    0.0194   -0.0065    0.0000
C        -1.2591   -2.8242   -0.0000    0.0108   -0.0428   -0.0000
C         2.8236   -1.2591   -0.0000    0.0035    0.0003   -0.0000
C         0.9520   -2.9419    0.0000    0.0036    0.0046   -0.0000
C         2.3046   -2.5640   -0.0000    0.0254   -0.0240    0.0000
C         4.3008    0.4568   -0.0000   -0.0218   -0.0013   -0.0000
C        -0.9115   -4.2288   -0.0000    0.0213    0.0843   -0.0000
C         4.2281   -0.9115   -0.0000    0.0067   -0.0088    0.0000
C         0.4569   -4.3014   -0.0000    0.0136    0.0033    0.0000
H        -3.0344    3.3753   -0.0000    0.0681    0.0132    0.0000
H        -1.0767    5.1949   -0.0000   -0.0953   -0.1431   -0.0000
H        -5.0505    1.6227   -0.0000   -0.0176    0.0548    0.0000
H         1.6229    5.0511   -0.0000   -0.1399    0.1524    0.0000
H        -5.1940   -1.0770   -0.0000   -0.1225    0.0355    0.0000
H         3.3756    3.0341   -0.0000    0.0079    0.0152    0.0000
H        -3.3754   -3.0341   -0.0000    0.0615   -0.0449   -0.0000
H         3.0341   -3.3754   -0.0000    0.0085   -0.0408   -0.0000
H         5.1941    1.0769   -0.0000   -0.0823    0.0838   -0.0000
H        -1.6227   -5.0513   -0.0000   -0.0898    0.1879    0.0000
H         5.0504   -1.6228   -0.0000    0.0164    0.0021   -0.0000
H         1.0767   -5.1949   -0.0000   -0.1418   -0.1028   -0.0000
Mg       -0.0001    0.0000    0.0000   -0.0049    0.0012   -0.0000
    37
stable frequency at   1011.067 1/cm IR int. is 5.746 a.m.u.; force const. is 3.460 mDyne/Ang.
N         0.1100    2.0652    0.0000   -0.0546   -0.0672    0.0000
N        -2.0647    0.1100    0.0000   -0.0539    0.0063    0.0000
N         2.0647   -0.1099    0.0000    0.0894   -0.0015   -0.0000
N        -0.1099   -2.0653    0.0000   -0.0469    0.0746   -0.0000
C        -0.9521    2.9419    0.0000   -0.0004   -0.0064   -0.0000
C        -2.8236    1.2591   -0.0000   -0.0073   -0.0008   -0.0000
C         1.2590    2.8241    0.0000    0.0080   -0.0354   -0.0000
C        -2.9413   -0.9521   -0.0000   -0.0054    0.0012   -0.0000
C        -2.3047    2.5641   -0.0000    0.0017   -0.0214    0.0000
C        -0.4569    4.3015   -0.0000    0.0071    0.0336   -0.0000
C        -4.2281    0.9114   -0.0000    0.0360   -0.0071   -0.0000
C         0.9115    4.2288   -0.0000    0.0174    0.0825    0.0000
C        -4.3008   -0.4569   -0.0000    0.0332    0.0023    0.0000
C         2.5639    2.3048   -0.0000    0.0437   -0.0276   -0.0000
C        -2.5638   -2.3048   -0.0000    0.0031    0.0175    0.0000
C         2.9414    0.9520   -0.0000    0.0344   -0.0097    0.0000
C        -1.2591   -2.8242   -0.0000    0.0009    0.0054   -0.0000
C         2.8236   -1.2591   -0.0000    0.0337    0.0060    0.0000
C         0.9520   -2.9419    0.0000    0.0108    0.0335    0.0000
C         2.3046   -2.5640   -0.0000    0.0465    0.0196   -0.0000
C         4.3008    0.4568   -0.0000   -0.0849   -0.0000   -0.0000
C        -0.9115   -4.2288   -0.0000    0.0034   -0.0335    0.0000
C         4.2281   -0.9115   -0.0000   -0.0810    0.0072    0.0000
C         0.4569   -4.3014   -0.0000    0.0093   -0.0838   -0.0000
H        -3.0344    3.3753   -0.0000   -0.0293   -0.0501   -0.0000
H        -1.0767    5.1949   -0.0000   -0.1166   -0.0484   -0.0000
H        -5.0505    1.6227   -0.0000    0.0038   -0.0486    0.0000
H         1.6229    5.0511   -0.0000   -0.0228    0.1251   -0.0000
H        -5.1940   -1.0770   -0.0000   -0.0023    0.0578   -0.0000
H         3.3756    3.0341   -0.0000    0.0690   -0.0553   -0.0000
H        -3.3754   -3.0341   -0.0000   -0.0264    0.0510   -0.0000
H         3.0341   -3.3754   -0.0000    0.0764    0.0455    0.0000
H         5.1941    1.0769   -0.0000   -0.0727   -0.0283    0.0000
H        -1.6227   -5.0513   -0.0000   -0.1130    0.0631   -0.0000
H         5.0504   -1.6228   -0.0000   -0.0575    0.0440    0.0000
H         1.0767   -5.1949   -0.0000   -0.0336   -0.1200    0.0000
Mg       -0.0001    0.0000    0.0000   -0.0029   -0.0001    0.0000
    37
stable frequency at   1032.788 1/cm IR int. is 5.479 a.m.u.; force const. is 3.443 mDyne/Ang.
N         0.1100    2.0652    0.0000   -0.0916    0.0053    0.0000
N        -2.0647    0.1100    0.0000    0.0054    0.0918   -0.0000
N         2.0647   -0.1099    0.0000   -0.0053   -0.0918    0.0000
N        -0.1099   -2.0653    0.0000    0.0918   -0.0055   -0.0000
C        -0.9521    2.9419    0.0000   -0.0095    0.0074    0.0000
C        -2.8236    1.2591   -0.0000   -0.0067    0.0098   -0.0000
C         1.2590    2.8241    0.0000   -0.0098   -0.0067   -0.0000
C        -2.9413   -0.9521   -0.0000    0.0074    0.0095    0.0000
C        -2.3047    2.5641   -0.0000    0.0493   -0.0557   -0.0000
C        -0.4569    4.3015   -0.0000    0.0193   -0.0312   -0.0000
C        -4.2281    0.9114   -0.0000    0.0295   -0.0228    0.0000
C         0.9115    4.2288   -0.0000    0.0228    0.0295    0.0000
C        -4.3008   -0.4569   -0.0000   -0.0313   -0.0194   -0.0000
C         2.5639    2.3048   -0.0000    0.0557    0.0494   -0.0000
C        -2.5638   -2.3048   -0.0000   -0.0556   -0.0493   -0.0000
C         2.9414    0.9520   -0.0000   -0.0074   -0.0095   -0.0000
C        -1.2591   -2.8242   -0.0000    0.0098    0.0067    0.0000
C         2.8236   -1.2591   -0.0000    0.0066   -0.0098    0.0000
C         0.9520   -2.9419    0.0000    0.0095   -0.0077   -0.0000
C         2.3046   -2.5640   -0.0000   -0.0495    0.0557   -0.0000
C         4.3008    0.4568   -0.0000    0.0313    0.0194    0.0000
C        -0.9115   -4.2288   -0.0000   -0.0228   -0.0294    0.0000
C         4.2281   -0.9115   -0.0000   -0.0294    0.0227   -0.0000
C         0.4569   -4.3014   -0.0000   -0.0194    0.0316    0.0000
H        -3.0344    3.3753   -0.0000    0.0525   -0.0565    0.0000
H        -1.0767    5.1949   -0.0000   -0.0627   -0.0896   -0.0000
H        -5.0505    1.6227   -0.0000    0.0923    0.0474   -0.0000
H         1.6229    5.0511   -0.0000   -0.0469    0.0919   -0.0000
H        -5.1940   -1.0770   -0.0000   -0.0895    0.0624   -0.0000
H         3.3756    3.0341   -0.0000    0.0564    0.0527    0.0000
H        -3.3754   -3.0341   -0.0000   -0.0562   -0.0528    0.0000
H         3.0341   -3.3754   -0.0000   -0.0526    0.0566    0.0000
H         5.1941    1.0769   -0.0000    0.0892   -0.0618   -0.0000
H        -1.6227   -5.0513   -0.0000    0.0481   -0.0928   -0.0000
H         5.0504   -1.6228   -0.0000   -0.0922   -0.0475    0.0000
H         1.0767   -5.1949   -0.0000    0.0622    0.0898    0.0000
Mg       -0.0001    0.0000    0.0000   -0.0000    0.0000    0.0000
    37
stable frequency at   1050.433 1/cm IR int. is 1.167 a.m.u.; force const. is 0.759 mDyne/Ang.
N         0.1100    2.0652    0.0000    0.0142   -0.0082   -0.0000
N        -2.0647    0.1100    0.0000    0.0362   -0.0060   -0.0000
N         2.0647   -0.1099    0.0000    0.0374   -0.0061   -0.0000
N        -0.1099   -2.0653    0.0000    0.0142   -0.0072    0.0000
C        -0.9521    2.9419    0.0000    0.0030   -0.0111    0.0000
C        -2.8236    1.2591   -0.0000    0.0135    0.0064    0.0000
C         1.2590    2.8241    0.0000    0.0076    0.0046   -0.0000
C        -2.9413   -0.9521   -0.0000    0.0103   -0.0101    0.0000
C        -2.3047    2.5641   -0.0000   -0.0103   -0.0056    0.0000
C        -0.4569    4.3015   -0.0000    0.0036    0.0117   -0.0000
C        -4.2281    0.9114   -0.0000   -0.0092   -0.0330    0.0000
C         0.9115    4.2288   -0.0000   -0.0133   -0.0097    0.0000
C        -4.3008   -0.4569   -0.0000    0.0002    0.0372    0.0000
C         2.5639    2.3048   -0.0000   -0.0130    0.0118    0.0000
C        -2.5638   -2.3048   -0.0000   -0.0125    0.0113   -0.0000
C         2.9414    0.9520   -0.0000    0.0109   -0.0104   -0.0000
C        -1.2591   -2.8242   -0.0000    0.0073    0.0053   -0.0000
C         2.8236   -1.2591   -0.0000    0.0141    0.0066    0.0000
C         0.9520   -2.9419    0.0000    0.0033   -0.0106   -0.0000
C         2.3046   -2.5640   -0.0000   -0.0109   -0.0061    0.0000
C         4.3008    0.4568   -0.0000    0.0001    0.0389    0.0000
C        -0.9115   -4.2288   -0.0000   -0.0118   -0.0099   -0.0000
C         4.2281   -0.9115   -0.0000   -0.0094   -0.0346   -0.0000
C         0.4569   -4.3014   -0.0000    0.0019    0.0117   -0.0000
H        -3.0344    3.3753   -0.0000   -0.0301   -0.0249   -0.0000
H        -1.0767    5.1949   -0.0000    0.1130    0.0880   -0.0000
H        -5.0505    1.6227   -0.0000   -0.2764   -0.3436   -0.0000
H         1.6229    5.0511   -0.0000   -0.0520    0.0230   -0.0000
H        -5.1940   -1.0770   -0.0000   -0.2247    0.3633   -0.0000
H         3.3756    3.0341   -0.0000   -0.0487    0.0529    0.0000
H        -3.3754   -3.0341   -0.0000   -0.0450    0.0488    0.0000
H         3.0341   -3.3754   -0.0000   -0.0341   -0.0285   -0.0000
H         5.1941    1.0769   -0.0000   -0.2361    0.3815    0.0000
H        -1.6227   -5.0513   -0.0000   -0.0357    0.0102    0.0000
H         5.0504   -1.6228   -0.0000   -0.2895   -0.3603    0.0000
H         1.0767   -5.1949   -0.0000    0.0957    0.0773   -0.0000
Mg       -0.0001    0.0000    0.0000   -0.0074    0.0018   -0.0000
    37
stable frequency at   1050.466 1/cm IR int. is 1.166 a.m.u.; force const. is 0.758 mDyne/Ang.
N         0.1100    2.0652    0.0000    0.0063    0.0371   -0.0000
N        -2.0647    0.1100    0.0000    0.0083    0.0141    0.0000
N         2.0647   -0.1099    0.0000    0.0072    0.0144    0.0000
N        -0.1099   -2.0653    0.0000    0.0060    0.0358   -0.0000
C        -0.9521    2.9419    0.0000    0.0105    0.0109    0.0000
C        -2.8236    1.2591   -0.0000   -0.0046    0.0075    0.0000
C         1.2590    2.8241    0.0000   -0.0066    0.0141   -0.0000
C        -2.9413   -0.9521   -0.0000    0.0112    0.0029    0.0000
C        -2.3047    2.5641   -0.0000   -0.0120   -0.0129    0.0000
C        -0.4569    4.3015   -0.0000   -0.0391    0.0004   -0.0000
C        -4.2281    0.9114   -0.0000    0.0097   -0.0135   -0.0000
C         0.9115    4.2288   -0.0000    0.0347   -0.0093    0.0000
C        -4.3008   -0.4569   -0.0000   -0.0117    0.0037    0.0000
C         2.5639    2.3048   -0.0000    0.0061   -0.0110    0.0000
C        -2.5638   -2.3048   -0.0000    0.0056   -0.0103   -0.0000
C         2.9414    0.9520   -0.0000    0.0105    0.0033   -0.0000
C        -1.2591   -2.8242   -0.0000   -0.0064    0.0133   -0.0000
C         2.8236   -1.2591   -0.0000   -0.0053    0.0073   -0.0000
C         0.9520   -2.9419    0.0000    0.0101    0.0102   -0.0000
C         2.3046   -2.5640   -0.0000   -0.0112   -0.0125   -0.0000
C         4.3008    0.4568   -0.0000   -0.0118    0.0018    0.0000
C        -0.9115   -4.2288   -0.0000    0.0329   -0.0090    0.0000
C         4.2281   -0.9115   -0.0000    0.0099   -0.0117   -0.0000
C         0.4569   -4.3014   -0.0000   -0.0370    0.0003    0.0000
H        -3.0344    3.3753   -0.0000   -0.0534   -0.0490   -0.0000
H        -1.0767    5.1949   -0.0000   -0.3827   -0.2364    0.0000
H        -5.0505    1.6227   -0.0000   -0.0240   -0.0532    0.0000
H         1.6229    5.0511   -0.0000    0.3618   -0.2907   -0.0000
H        -5.1940   -1.0770   -0.0000   -0.0890    0.1146   -0.0000
H         3.3756    3.0341   -0.0000    0.0288   -0.0345   -0.0000
H        -3.3754   -3.0341   -0.0000    0.0247   -0.0297    0.0000
H         3.0341   -3.3754   -0.0000   -0.0487   -0.0450   -0.0000
H         5.1941    1.0769   -0.0000   -0.0770    0.0951    0.0000
H        -1.6227   -5.0513   -0.0000    0.3424   -0.2751   -0.0000
H         5.0504   -1.6228   -0.0000   -0.0096   -0.0349   -0.0000
H         1.0767   -5.1949   -0.0000   -0.3622   -0.2238    0.0000
Mg       -0.0001    0.0000    0.0000   -0.0018   -0.0073    0.0000
    37
stable frequency at   1050.764 1/cm IR int. is 1.109 a.m.u.; force const. is 0.721 mDyne/Ang.
N         0.1100    2.0652    0.0000    0.0018    0.0153   -0.0000
N        -2.0647    0.1100    0.0000    0.0180   -0.0023   -0.0000
N         2.0647   -0.1099    0.0000   -0.0162    0.0008    0.0000
N        -0.1099   -2.0653    0.0000   -0.0013   -0.0184    0.0000
C        -0.9521    2.9419    0.0000    0.0043    0.0085    0.0000
C        -2.8236    1.2591   -0.0000    0.0108    0.0036   -0.0000
C         1.2590    2.8241    0.0000   -0.0032    0.0098   -0.0000
C        -2.9413   -0.9521   -0.0000    0.0092   -0.0050   -0.0000
C        -2.3047    2.5641   -0.0000   -0.0084   -0.0071   -0.0000
C        -0.4569    4.3015   -0.0000   -0.0255    0.0009   -0.0000
C        -4.2281    0.9114   -0.0000   -0.0038   -0.0257    0.0000
C         0.9115    4.2288   -0.0000    0.0234   -0.0031    0.0000
C        -4.3008   -0.4569   -0.0000    0.0009    0.0282    0.0000
C         2.5639    2.3048   -0.0000    0.0068   -0.0077    0.0000
C        -2.5638   -2.3048   -0.0000   -0.0080    0.0092   -0.0000
C         2.9414    0.9520   -0.0000   -0.0094    0.0041   -0.0000
C        -1.2591   -2.8242   -0.0000    0.0041   -0.0104   -0.0000
C         2.8236   -1.2591   -0.0000   -0.0095   -0.0037    0.0000
C         0.9520   -2.9419    0.0000   -0.0048   -0.0100   -0.0000
C         2.3046   -2.5640   -0.0000    0.0086    0.0077   -0.0000
C         4.3008    0.4568   -0.0000    0.0000   -0.0259    0.0000
C        -0.9115   -4.2288   -0.0000   -0.0267    0.0031    0.0000
C         4.2281   -0.9115   -0.0000    0.0025    0.0245   -0.0000
C         0.4569   -4.3014   -0.0000    0.0284   -0.0002   -0.0000
H        -3.0344    3.3753   -0.0000   -0.0632   -0.0564   -0.0000
H        -1.0767    5.1949   -0.0000   -0.2611   -0.1613   -0.0000
H        -5.0505    1.6227   -0.0000   -0.2123   -0.2685   -0.0000
H         1.6229    5.0511   -0.0000    0.2441   -0.1927   -0.0000
H        -5.1940   -1.0770   -0.0000   -0.1773    0.2867   -0.0000
H         3.3756    3.0341   -0.0000    0.0548   -0.0612   -0.0000
H        -3.3754   -3.0341   -0.0000   -0.0597    0.0667   -0.0000
H         3.0341   -3.3754   -0.0000    0.0649    0.0582   -0.0000
H         5.1941    1.0769   -0.0000    0.1687   -0.2706   -0.0000
H        -1.6227   -5.0513   -0.0000   -0.2724    0.2141   -0.0000
H         5.0504   -1.6228   -0.0000    0.1954    0.2491   -0.0000
H         1.0767   -5.1949   -0.0000    0.2949    0.1834    0.0000
Mg       -0.0001    0.0000    0.0000   -0.0002    0.0003    0.0000
    37
stable frequency at   1058.005 1/cm IR int. is 1.187 a.m.u.; force const. is 0.783 mDyne/Ang.
N         0.1100    2.0652    0.0000    0.0049    0.0397   -0.0000
N        -2.0647    0.1100    0.0000   -0.0400    0.0049    0.0000
N         2.0647   -0.1099    0.0000    0.0400   -0.0048   -0.0000
N        -0.1099   -2.0653    0.0000   -0.0049   -0.0398   -0.0000
C        -0.9521    2.9419    0.0000    0.0045    0.0094   -0.0000
C        -2.8236    1.2591   -0.0000   -0.0085   -0.0034    0.0000
C         1.2590    2.8241    0.0000   -0.0033    0.0084    0.0000
C        -2.9413   -0.9521   -0.0000   -0.0094    0.0045   -0.0000
C        -2.3047    2.5641   -0.0000   -0.0041    0.0035   -0.0000
C        -0.4569    4.3015   -0.0000   -0.0239   -0.0084    0.0000
C        -4.2281    0.9114   -0.0000    0.0136    0.0219   -0.0000
C         0.9115    4.2288   -0.0000    0.0219   -0.0135   -0.0000
C        -4.3008   -0.4569   -0.0000    0.0086   -0.0239    0.0000
C         2.5639    2.3048   -0.0000    0.0035    0.0040    0.0000
C        -2.5638   -2.3048   -0.0000   -0.0035   -0.0040   -0.0000
C         2.9414    0.9520   -0.0000    0.0094   -0.0045    0.0000
C        -1.2591   -2.8242   -0.0000    0.0034   -0.0084    0.0000
C         2.8236   -1.2591   -0.0000    0.0084    0.0033    0.0000
C         0.9520   -2.9419    0.0000   -0.0045   -0.0095    0.0000
C         2.3046   -2.5640   -0.0000    0.0041   -0.0035   -0.0000
C         4.3008    0.4568   -0.0000   -0.0087    0.0238    0.0000
C        -0.9115   -4.2288   -0.0000   -0.0220    0.0135    0.0000
C         4.2281   -0.9115   -0.0000   -0.0136   -0.0218   -0.0000
C         0.4569   -4.3014   -0.0000    0.0240    0.0085   -0.0000
H        -3.0344    3.3753   -0.0000   -0.0109   -0.0010    0.0000
H        -1.0767    5.1949   -0.0000   -0.2695   -0.1784    0.0000
H        -5.0505    1.6227   -0.0000    0.2065    0.2451    0.0000
H         1.6229    5.0511   -0.0000    0.2452   -0.2065    0.0000
H        -5.1940   -1.0770   -0.0000    0.1787   -0.2694    0.0000
H         3.3756    3.0341   -0.0000   -0.0008    0.0106   -0.0000
H        -3.3754   -3.0341   -0.0000    0.0008   -0.0107    0.0000
H         3.0341   -3.3754   -0.0000    0.0112    0.0012    0.0000
H         5.1941    1.0769   -0.0000   -0.1783    0.2687   -0.0000
H        -1.6227   -5.0513   -0.0000   -0.2459    0.2070    0.0000
H         5.0504   -1.6228   -0.0000   -0.2060   -0.2444    0.0000
H         1.0767   -5.1949   -0.0000    0.2704    0.1791    0.0000
Mg       -0.0001    0.0000    0.0000    0.0000    0.0000   -0.0000
    37
stable frequency at   1135.052 1/cm IR int. is 1.662 a.m.u.; force const. is 1.262 mDyne/Ang.
N         0.1100    2.0652    0.0000   -0.0630    0.0037    0.0000
N        -2.0647    0.1100    0.0000   -0.0033   -0.0629    0.0000
N         2.0647   -0.1099    0.0000    0.0036    0.0622    0.0000
N        -0.1099   -2.0653    0.0000    0.0623   -0.0033   -0.0000
C        -0.9521    2.9419    0.0000   -0.0002   -0.0447    0.0000
C        -2.8236    1.2591   -0.0000   -0.0448    0.0046   -0.0000
C         1.2590    2.8241    0.0000    0.0045    0.0446   -0.0000
C        -2.9413   -0.9521   -0.0000    0.0445   -0.0003   -0.0000
C        -2.3047    2.5641   -0.0000    0.0112    0.0110    0.0000
C        -0.4569    4.3015   -0.0000   -0.0071    0.0046   -0.0000
C        -4.2281    0.9114   -0.0000    0.0037   -0.0051    0.0000
C         0.9115    4.2288   -0.0000   -0.0050   -0.0037    0.0000
C        -4.3008   -0.4569   -0.0000   -0.0046   -0.0071    0.0000
C         2.5639    2.3048   -0.0000    0.0112   -0.0110    0.0000
C        -2.5638   -2.3048   -0.0000   -0.0109    0.0113    0.0000
C         2.9414    0.9520   -0.0000   -0.0441    0.0001    0.0000
C        -1.2591   -2.8242   -0.0000   -0.0047   -0.0441   -0.0000
C         2.8236   -1.2591   -0.0000    0.0441   -0.0046   -0.0000
C         0.9520   -2.9419    0.0000    0.0002    0.0437   -0.0000
C         2.3046   -2.5640   -0.0000   -0.0112   -0.0109   -0.0000
C         4.3008    0.4568   -0.0000    0.0046    0.0070   -0.0000
C        -0.9115   -4.2288   -0.0000    0.0049    0.0037   -0.0000
C         4.2281   -0.9115   -0.0000   -0.0037    0.0050   -0.0000
C         0.4569   -4.3014   -0.0000    0.0070   -0.0045    0.0000
H        -3.0344    3.3753   -0.0000    0.2459    0.2224    0.0000
H        -1.0767    5.1949   -0.0000    0.0955    0.0773    0.0000
H        -5.0505    1.6227   -0.0000    0.0971    0.1003   -0.0000
H         1.6229    5.0511   -0.0000    0.1003   -0.0970   -0.0000
H        -5.1940   -1.0770   -0.0000   -0.0773    0.0955   -0.0000
H         3.3756    3.0341   -0.0000    0.2208   -0.2439    0.0000
H        -3.3754   -3.0341   -0.0000   -0.2202    0.2438   -0.0000
H         3.0341   -3.3754   -0.0000   -0.2419   -0.2187    0.0000
H         5.1941    1.0769   -0.0000    0.0764   -0.0942   -0.0000
H        -1.6227   -5.0513   -0.0000   -0.0987    0.0956    0.0000
H         5.0504   -1.6228   -0.0000   -0.0960   -0.0991    0.0000
H         1.0767   -5.1949   -0.0000   -0.0936   -0.0757    0.0000
Mg       -0.0001    0.0000    0.0000   -0.0000   -0.0000    0.0000
    37
stable frequency at   1137.961 1/cm IR int. is 1.736 a.m.u.; force const. is 1.325 mDyne/Ang.
N         0.1100    2.0652    0.0000   -0.0049   -0.0361   -0.0000
N        -2.0647    0.1100    0.0000    0.0046    0.0736    0.0000
N         2.0647   -0.1099    0.0000    0.0046    0.0741   -0.0000
N        -0.1099   -2.0653    0.0000   -0.0044   -0.0362   -0.0000
C        -0.9521    2.9419    0.0000   -0.0087    0.0158    0.0000
C        -2.8236    1.2591   -0.0000    0.0668    0.0063   -0.0000
C         1.2590    2.8241    0.0000    0.0105    0.0188   -0.0000
C        -2.9413   -0.9521   -0.0000   -0.0664    0.0130    0.0000
C        -2.3047    2.5641   -0.0000    0.0090   -0.0205    0.0000
C        -0.4569    4.3015   -0.0000   -0.0008   -0.0051   -0.0000
C        -4.2281    0.9114   -0.0000   -0.0014    0.0057   -0.0000
C         0.9115    4.2288   -0.0000   -0.0003   -0.0050    0.0000
C        -4.3008   -0.4569   -0.0000    0.0024    0.0077    0.0000
C         2.5639    2.3048   -0.0000   -0.0092   -0.0183    0.0000
C        -2.5638   -2.3048   -0.0000   -0.0094   -0.0182   -0.0000
C         2.9414    0.9520   -0.0000   -0.0667    0.0130   -0.0000
C        -1.2591   -2.8242   -0.0000    0.0105    0.0185    0.0000
C         2.8236   -1.2591   -0.0000    0.0674    0.0062    0.0000
C         0.9520   -2.9419    0.0000   -0.0087    0.0161   -0.0000
C         2.3046   -2.5640   -0.0000    0.0089   -0.0205    0.0000
C         4.3008    0.4568   -0.0000    0.0024    0.0078    0.0000
C        -0.9115   -4.2288   -0.0000   -0.0003   -0.0050    0.0000
C         4.2281   -0.9115   -0.0000   -0.0015    0.0058   -0.0000
C         0.4569   -4.3014   -0.0000   -0.0008   -0.0051   -0.0000
H        -3.0344    3.3753   -0.0000   -0.1974   -0.2107   -0.0000
H        -1.0767    5.1949   -0.0000    0.0124    0.0029    0.0000
H        -5.0505    1.6227   -0.0000   -0.1475   -0.1605    0.0000
H         1.6229    5.0511   -0.0000   -0.0027   -0.0040   -0.0000
H        -5.1940   -1.0770   -0.0000    0.1263   -0.1677    0.0000
H         3.3756    3.0341   -0.0000    0.1885   -0.2425   -0.0000
H        -3.3754   -3.0341   -0.0000    0.1868   -0.2406    0.0000
H         3.0341   -3.3754   -0.0000   -0.1998   -0.2126   -0.0000
H         5.1941    1.0769   -0.0000    0.1271   -0.1688    0.0000
H        -1.6227   -5.0513   -0.0000   -0.0034   -0.0034   -0.0000
H         5.0504   -1.6228   -0.0000   -0.1486   -0.1615   -0.0000
H         1.0767   -5.1949   -0.0000    0.0119    0.0026    0.0000
Mg       -0.0001    0.0000    0.0000    0.0001    0.0032    0.0000
    37
stable frequency at   1138.003 1/cm IR int. is 1.737 a.m.u.; force const. is 1.325 mDyne/Ang.
N         0.1100    2.0652    0.0000   -0.0737    0.0047   -0.0000
N        -2.0647    0.1100    0.0000    0.0363   -0.0043   -0.0000
N         2.0647   -0.1099    0.0000    0.0361   -0.0049   -0.0000
N        -0.1099   -2.0653    0.0000   -0.0743    0.0046   -0.0000
C        -0.9521    2.9419    0.0000   -0.0130   -0.0665    0.0000
C        -2.8236    1.2591   -0.0000   -0.0184    0.0105    0.0000
C         1.2590    2.8241    0.0000   -0.0063    0.0668    0.0000
C        -2.9413   -0.9521   -0.0000   -0.0163   -0.0087   -0.0000
C        -2.3047    2.5641   -0.0000    0.0182   -0.0094   -0.0000
C        -0.4569    4.3015   -0.0000   -0.0077    0.0024    0.0000
C        -4.2281    0.9114   -0.0000    0.0050   -0.0003    0.0000
C         0.9115    4.2288   -0.0000   -0.0057   -0.0013   -0.0000
C        -4.3008   -0.4569   -0.0000    0.0051   -0.0007    0.0000
C         2.5639    2.3048   -0.0000    0.0205    0.0090   -0.0000
C        -2.5638   -2.3048   -0.0000    0.0206    0.0089   -0.0000
C         2.9414    0.9520   -0.0000   -0.0156   -0.0088    0.0000
C        -1.2591   -2.8242   -0.0000   -0.0062    0.0674    0.0000
C         2.8236   -1.2591   -0.0000   -0.0188    0.0106    0.0000
C         0.9520   -2.9419    0.0000   -0.0130   -0.0666    0.0000
C         2.3046   -2.5640   -0.0000    0.0184   -0.0093   -0.0000
C         4.3008    0.4568   -0.0000    0.0050   -0.0009    0.0000
C        -0.9115   -4.2288   -0.0000   -0.0057   -0.0015    0.0000
C         4.2281   -0.9115   -0.0000    0.0050   -0.0003   -0.0000
C         0.4569   -4.3014   -0.0000   -0.0078    0.0023   -0.0000
H        -3.0344    3.3753   -0.0000    0.2405    0.1869    0.0000
H        -1.0767    5.1949   -0.0000    0.1677    0.1262   -0.0000
H        -5.0505    1.6227   -0.0000    0.0030   -0.0038   -0.0000
H         1.6229    5.0511   -0.0000    0.1605   -0.1475    0.0000
H        -5.1940   -1.0770   -0.0000   -0.0022    0.0115    0.0000
H         3.3756    3.0341   -0.0000    0.2103   -0.1972   -0.0000
H        -3.3754   -3.0341   -0.0000    0.2130   -0.2002    0.0000
H         3.0341   -3.3754   -0.0000    0.2428    0.1887    0.0000
H         5.1941    1.0769   -0.0000   -0.0032    0.0126   -0.0000
H        -1.6227   -5.0513   -0.0000    0.1612   -0.1483   -0.0000
H         5.0504   -1.6228   -0.0000    0.0044   -0.0023   -0.0000
H         1.0767   -5.1949   -0.0000    0.1681    0.1264    0.0000
Mg       -0.0001    0.0000    0.0000   -0.0032    0.0001    0.0000
    37
stable frequency at   1167.591 1/cm IR int. is 1.889 a.m.u.; force const. is 1.517 mDyne/Ang.
N         0.1100    2.0652    0.0000    0.0290   -0.0062    0.0000
N        -2.0647    0.1100    0.0000   -0.0062   -0.0291    0.0000
N         2.0647   -0.1099    0.0000    0.0063    0.0290   -0.0000
N        -0.1099   -2.0653    0.0000   -0.0292    0.0063    0.0000
C        -0.9521    2.9419    0.0000    0.0232    0.0672    0.0000
C        -2.8236    1.2591   -0.0000   -0.0603   -0.0151    0.0000
C         1.2590    2.8241    0.0000    0.0150   -0.0601    0.0000
C        -2.9413   -0.9521   -0.0000    0.0672   -0.0232   -0.0000
C        -2.3047    2.5641   -0.0000   -0.0095    0.0135   -0.0000
C        -0.4569    4.3015   -0.0000    0.0116    0.0059   -0.0000
C        -4.2281    0.9114   -0.0000   -0.0116   -0.0083    0.0000
C         0.9115    4.2288   -0.0000    0.0083   -0.0115   -0.0000
C        -4.3008   -0.4569   -0.0000    0.0059   -0.0116   -0.0000
C         2.5639    2.3048   -0.0000   -0.0135   -0.0095   -0.0000
C        -2.5638   -2.3048   -0.0000    0.0135    0.0095   -0.0000
C         2.9414    0.9520   -0.0000   -0.0672    0.0232    0.0000
C        -1.2591   -2.8242   -0.0000   -0.0150    0.0603    0.0000
C         2.8236   -1.2591   -0.0000    0.0601    0.0150    0.0000
C         0.9520   -2.9419    0.0000   -0.0233   -0.0672   -0.0000
C         2.3046   -2.5640   -0.0000    0.0096   -0.0135   -0.0000
C         4.3008    0.4568   -0.0000   -0.0059    0.0116   -0.0000
C        -0.9115   -4.2288   -0.0000   -0.0083    0.0115   -0.0000
C         4.2281   -0.9115   -0.0000    0.0116    0.0083    0.0000
C         0.4569   -4.3014   -0.0000   -0.0116   -0.0059   -0.0000
H        -3.0344    3.3753   -0.0000   -0.0351   -0.0017    0.0000
H        -1.0767    5.1949   -0.0000   -0.1987   -0.1419    0.0000
H        -5.0505    1.6227   -0.0000    0.1597    0.1884    0.0000
H         1.6229    5.0511   -0.0000   -0.1881    0.1594    0.0000
H        -5.1940   -1.0770   -0.0000   -0.1422    0.1991   -0.0000
H         3.3756    3.0341   -0.0000    0.0019   -0.0353    0.0000
H        -3.3754   -3.0341   -0.0000   -0.0016    0.0351    0.0000
H         3.0341   -3.3754   -0.0000    0.0360    0.0024   -0.0000
H         5.1941    1.0769   -0.0000    0.1420   -0.1989    0.0000
H        -1.6227   -5.0513   -0.0000    0.1885   -0.1597    0.0000
H         5.0504   -1.6228   -0.0000   -0.1595   -0.1883   -0.0000
H         1.0767   -5.1949   -0.0000    0.1989    0.1420   -0.0000
Mg       -0.0001    0.0000    0.0000   -0.0000   -0.0000    0.0000
    37
stable frequency at   1171.288 1/cm IR int. is 2.166 a.m.u.; force const. is 1.751 mDyne/Ang.
N         0.1100    2.0652    0.0000    0.0061    0.0570    0.0000
N        -2.0647    0.1100    0.0000    0.0568   -0.0061    0.0000
N         2.0647   -0.1099    0.0000   -0.0569    0.0060    0.0000
N        -0.1099   -2.0653    0.0000   -0.0060   -0.0569   -0.0000
C        -0.9521    2.9419    0.0000   -0.0084   -0.0486   -0.0000
C        -2.8236    1.2591   -0.0000   -0.0600   -0.0056    0.0000
C         1.2590    2.8241    0.0000    0.0056   -0.0602    0.0000
C        -2.9413   -0.9521   -0.0000   -0.0485    0.0085    0.0000
C        -2.3047    2.5641   -0.0000   -0.0193   -0.0145   -0.0000
C        -0.4569    4.3015   -0.0000   -0.0039    0.0288   -0.0000
C        -4.2281    0.9114   -0.0000    0.0266   -0.0083    0.0000
C         0.9115    4.2288   -0.0000    0.0083    0.0266   -0.0000
C        -4.3008   -0.4569   -0.0000    0.0288    0.0039   -0.0000
C         2.5639    2.3048   -0.0000    0.0145   -0.0193    0.0000
C        -2.5638   -2.3048   -0.0000   -0.0146    0.0193   -0.0000
C         2.9414    0.9520   -0.0000    0.0486   -0.0085   -0.0000
C        -1.2591   -2.8242   -0.0000   -0.0055    0.0601    0.0000
C         2.8236   -1.2591   -0.0000    0.0601    0.0055   -0.0000
C         0.9520   -2.9419    0.0000    0.0086    0.0486    0.0000
C         2.3046   -2.5640   -0.0000    0.0192    0.0146   -0.0000
C         4.3008    0.4568   -0.0000   -0.0288   -0.0039    0.0000
C        -0.9115   -4.2288   -0.0000   -0.0084   -0.0267    0.0000
C         4.2281   -0.9115   -0.0000   -0.0266    0.0083    0.0000
C         0.4569   -4.3014   -0.0000    0.0039   -0.0287   -0.0000
H        -3.0344    3.3753   -0.0000    0.2323    0.2128    0.0000
H        -1.0767    5.1949   -0.0000   -0.0590   -0.0042    0.0000
H        -5.0505    1.6227   -0.0000    0.0165   -0.0271   -0.0000
H         1.6229    5.0511   -0.0000    0.0270    0.0165   -0.0000
H        -5.1940   -1.0770   -0.0000   -0.0040    0.0586    0.0000
H         3.3756    3.0341   -0.0000   -0.2132    0.2331   -0.0000
H        -3.3754   -3.0341   -0.0000    0.2123   -0.2322   -0.0000
H         3.0341   -3.3754   -0.0000   -0.2329   -0.2130    0.0000
H         5.1941    1.0769   -0.0000    0.0040   -0.0586   -0.0000
H        -1.6227   -5.0513   -0.0000   -0.0274   -0.0163    0.0000
H         5.0504   -1.6228   -0.0000   -0.0164    0.0272   -0.0000
H         1.0767   -5.1949   -0.0000    0.0586    0.0040    0.0000
Mg       -0.0001    0.0000    0.0000    0.0000   -0.0000    0.0000
    37
stable frequency at   1246.496 1/cm IR int. is 2.726 a.m.u.; force const. is 2.495 mDyne/Ang.
N         0.1100    2.0652    0.0000    0.0057    0.0613   -0.0000
N        -2.0647    0.1100    0.0000    0.0067    0.0342    0.0000
N         2.0647   -0.1099    0.0000    0.0068    0.0342    0.0000
N        -0.1099   -2.0653    0.0000    0.0058    0.0613   -0.0000
C        -0.9521    2.9419    0.0000   -0.0346   -0.0712   -0.0000
C        -2.8236    1.2591   -0.0000    0.0393   -0.0292    0.0000
C         1.2590    2.8241    0.0000    0.0231   -0.0808    0.0000
C        -2.9413   -0.9521   -0.0000   -0.0540   -0.0203    0.0000
C        -2.3047    2.5641   -0.0000   -0.0176   -0.0043   -0.0000
C        -0.4569    4.3015   -0.0000    0.0013    0.0334    0.0000
C        -4.2281    0.9114   -0.0000    0.0143    0.0173   -0.0000
C         0.9115    4.2288   -0.0000    0.0050    0.0307   -0.0000
C        -4.3008   -0.4569   -0.0000   -0.0072    0.0200   -0.0000
C         2.5639    2.3048   -0.0000    0.0161   -0.0039    0.0000
C        -2.5638   -2.3048   -0.0000    0.0162   -0.0039   -0.0000
C         2.9414    0.9520   -0.0000   -0.0540   -0.0203   -0.0000
C        -1.2591   -2.8242   -0.0000    0.0229   -0.0809    0.0000
C         2.8236   -1.2591   -0.0000    0.0393   -0.0293    0.0000
C         0.9520   -2.9419    0.0000   -0.0348   -0.0711    0.0000
C         2.3046   -2.5640   -0.0000   -0.0176   -0.0043   -0.0000
C         4.3008    0.4568   -0.0000   -0.0072    0.0200    0.0000
C        -0.9115   -4.2288   -0.0000    0.0050    0.0309    0.0000
C         4.2281   -0.9115   -0.0000    0.0143    0.0173    0.0000
C         0.4569   -4.3014   -0.0000    0.0013    0.0333   -0.0000
H        -3.0344    3.3753   -0.0000    0.1604    0.1509    0.0000
H        -1.0767    5.1949   -0.0000   -0.0632   -0.0043    0.0000
H        -5.0505    1.6227   -0.0000   -0.1194   -0.1382    0.0000
H         1.6229    5.0511   -0.0000    0.0409    0.0074    0.0000
H        -5.1940   -1.0770   -0.0000    0.1067   -0.1440    0.0000
H         3.3756    3.0341   -0.0000   -0.1229    0.1440    0.0000
H        -3.3754   -3.0341   -0.0000   -0.1225    0.1437    0.0000
H         3.0341   -3.3754   -0.0000    0.1612    0.1515    0.0000
H         5.1941    1.0769   -0.0000    0.1068   -0.1440   -0.0000
H        -1.6227   -5.0513   -0.0000    0.0411    0.0073   -0.0000
H         5.0504   -1.6228   -0.0000   -0.1195   -0.1383   -0.0000
H         1.0767   -5.1949   -0.0000   -0.0630   -0.0043    0.0000
Mg       -0.0001    0.0000    0.0000   -0.0005   -0.0042   -0.0000
    37
stable frequency at   1246.609 1/cm IR int. is 2.727 a.m.u.; force const. is 2.497 mDyne/Ang.
N         0.1100    2.0652    0.0000    0.0343   -0.0068   -0.0000
N        -2.0647    0.1100    0.0000    0.0613   -0.0058   -0.0000
N         2.0647   -0.1099    0.0000    0.0612   -0.0058   -0.0000
N        -0.1099   -2.0653    0.0000    0.0342   -0.0068    0.0000
C        -0.9521    2.9419    0.0000   -0.0204    0.0541    0.0000
C        -2.8236    1.2591   -0.0000   -0.0808   -0.0231    0.0000
C         1.2590    2.8241    0.0000   -0.0293   -0.0392   -0.0000
C        -2.9413   -0.9521   -0.0000   -0.0712    0.0347   -0.0000
C        -2.3047    2.5641   -0.0000   -0.0039   -0.0162   -0.0000
C        -0.4569    4.3015   -0.0000    0.0200    0.0072    0.0000
C        -4.2281    0.9114   -0.0000    0.0308   -0.0050    0.0000
C         0.9115    4.2288   -0.0000    0.0173   -0.0143   -0.0000
C        -4.3008   -0.4569   -0.0000    0.0334   -0.0013   -0.0000
C         2.5639    2.3048   -0.0000   -0.0043    0.0176   -0.0000
C        -2.5638   -2.3048   -0.0000   -0.0043    0.0177   -0.0000
C         2.9414    0.9520   -0.0000   -0.0711    0.0347    0.0000
C        -1.2591   -2.8242   -0.0000   -0.0293   -0.0393    0.0000
C         2.8236   -1.2591   -0.0000   -0.0808   -0.0230   -0.0000
C         0.9520   -2.9419    0.0000   -0.0203    0.0539    0.0000
C         2.3046   -2.5640   -0.0000   -0.0039   -0.0162    0.0000
C         4.3008    0.4568   -0.0000    0.0333   -0.0013   -0.0000
C        -0.9115   -4.2288   -0.0000    0.0173   -0.0143   -0.0000
C         4.2281   -0.9115   -0.0000    0.0308   -0.0050    0.0000
C         0.4569   -4.3014   -0.0000    0.0200    0.0073   -0.0000
H        -3.0344    3.3753   -0.0000    0.1442    0.1231    0.0000
H        -1.0767    5.1949   -0.0000   -0.1439   -0.1067   -0.0000
H        -5.0505    1.6227   -0.0000    0.0073   -0.0410    0.0000
H         1.6229    5.0511   -0.0000   -0.1380    0.1193   -0.0000
H        -5.1940   -1.0770   -0.0000   -0.0042    0.0630    0.0000
H         3.3756    3.0341   -0.0000    0.1512   -0.1610   -0.0000
H        -3.3754   -3.0341   -0.0000    0.1512   -0.1609    0.0000
H         3.0341   -3.3754   -0.0000    0.1434    0.1224   -0.0000
H         5.1941    1.0769   -0.0000   -0.0042    0.0630   -0.0000
H        -1.6227   -5.0513   -0.0000   -0.1383    0.1194    0.0000
H         5.0504   -1.6228   -0.0000    0.0074   -0.0410   -0.0000
H         1.0767   -5.1949   -0.0000   -0.1439   -0.1066   -0.0000
Mg       -0.0001    0.0000    0.0000   -0.0043    0.0005    0.0000
    37
stable frequency at   1294.812 1/cm IR int. is 4.045 a.m.u.; force const. is 3.996 mDyne/Ang.
N         0.1100    2.0652    0.0000    0.0533   -0.0043    0.0000
N        -2.0647    0.1100    0.0000    0.0006   -0.0239   -0.0000
N         2.0647   -0.1099    0.0000    0.0005   -0.0242   -0.0000
N        -0.1099   -2.0653    0.0000    0.0528   -0.0042   -0.0000
C        -0.9521    2.9419    0.0000   -0.0666    0.0368    0.0000
C        -2.8236    1.2591   -0.0000   -0.0047    0.0293    0.0000
C         1.2590    2.8241    0.0000   -0.0701   -0.0383    0.0000
C        -2.9413   -0.9521   -0.0000    0.0277    0.0311   -0.0000
C        -2.3047    2.5641   -0.0000    0.0312   -0.0096    0.0000
C        -0.4569    4.3015   -0.0000   -0.0262   -0.0612    0.0000
C        -4.2281    0.9114   -0.0000    0.0215    0.0244    0.0000
C         0.9115    4.2288   -0.0000    0.0027    0.0712    0.0000
C        -4.3008   -0.4569   -0.0000   -0.0400   -0.0126    0.0000
C         2.5639    2.3048   -0.0000    0.0372   -0.0264    0.0000
C        -2.5638   -2.3048   -0.0000    0.0370   -0.0262   -0.0000
C         2.9414    0.9520   -0.0000    0.0281    0.0314   -0.0000
C        -1.2591   -2.8242   -0.0000   -0.0696   -0.0381    0.0000
C         2.8236   -1.2591   -0.0000   -0.0048    0.0298    0.0000
C         0.9520   -2.9419    0.0000   -0.0658    0.0361   -0.0000
C         2.3046   -2.5640   -0.0000    0.0309   -0.0096   -0.0000
C         4.3008    0.4568   -0.0000   -0.0404   -0.0125    0.0000
C        -0.9115   -4.2288   -0.0000    0.0026    0.0708    0.0000
C         4.2281   -0.9115   -0.0000    0.0217    0.0244   -0.0000
C         0.4569   -4.3014   -0.0000   -0.0260   -0.0606   -0.0000
H        -3.0344    3.3753   -0.0000    0.0312   -0.0118    0.0000
H        -1.0767    5.1949   -0.0000    0.1828    0.0825    0.0000
H        -5.0505    1.6227   -0.0000   -0.0801   -0.0898    0.0000
H         1.6229    5.0511   -0.0000    0.1619   -0.0607   -0.0000
H        -5.1940   -1.0770   -0.0000   -0.0117   -0.0608    0.0000
H         3.3756    3.0341   -0.0000    0.0265   -0.0138   -0.0000
H        -3.3754   -3.0341   -0.0000    0.0260   -0.0132    0.0000
H         3.0341   -3.3754   -0.0000    0.0289   -0.0137    0.0000
H         5.1941    1.0769   -0.0000   -0.0116   -0.0613   -0.0000
H        -1.6227   -5.0513   -0.0000    0.1609   -0.0603    0.0000
H         5.0504   -1.6228   -0.0000   -0.0802   -0.0902    0.0000
H         1.0767   -5.1949   -0.0000    0.1820    0.0824    0.0000
Mg       -0.0001    0.0000    0.0000   -0.0017    0.0009   -0.0000
    37
stable frequency at   1294.828 1/cm IR int. is 4.050 a.m.u.; force const. is 4.001 mDyne/Ang.
N         0.1100    2.0652    0.0000    0.0241    0.0005    0.0000
N        -2.0647    0.1100    0.0000    0.0043    0.0531   -0.0000
N         2.0647   -0.1099    0.0000    0.0042    0.0531    0.0000
N        -0.1099   -2.0653    0.0000    0.0240    0.0006    0.0000
C        -0.9521    2.9419    0.0000   -0.0313    0.0280    0.0000
C        -2.8236    1.2591   -0.0000    0.0381   -0.0698    0.0000
C         1.2590    2.8241    0.0000   -0.0296   -0.0047    0.0000
C        -2.9413   -0.9521   -0.0000   -0.0366   -0.0662   -0.0000
C        -2.3047    2.5641   -0.0000    0.0263    0.0371    0.0000
C        -0.4569    4.3015   -0.0000    0.0125   -0.0403    0.0000
C        -4.2281    0.9114   -0.0000   -0.0709    0.0027   -0.0000
C         0.9115    4.2288   -0.0000   -0.0244    0.0217   -0.0000
C        -4.3008   -0.4569   -0.0000    0.0609   -0.0261   -0.0000
C         2.5639    2.3048   -0.0000    0.0096    0.0311   -0.0000
C        -2.5638   -2.3048   -0.0000    0.0096    0.0311    0.0000
C         2.9414    0.9520   -0.0000   -0.0365   -0.0663    0.0000
C        -1.2591   -2.8242   -0.0000   -0.0295   -0.0048   -0.0000
C         2.8236   -1.2591   -0.0000    0.0383   -0.0699   -0.0000
C         0.9520   -2.9419    0.0000   -0.0311    0.0277   -0.0000
C         2.3046   -2.5640   -0.0000    0.0262    0.0372   -0.0000
C         4.3008    0.4568   -0.0000    0.0609   -0.0260    0.0000
C        -0.9115   -4.2288   -0.0000   -0.0244    0.0216   -0.0000
C         4.2281   -0.9115   -0.0000   -0.0710    0.0027   -0.0000
C         0.4569   -4.3014   -0.0000    0.0126   -0.0401   -0.0000
H        -3.0344    3.3753   -0.0000    0.0136    0.0262   -0.0000
H        -1.0767    5.1949   -0.0000    0.0614   -0.0116   -0.0000
H        -5.0505    1.6227   -0.0000    0.0604    0.1612   -0.0000
H         1.6229    5.0511   -0.0000    0.0902   -0.0804    0.0000
H        -5.1940   -1.0770   -0.0000   -0.0823    0.1822    0.0000
H         3.3756    3.0341   -0.0000    0.0126    0.0303    0.0000
H        -3.3754   -3.0341   -0.0000    0.0125    0.0303   -0.0000
H         3.0341   -3.3754   -0.0000    0.0133    0.0261    0.0000
H         5.1941    1.0769   -0.0000   -0.0823    0.1821   -0.0000
H        -1.6227   -5.0513   -0.0000    0.0899   -0.0801    0.0000
H         5.0504   -1.6228   -0.0000    0.0602    0.1612    0.0000
H         1.0767   -5.1949   -0.0000    0.0611   -0.0115    0.0000
Mg       -0.0001    0.0000    0.0000   -0.0009   -0.0017   -0.0000
    37
stable frequency at   1307.363 1/cm IR int. is 3.583 a.m.u.; force const. is 3.608 mDyne/Ang.
N         0.1100    2.0652    0.0000   -0.0474    0.0032   -0.0000
N        -2.0647    0.1100    0.0000   -0.0032   -0.0478   -0.0000
N         2.0647   -0.1099    0.0000    0.0032    0.0475   -0.0000
N        -0.1099   -2.0653    0.0000    0.0479   -0.0032   -0.0000
C        -0.9521    2.9419    0.0000    0.0547   -0.0421    0.0000
C        -2.8236    1.2591   -0.0000   -0.0355    0.0579    0.0000
C         1.2590    2.8241    0.0000    0.0573    0.0352    0.0000
C        -2.9413   -0.9521   -0.0000    0.0424    0.0552    0.0000
C        -2.3047    2.5641   -0.0000   -0.0160   -0.0142   -0.0000
C        -0.4569    4.3015   -0.0000    0.0083    0.0425   -0.0000
C        -4.2281    0.9114   -0.0000    0.0432    0.0015   -0.0000
C         0.9115    4.2288   -0.0000    0.0014   -0.0429   -0.0000
C        -4.3008   -0.4569   -0.0000   -0.0429    0.0083    0.0000
C         2.5639    2.3048   -0.0000   -0.0140    0.0161   -0.0000
C        -2.5638   -2.3048   -0.0000    0.0143   -0.0162   -0.0000
C         2.9414    0.9520   -0.0000   -0.0422   -0.0548   -0.0000
C        -1.2591   -2.8242   -0.0000   -0.0583   -0.0357    0.0000
C         2.8236   -1.2591   -0.0000    0.0354   -0.0577    0.0000
C         0.9520   -2.9419    0.0000   -0.0551    0.0425    0.0000
C         2.3046   -2.5640   -0.0000    0.0163    0.0142    0.0000
C         4.3008    0.4568   -0.0000    0.0427   -0.0084    0.0000
C        -0.9115   -4.2288   -0.0000   -0.0015    0.0435    0.0000
C         4.2281   -0.9115   -0.0000   -0.0431   -0.0013    0.0000
C         0.4569   -4.3014   -0.0000   -0.0084   -0.0431   -0.0000
H        -3.0344    3.3753   -0.0000   -0.1476   -0.1327    0.0000
H        -1.0767    5.1949   -0.0000   -0.0811   -0.0177   -0.0000
H        -5.0505    1.6227   -0.0000   -0.0274   -0.0825    0.0000
H         1.6229    5.0511   -0.0000   -0.0818    0.0270    0.0000
H        -5.1940   -1.0770   -0.0000    0.0177   -0.0818   -0.0000
H         3.3756    3.0341   -0.0000   -0.1317    0.1470   -0.0000
H        -3.3754   -3.0341   -0.0000    0.1332   -0.1483   -0.0000
H         3.0341   -3.3754   -0.0000    0.1472    0.1321   -0.0000
H         5.1941    1.0769   -0.0000   -0.0181    0.0818   -0.0000
H        -1.6227   -5.0513   -0.0000    0.0830   -0.0275    0.0000
H         5.0504   -1.6228   -0.0000    0.0269    0.0821   -0.0000
H         1.0767   -5.1949   -0.0000    0.0829    0.0183   -0.0000
Mg       -0.0001    0.0000    0.0000   -0.0000    0.0000    0.0000
    37
stable frequency at   1332.646 1/cm IR int. is 5.240 a.m.u.; force const. is 5.483 mDyne/Ang.
N         0.1100    2.0652    0.0000    0.0461   -0.0038    0.0000
N        -2.0647    0.1100    0.0000   -0.0040   -0.0491   -0.0000
N         2.0647   -0.1099    0.0000    0.0039    0.0492    0.0000
N        -0.1099   -2.0653    0.0000   -0.0462    0.0036   -0.0000
C        -0.9521    2.9419    0.0000   -0.0424    0.0533   -0.0000
C        -2.8236    1.2591   -0.0000   -0.0459    0.0491    0.0000
C         1.2590    2.8241    0.0000   -0.0453   -0.0462    0.0000
C        -2.9413   -0.9521   -0.0000    0.0535    0.0459   -0.0000
C        -2.3047    2.5641   -0.0000    0.0213   -0.0201    0.0000
C        -0.4569    4.3015   -0.0000   -0.0154   -0.0551    0.0000
C        -4.2281    0.9114   -0.0000    0.0487    0.0031    0.0000
C         0.9115    4.2288   -0.0000   -0.0064    0.0555   -0.0000
C        -4.3008   -0.4569   -0.0000   -0.0487    0.0109    0.0000
C         2.5639    2.3048   -0.0000    0.0231    0.0177    0.0000
C        -2.5638   -2.3048   -0.0000   -0.0233   -0.0178    0.0000
C         2.9414    0.9520   -0.0000   -0.0534   -0.0459   -0.0000
C        -1.2591   -2.8242   -0.0000    0.0458    0.0466   -0.0000
C         2.8236   -1.2591   -0.0000    0.0460   -0.0492    0.0000
C         0.9520   -2.9419    0.0000    0.0422   -0.0531    0.0000
C         2.3046   -2.5640   -0.0000   -0.0214    0.0200    0.0000
C         4.3008    0.4568   -0.0000    0.0485   -0.0107   -0.0000
C        -0.9115   -4.2288   -0.0000    0.0066   -0.0558   -0.0000
C         4.2281   -0.9115   -0.0000   -0.0485   -0.0032    0.0000
C         0.4569   -4.3014   -0.0000    0.0153    0.0552    0.0000
H        -3.0344    3.3753   -0.0000    0.0122   -0.0284   -0.0000
H        -1.0767    5.1949   -0.0000    0.1268    0.0401    0.0000
H        -5.0505    1.6227   -0.0000   -0.0352   -0.0982    0.0000
H         1.6229    5.0511   -0.0000    0.1226   -0.0517    0.0000
H        -5.1940   -1.0770   -0.0000    0.0261   -0.1010    0.0000
H         3.3756    3.0341   -0.0000    0.0057    0.0372    0.0000
H        -3.3754   -3.0341   -0.0000   -0.0066   -0.0366    0.0000
H         3.0341   -3.3754   -0.0000   -0.0106    0.0298   -0.0000
H         5.1941    1.0769   -0.0000   -0.0257    0.1004    0.0000
H        -1.6227   -5.0513   -0.0000   -0.1230    0.0519    0.0000
H         5.0504   -1.6228   -0.0000    0.0349    0.0975   -0.0000
H         1.0767   -5.1949   -0.0000   -0.1276   -0.0404    0.0000
Mg       -0.0001    0.0000    0.0000    0.0000   -0.0000   -0.0000
    37
stable frequency at   1333.275 1/cm IR int. is 1.667 a.m.u.; force const. is 1.746 mDyne/Ang.
N         0.1100    2.0652    0.0000   -0.0247    0.0018    0.0000
N        -2.0647    0.1100    0.0000   -0.0012   -0.0178    0.0000
N         2.0647   -0.1099    0.0000    0.0012    0.0177    0.0000
N        -0.1099   -2.0653    0.0000    0.0248   -0.0017    0.0000
C        -0.9521    2.9419    0.0000    0.0280   -0.0054   -0.0000
C        -2.8236    1.2591   -0.0000    0.0061    0.0220    0.0000
C         1.2590    2.8241    0.0000    0.0288    0.0005    0.0000
C        -2.9413   -0.9521   -0.0000   -0.0024    0.0216   -0.0000
C        -2.3047    2.5641   -0.0000    0.0237    0.0237   -0.0000
C        -0.4569    4.3015   -0.0000   -0.0306   -0.0417   -0.0000
C        -4.2281    0.9114   -0.0000   -0.0526   -0.0232   -0.0000
C         0.9115    4.2288   -0.0000   -0.0225    0.0451    0.0000
C        -4.3008   -0.4569   -0.0000    0.0492   -0.0324    0.0000
C         2.5639    2.3048   -0.0000    0.0206   -0.0266    0.0000
C        -2.5638   -2.3048   -0.0000   -0.0205    0.0266   -0.0000
C         2.9414    0.9520   -0.0000    0.0024   -0.0215   -0.0000
C        -1.2591   -2.8242   -0.0000   -0.0290   -0.0006   -0.0000
C         2.8236   -1.2591   -0.0000   -0.0062   -0.0220   -0.0000
C         0.9520   -2.9419    0.0000   -0.0279    0.0053    0.0000
C         2.3046   -2.5640   -0.0000   -0.0237   -0.0237    0.0000
C         4.3008    0.4568   -0.0000   -0.0492    0.0324    0.0000
C        -0.9115   -4.2288   -0.0000    0.0224   -0.0450   -0.0000
C         4.2281   -0.9115   -0.0000    0.0526    0.0231   -0.0000
C         0.4569   -4.3014   -0.0000    0.0306    0.0417    0.0000
H        -3.0344    3.3753   -0.0000   -0.1771   -0.1571    0.0000
H        -1.0767    5.1949   -0.0000    0.1732    0.0961    0.0000
H        -5.0505    1.6227   -0.0000    0.1179    0.1794    0.0000
H         1.6229    5.0511   -0.0000    0.1634   -0.1116   -0.0000
H        -5.1940   -1.0770   -0.0000   -0.1008    0.1896    0.0000
H         3.3756    3.0341   -0.0000   -0.1593    0.1734   -0.0000
H        -3.3754   -3.0341   -0.0000    0.1598   -0.1738    0.0000
H         3.0341   -3.3754   -0.0000    0.1767    0.1568    0.0000
H         5.1941    1.0769   -0.0000    0.1007   -0.1895   -0.0000
H        -1.6227   -5.0513   -0.0000   -0.1635    0.1117    0.0000
H         5.0504   -1.6228   -0.0000   -0.1178   -0.1793   -0.0000
H         1.0767   -5.1949   -0.0000   -0.1731   -0.0960    0.0000
Mg       -0.0001    0.0000    0.0000   -0.0000    0.0000    0.0000
    37
stable frequency at   1352.397 1/cm IR int. is 11.160 a.m.u.; force const. is 12.026 mDyne/Ang.
N         0.1100    2.0652    0.0000   -0.0035   -0.0569   -0.0000
N        -2.0647    0.1100    0.0000    0.0566   -0.0034    0.0000
N         2.0647   -0.1099    0.0000   -0.0568    0.0034    0.0000
N        -0.1099   -2.0653    0.0000    0.0033    0.0568   -0.0000
C        -0.9521    2.9419    0.0000    0.0165    0.0843   -0.0000
C        -2.8236    1.2591   -0.0000   -0.0855   -0.0064    0.0000
C         1.2590    2.8241    0.0000   -0.0061    0.0859    0.0000
C        -2.9413   -0.9521   -0.0000   -0.0840    0.0166    0.0000
C        -2.3047    2.5641   -0.0000    0.0096   -0.0107    0.0000
C        -0.4569    4.3015   -0.0000    0.0003   -0.0311    0.0000
C        -4.2281    0.9114   -0.0000    0.0304   -0.0042    0.0000
C         0.9115    4.2288   -0.0000   -0.0040   -0.0305    0.0000
C        -4.3008   -0.4569   -0.0000    0.0310    0.0005    0.0000
C         2.5639    2.3048   -0.0000   -0.0107   -0.0097    0.0000
C        -2.5638   -2.3048   -0.0000    0.0106    0.0097    0.0000
C         2.9414    0.9520   -0.0000    0.0843   -0.0166    0.0000
C        -1.2591   -2.8242   -0.0000    0.0063   -0.0854   -0.0000
C         2.8236   -1.2591   -0.0000    0.0856    0.0063    0.0000
C         0.9520   -2.9419    0.0000   -0.0165   -0.0843    0.0000
C         2.3046   -2.5640   -0.0000   -0.0097    0.0106   -0.0000
C         4.3008    0.4568   -0.0000   -0.0313   -0.0003    0.0000
C        -0.9115   -4.2288   -0.0000    0.0041    0.0302    0.0000
C         4.2281   -0.9115   -0.0000   -0.0303    0.0042   -0.0000
C         0.4569   -4.3014   -0.0000   -0.0003    0.0312    0.0000
H        -3.0344    3.3753   -0.0000    0.0046   -0.0081    0.0000
H        -1.0767    5.1949   -0.0000    0.0101   -0.0312   -0.0000
H        -5.0505    1.6227   -0.0000    0.0317   -0.0118    0.0000
H         1.6229    5.0511   -0.0000   -0.0117   -0.0316   -0.0000
H        -5.1940   -1.0770   -0.0000    0.0315    0.0101    0.0000
H         3.3756    3.0341   -0.0000   -0.0094   -0.0032   -0.0000
H        -3.3754   -3.0341   -0.0000    0.0090    0.0035   -0.0000
H         3.0341   -3.3754   -0.0000   -0.0038    0.0087    0.0000
H         5.1941    1.0769   -0.0000   -0.0312   -0.0106   -0.0000
H        -1.6227   -5.0513   -0.0000    0.0112    0.0319    0.0000
H         5.0504   -1.6228   -0.0000   -0.0319    0.0114    0.0000
H         1.0767   -5.1949   -0.0000   -0.0107    0.0311    0.0000
Mg       -0.0001    0.0000    0.0000    0.0000    0.0000   -0.0000
    37
stable frequency at   1371.548 1/cm IR int. is 2.618 a.m.u.; force const. is 2.902 mDyne/Ang.
N         0.1100    2.0652    0.0000    0.0035    0.0478   -0.0000
N        -2.0647    0.1100    0.0000    0.0476   -0.0038   -0.0000
N         2.0647   -0.1099    0.0000   -0.0472    0.0033   -0.0000
N        -0.1099   -2.0653    0.0000   -0.0034   -0.0466    0.0000
C        -0.9521    2.9419    0.0000    0.0430   -0.0487   -0.0000
C        -2.8236    1.2591   -0.0000   -0.0458    0.0501    0.0000
C         1.2590    2.8241    0.0000   -0.0504   -0.0459   -0.0000
C        -2.9413   -0.9521   -0.0000   -0.0484   -0.0423   -0.0000
C        -2.3047    2.5641   -0.0000    0.0048    0.0031   -0.0000
C        -0.4569    4.3015   -0.0000    0.0349    0.0085   -0.0000
C        -4.2281    0.9114   -0.0000    0.0148    0.0338   -0.0000
C         0.9115    4.2288   -0.0000   -0.0343    0.0151    0.0000
C        -4.3008   -0.4569   -0.0000    0.0087   -0.0346   -0.0000
C         2.5639    2.3048   -0.0000   -0.0027    0.0049    0.0000
C        -2.5638   -2.3048   -0.0000    0.0031   -0.0046    0.0000
C         2.9414    0.9520   -0.0000    0.0482    0.0426    0.0000
C        -1.2591   -2.8242   -0.0000    0.0492    0.0445   -0.0000
C         2.8236   -1.2591   -0.0000    0.0453   -0.0496   -0.0000
C         0.9520   -2.9419    0.0000   -0.0419    0.0475   -0.0000
C         2.3046   -2.5640   -0.0000   -0.0048   -0.0026    0.0000
C         4.3008    0.4568   -0.0000   -0.0085    0.0342   -0.0000
C        -0.9115   -4.2288   -0.0000    0.0333   -0.0144   -0.0000
C         4.2281   -0.9115   -0.0000   -0.0149   -0.0337    0.0000
C         0.4569   -4.3014   -0.0000   -0.0340   -0.0085    0.0000
H        -3.0344    3.3753   -0.0000   -0.2135   -0.1934   -0.0000
H        -1.0767    5.1949   -0.0000    0.0211   -0.0055   -0.0000
H        -5.0505    1.6227   -0.0000   -0.0069    0.0145   -0.0000
H         1.6229    5.0511   -0.0000   -0.0139   -0.0076   -0.0000
H        -5.1940   -1.0770   -0.0000   -0.0058   -0.0201   -0.0000
H         3.3756    3.0341   -0.0000    0.1926   -0.2122   -0.0000
H        -3.3754   -3.0341   -0.0000   -0.1899    0.2099   -0.0000
H         3.0341   -3.3754   -0.0000    0.2088    0.1896   -0.0000
H         5.1941    1.0769   -0.0000    0.0051    0.0210   -0.0000
H        -1.6227   -5.0513   -0.0000    0.0142    0.0071   -0.0000
H         5.0504   -1.6228   -0.0000    0.0073   -0.0137   -0.0000
H         1.0767   -5.1949   -0.0000   -0.0200    0.0057   -0.0000
Mg       -0.0001    0.0000    0.0000   -0.0000   -0.0000    0.0000
    37
stable frequency at   1375.080 1/cm IR int. is 3.064 a.m.u.; force const. is 3.413 mDyne/Ang.
N         0.1100    2.0652    0.0000    0.0115    0.0645   -0.0000
N        -2.0647    0.1100    0.0000   -0.0238   -0.0206   -0.0000
N         2.0647   -0.1099    0.0000   -0.0230   -0.0206    0.0000
N        -0.1099   -2.0653    0.0000    0.0112    0.0654   -0.0000
C        -0.9521    2.9419    0.0000    0.0417   -0.0682    0.0000
C        -2.8236    1.2591   -0.0000    0.0192    0.0001   -0.0000
C         1.2590    2.8241    0.0000   -0.0651   -0.0656    0.0000
C        -2.9413   -0.9521   -0.0000    0.0300    0.0373   -0.0000
C        -2.3047    2.5641   -0.0000   -0.0119    0.0245   -0.0000
C        -0.4569    4.3015   -0.0000    0.0471    0.0194    0.0000
C        -4.2281    0.9114   -0.0000   -0.0194   -0.0216   -0.0000
C         0.9115    4.2288   -0.0000   -0.0394    0.0168    0.0000
C        -4.3008   -0.4569   -0.0000    0.0057    0.0052    0.0000
C         2.5639    2.3048   -0.0000    0.0009    0.0195   -0.0000
C        -2.5638   -2.3048   -0.0000    0.0007    0.0195   -0.0000
C         2.9414    0.9520   -0.0000    0.0293    0.0366    0.0000
C        -1.2591   -2.8242   -0.0000   -0.0655   -0.0661    0.0000
C         2.8236   -1.2591   -0.0000    0.0188    0.0011    0.0000
C         0.9520   -2.9419    0.0000    0.0425   -0.0696   -0.0000
C         2.3046   -2.5640   -0.0000   -0.0118    0.0246    0.0000
C         4.3008    0.4568   -0.0000    0.0059    0.0044    0.0000
C        -0.9115   -4.2288   -0.0000   -0.0398    0.0169    0.0000
C         4.2281   -0.9115   -0.0000   -0.0194   -0.0210   -0.0000
C         0.4569   -4.3014   -0.0000    0.0476    0.0199   -0.0000
H        -3.0344    3.3753   -0.0000   -0.1297   -0.0823   -0.0000
H        -1.0767    5.1949   -0.0000   -0.0004   -0.0172    0.0000
H        -5.0505    1.6227   -0.0000    0.0367    0.0438    0.0000
H         1.6229    5.0511   -0.0000   -0.0326    0.0052   -0.0000
H        -5.1940   -1.0770   -0.0000   -0.0296    0.0607   -0.0000
H         3.3756    3.0341   -0.0000    0.2198   -0.2242   -0.0000
H        -3.3754   -3.0341   -0.0000    0.2226   -0.2274    0.0000
H         3.0341   -3.3754   -0.0000   -0.1338   -0.0859   -0.0000
H         5.1941    1.0769   -0.0000   -0.0301    0.0609    0.0000
H        -1.6227   -5.0513   -0.0000   -0.0333    0.0054    0.0000
H         5.0504   -1.6228   -0.0000    0.0368    0.0446   -0.0000
H         1.0767   -5.1949   -0.0000   -0.0006   -0.0172    0.0000
Mg       -0.0001    0.0000    0.0000    0.0001   -0.0003   -0.0000
    37
stable frequency at   1375.117 1/cm IR int. is 3.066 a.m.u.; force const. is 3.416 mDyne/Ang.
N         0.1100    2.0652    0.0000   -0.0206    0.0231   -0.0000
N        -2.0647    0.1100    0.0000    0.0647   -0.0114    0.0000
N         2.0647   -0.1099    0.0000    0.0651   -0.0113   -0.0000
N        -0.1099   -2.0653    0.0000   -0.0207    0.0237    0.0000
C        -0.9521    2.9419    0.0000    0.0368   -0.0292   -0.0000
C        -2.8236    1.2591   -0.0000   -0.0659    0.0650   -0.0000
C         1.2590    2.8241    0.0000    0.0007   -0.0187   -0.0000
C        -2.9413   -0.9521   -0.0000   -0.0686   -0.0418    0.0000
C        -2.3047    2.5641   -0.0000    0.0195   -0.0008   -0.0000
C        -0.4569    4.3015   -0.0000    0.0047   -0.0060   -0.0000
C        -4.2281    0.9114   -0.0000    0.0170    0.0393   -0.0000
C         0.9115    4.2288   -0.0000   -0.0213    0.0193   -0.0000
C        -4.3008   -0.4569   -0.0000    0.0195   -0.0470    0.0000
C         2.5639    2.3048   -0.0000    0.0246    0.0119    0.0000
C        -2.5638   -2.3048   -0.0000    0.0245    0.0119    0.0000
C         2.9414    0.9520   -0.0000   -0.0691   -0.0426   -0.0000
C        -1.2591   -2.8242   -0.0000    0.0004   -0.0192    0.0000
C         2.8236   -1.2591   -0.0000   -0.0660    0.0657    0.0000
C         0.9520   -2.9419    0.0000    0.0371   -0.0301   -0.0000
C         2.3046   -2.5640   -0.0000    0.0195   -0.0008   -0.0000
C         4.3008    0.4568   -0.0000    0.0197   -0.0476   -0.0000
C        -0.9115   -4.2288   -0.0000   -0.0214    0.0193    0.0000
C         4.2281   -0.9115   -0.0000    0.0169    0.0398   -0.0000
C         0.4569   -4.3014   -0.0000    0.0050   -0.0056    0.0000
H        -3.0344    3.3753   -0.0000   -0.2245   -0.2203    0.0000
H        -1.0767    5.1949   -0.0000    0.0609    0.0298    0.0000
H        -5.0505    1.6227   -0.0000    0.0054    0.0325    0.0000
H         1.6229    5.0511   -0.0000    0.0443   -0.0369    0.0000
H        -5.1940   -1.0770   -0.0000   -0.0169    0.0002    0.0000
H         3.3756    3.0341   -0.0000   -0.0849    0.1329    0.0000
H        -3.3754   -3.0341   -0.0000   -0.0830    0.1306   -0.0000
H         3.0341   -3.3754   -0.0000   -0.2268   -0.2223   -0.0000
H         5.1941    1.0769   -0.0000   -0.0173    0.0003    0.0000
H        -1.6227   -5.0513   -0.0000    0.0438   -0.0366   -0.0000
H         5.0504   -1.6228   -0.0000    0.0054    0.0332    0.0000
H         1.0767   -5.1949   -0.0000    0.0605    0.0297   -0.0000
Mg       -0.0001    0.0000    0.0000   -0.0003   -0.0001   -0.0000
    37
stable frequency at   1419.245 1/cm IR int. is 8.798 a.m.u.; force const. is 10.441 mDyne/Ang.
N         0.1100    2.0652    0.0000   -0.0016   -0.0242   -0.0000
N        -2.0647    0.1100    0.0000    0.0244   -0.0022    0.0000
N         2.0647   -0.1099    0.0000   -0.0244    0.0007   -0.0000
N        -0.1099   -2.0653    0.0000    0.0014    0.0245   -0.0000
C        -0.9521    2.9419    0.0000   -0.0668    0.0027   -0.0000
C        -2.8236    1.2591   -0.0000    0.0043    0.0686    0.0000
C         1.2590    2.8241    0.0000    0.0679   -0.0041   -0.0000
C        -2.9413   -0.9521   -0.0000   -0.0046   -0.0644    0.0000
C        -2.3047    2.5641   -0.0000    0.0230   -0.0272    0.0000
C        -0.4569    4.3015   -0.0000   -0.0692    0.0055    0.0000
C        -4.2281    0.9114   -0.0000    0.0030    0.0679    0.0000
C         0.9115    4.2288   -0.0000    0.0703   -0.0041   -0.0000
C        -4.3008   -0.4569   -0.0000   -0.0039   -0.0683    0.0000
C         2.5639    2.3048   -0.0000   -0.0271   -0.0231    0.0000
C        -2.5638   -2.3048   -0.0000    0.0265    0.0224    0.0000
C         2.9414    0.9520   -0.0000    0.0025    0.0678    0.0000
C        -1.2591   -2.8242   -0.0000   -0.0661    0.0024   -0.0000
C         2.8236   -1.2591   -0.0000   -0.0020   -0.0653    0.0000
C         0.9520   -2.9419    0.0000    0.0651   -0.0044    0.0000
C         2.3046   -2.5640   -0.0000   -0.0225    0.0264    0.0000
C         4.3008    0.4568   -0.0000    0.0065    0.0665   -0.0000
C        -0.9115   -4.2288   -0.0000   -0.0669    0.0044    0.0000
C         4.2281   -0.9115   -0.0000   -0.0057   -0.0692   -0.0000
C         0.4569   -4.3014   -0.0000    0.0659   -0.0048   -0.0000
H        -3.0344    3.3753   -0.0000    0.0259   -0.0302   -0.0000
H        -1.0767    5.1949   -0.0000   -0.0145    0.0565    0.0000
H        -5.0505    1.6227   -0.0000   -0.0573    0.0153   -0.0000
H         1.6229    5.0511   -0.0000    0.0119    0.0614    0.0000
H        -5.1940   -1.0770   -0.0000   -0.0560   -0.0113    0.0000
H         3.3756    3.0341   -0.0000   -0.0296   -0.0266    0.0000
H        -3.3754   -3.0341   -0.0000    0.0292    0.0254   -0.0000
H         3.0341   -3.3754   -0.0000   -0.0260    0.0286    0.0000
H         5.1941    1.0769   -0.0000    0.0526    0.0186    0.0000
H        -1.6227   -5.0513   -0.0000   -0.0120   -0.0573   -0.0000
H         5.0504   -1.6228   -0.0000    0.0614   -0.0083   -0.0000
H         1.0767   -5.1949   -0.0000    0.0148   -0.0525   -0.0000
Mg       -0.0001    0.0000    0.0000    0.0000    0.0000   -0.0000
    37
stable frequency at   1421.357 1/cm IR int. is 4.996 a.m.u.; force const. is 5.946 mDyne/Ang.
N         0.1100    2.0652    0.0000    0.0266   -0.0023   -0.0000
N        -2.0647    0.1100    0.0000   -0.0011    0.0031   -0.0000
N         2.0647   -0.1099    0.0000   -0.0012    0.0033    0.0000
N        -0.1099   -2.0653    0.0000    0.0265   -0.0023    0.0000
C        -0.9521    2.9419    0.0000   -0.0649   -0.0369    0.0000
C        -2.8236    1.2591   -0.0000    0.0245    0.0296   -0.0000
C         1.2590    2.8241    0.0000   -0.0674    0.0527   -0.0000
C        -2.9413   -0.9521   -0.0000    0.0324   -0.0483   -0.0000
C        -2.3047    2.5641   -0.0000    0.0158   -0.0095    0.0000
C        -0.4569    4.3015   -0.0000    0.0441    0.0482   -0.0000
C        -4.2281    0.9114   -0.0000    0.0021    0.0721    0.0000
C         0.9115    4.2288   -0.0000    0.0185   -0.0539   -0.0000
C        -4.3008   -0.4569   -0.0000   -0.0202   -0.0622   -0.0000
C         2.5639    2.3048   -0.0000    0.0193    0.0104   -0.0000
C        -2.5638   -2.3048   -0.0000    0.0194    0.0105   -0.0000
C         2.9414    0.9520   -0.0000    0.0324   -0.0480   -0.0000
C        -1.2591   -2.8242   -0.0000   -0.0677    0.0528    0.0000
C         2.8236   -1.2591   -0.0000    0.0244    0.0289   -0.0000
C         0.9520   -2.9419    0.0000   -0.0642   -0.0367    0.0000
C         2.3046   -2.5640   -0.0000    0.0156   -0.0093    0.0000
C         4.3008    0.4568   -0.0000   -0.0203   -0.0615   -0.0000
C        -0.9115   -4.2288   -0.0000    0.0180   -0.0538    0.0000
C         4.2281   -0.9115   -0.0000    0.0022    0.0716   -0.0000
C         0.4569   -4.3014   -0.0000    0.0444    0.0480   -0.0000
H        -3.0344    3.3753   -0.0000    0.0192   -0.0115   -0.0000
H        -1.0767    5.1949   -0.0000   -0.1435   -0.0772    0.0000
H        -5.0505    1.6227   -0.0000   -0.0920   -0.0195    0.0000
H         1.6229    5.0511   -0.0000   -0.1340    0.0689   -0.0000
H        -5.1940   -1.0770   -0.0000   -0.0677   -0.0150    0.0000
H         3.3756    3.0341   -0.0000    0.0212    0.0151    0.0000
H        -3.3754   -3.0341   -0.0000    0.0213    0.0153    0.0000
H         3.0341   -3.3754   -0.0000    0.0191   -0.0110   -0.0000
H         5.1941    1.0769   -0.0000   -0.0671   -0.0152    0.0000
H        -1.6227   -5.0513   -0.0000   -0.1338    0.0684   -0.0000
H         5.0504   -1.6228   -0.0000   -0.0918   -0.0199    0.0000
H         1.0767   -5.1949   -0.0000   -0.1430   -0.0774    0.0000
Mg       -0.0001    0.0000    0.0000   -0.0007   -0.0000   -0.0000
    37
stable frequency at   1421.419 1/cm IR int. is 4.997 a.m.u.; force const. is 5.949 mDyne/Ang.
N         0.1100    2.0652    0.0000   -0.0032   -0.0018   -0.0000
N        -2.0647    0.1100    0.0000    0.0028    0.0265    0.0000
N         2.0647   -0.1099    0.0000    0.0017    0.0265    0.0000
N        -0.1099   -2.0653    0.0000   -0.0032   -0.0005   -0.0000
C        -0.9521    2.9419    0.0000    0.0465    0.0325   -0.0000
C        -2.8236    1.2591   -0.0000   -0.0525   -0.0659   -0.0000
C         1.2590    2.8241    0.0000   -0.0275    0.0244    0.0000
C        -2.9413   -0.9521   -0.0000    0.0369   -0.0661    0.0000
C        -2.3047    2.5641   -0.0000   -0.0100    0.0186   -0.0000
C        -0.4569    4.3015   -0.0000    0.0602   -0.0200   -0.0000
C        -4.2281    0.9114   -0.0000    0.0539    0.0199   -0.0000
C         0.9115    4.2288   -0.0000   -0.0702    0.0021    0.0000
C        -4.3008   -0.4569   -0.0000   -0.0483    0.0426    0.0000
C         2.5639    2.3048   -0.0000    0.0088    0.0151    0.0000
C        -2.5638   -2.3048   -0.0000    0.0101    0.0162   -0.0000
C         2.9414    0.9520   -0.0000    0.0369   -0.0628   -0.0000
C        -1.2591   -2.8242   -0.0000   -0.0310    0.0245    0.0000
C         2.8236   -1.2591   -0.0000   -0.0529   -0.0691    0.0000
C         0.9520   -2.9419    0.0000    0.0499    0.0323    0.0000
C         2.3046   -2.5640   -0.0000   -0.0111    0.0199    0.0000
C         4.3008    0.4568   -0.0000   -0.0481    0.0460   -0.0000
C        -0.9115   -4.2288   -0.0000   -0.0735    0.0023    0.0000
C         4.2281   -0.9115   -0.0000    0.0538    0.0165   -0.0000
C         0.4569   -4.3014   -0.0000    0.0635   -0.0203    0.0000
H        -3.0344    3.3753   -0.0000   -0.0142    0.0208    0.0000
H        -1.0767    5.1949   -0.0000    0.0146   -0.0661    0.0000
H        -5.0505    1.6227   -0.0000   -0.0701   -0.1336    0.0000
H         1.6229    5.0511   -0.0000    0.0200   -0.0905   -0.0000
H        -5.1940   -1.0770   -0.0000    0.0759   -0.1435   -0.0000
H         3.3756    3.0341   -0.0000    0.0104    0.0185   -0.0000
H        -3.3754   -3.0341   -0.0000    0.0121    0.0196    0.0000
H         3.0341   -3.3754   -0.0000   -0.0158    0.0220   -0.0000
H         5.1941    1.0769   -0.0000    0.0787   -0.1429   -0.0000
H        -1.6227   -5.0513   -0.0000    0.0193   -0.0933   -0.0000
H         5.0504   -1.6228   -0.0000   -0.0670   -0.1342   -0.0000
H         1.0767   -5.1949   -0.0000    0.0155   -0.0687   -0.0000
Mg       -0.0001    0.0000    0.0000    0.0000   -0.0007    0.0000
    37
stable frequency at   1448.768 1/cm IR int. is 5.471 a.m.u.; force const. is 6.765 mDyne/Ang.
N         0.1100    2.0652    0.0000   -0.0367    0.0023   -0.0000
N        -2.0647    0.1100    0.0000    0.0023    0.0367    0.0000
N         2.0647   -0.1099    0.0000   -0.0023   -0.0367    0.0000
N        -0.1099   -2.0653    0.0000    0.0368   -0.0024   -0.0000
C        -0.9521    2.9419    0.0000    0.0743    0.0260    0.0000
C        -2.8236    1.2591   -0.0000   -0.0343   -0.0687   -0.0000
C         1.2590    2.8241    0.0000    0.0685   -0.0343   -0.0000
C        -2.9413   -0.9521   -0.0000    0.0261   -0.0744   -0.0000
C        -2.3047    2.5641   -0.0000   -0.0190    0.0211    0.0000
C        -0.4569    4.3015   -0.0000   -0.0311   -0.0349   -0.0000
C        -4.2281    0.9114   -0.0000    0.0373    0.0210    0.0000
C         0.9115    4.2288   -0.0000   -0.0209    0.0372    0.0000
C        -4.3008   -0.4569   -0.0000   -0.0350    0.0312    0.0000
C         2.5639    2.3048   -0.0000   -0.0211   -0.0189    0.0000
C        -2.5638   -2.3048   -0.0000    0.0211    0.0189    0.0000
C         2.9414    0.9520   -0.0000   -0.0259    0.0743   -0.0000
C        -1.2591   -2.8242   -0.0000   -0.0687    0.0346   -0.0000
C         2.8236   -1.2591   -0.0000    0.0345    0.0686   -0.0000
C         0.9520   -2.9419    0.0000   -0.0746   -0.0259   -0.0000
C         2.3046   -2.5640   -0.0000    0.0191   -0.0211   -0.0000
C         4.3008    0.4568   -0.0000    0.0350   -0.0314    0.0000
C        -0.9115   -4.2288   -0.0000    0.0211   -0.0373    0.0000
C         4.2281   -0.9115   -0.0000   -0.0373   -0.0207    0.0000
C         0.4569   -4.3014   -0.0000    0.0311    0.0350    0.0000
H        -3.0344    3.3753   -0.0000   -0.0230    0.0229   -0.0000
H        -1.0767    5.1949   -0.0000    0.1044    0.0540   -0.0000
H        -5.0505    1.6227   -0.0000   -0.0576   -0.0960    0.0000
H         1.6229    5.0511   -0.0000    0.0956   -0.0573   -0.0000
H        -5.1940   -1.0770   -0.0000    0.0541   -0.1046   -0.0000
H         3.3756    3.0341   -0.0000   -0.0227   -0.0231   -0.0000
H        -3.3754   -3.0341   -0.0000    0.0227    0.0232    0.0000
H         3.0341   -3.3754   -0.0000    0.0233   -0.0227    0.0000
H         5.1941    1.0769   -0.0000   -0.0544    0.1046   -0.0000
H        -1.6227   -5.0513   -0.0000   -0.0960    0.0576    0.0000
H         5.0504   -1.6228   -0.0000    0.0571    0.0958    0.0000
H         1.0767   -5.1949   -0.0000   -0.1047   -0.0542   -0.0000
Mg       -0.0001    0.0000    0.0000   -0.0000    0.0000    0.0000
    37
stable frequency at   1484.958 1/cm IR int. is 4.979 a.m.u.; force const. is 6.469 mDyne/Ang.
N         0.1100    2.0652    0.0000   -0.0016   -0.0091   -0.0000
N        -2.0647    0.1100    0.0000   -0.0090    0.0015    0.0000
N         2.0647   -0.1099    0.0000    0.0090   -0.0016    0.0000
N        -0.1099   -2.0653    0.0000    0.0015    0.0090   -0.0000
C        -0.9521    2.9419    0.0000   -0.0291    0.0141   -0.0000
C        -2.8236    1.2591   -0.0000    0.0087   -0.0342    0.0000
C         1.2590    2.8241    0.0000    0.0348    0.0087    0.0000
C        -2.9413   -0.9521   -0.0000    0.0140    0.0288   -0.0000
C        -2.3047    2.5641   -0.0000   -0.0020   -0.0007   -0.0000
C        -0.4569    4.3015   -0.0000    0.0876    0.0006   -0.0000
C        -4.2281    0.9114   -0.0000    0.0131    0.0889   -0.0000
C         0.9115    4.2288   -0.0000   -0.0893    0.0132   -0.0000
C        -4.3008   -0.4569   -0.0000    0.0007   -0.0873    0.0000
C         2.5639    2.3048   -0.0000    0.0005   -0.0021    0.0000
C        -2.5638   -2.3048   -0.0000   -0.0007    0.0020    0.0000
C         2.9414    0.9520   -0.0000   -0.0141   -0.0287   -0.0000
C        -1.2591   -2.8242   -0.0000   -0.0343   -0.0087    0.0000
C         2.8236   -1.2591   -0.0000   -0.0086    0.0346    0.0000
C         0.9520   -2.9419    0.0000    0.0286   -0.0141   -0.0000
C         2.3046   -2.5640   -0.0000    0.0021    0.0006    0.0000
C         4.3008    0.4568   -0.0000   -0.0006    0.0874   -0.0000
C        -0.9115   -4.2288   -0.0000    0.0888   -0.0131    0.0000
C         4.2281   -0.9115   -0.0000   -0.0132   -0.0891    0.0000
C         0.4569   -4.3014   -0.0000   -0.0871   -0.0006   -0.0000
H        -3.0344    3.3753   -0.0000    0.0518    0.0478   -0.0000
H        -1.0767    5.1949   -0.0000   -0.0429   -0.1026    0.0000
H        -5.0505    1.6227   -0.0000   -0.1143   -0.0415    0.0000
H         1.6229    5.0511   -0.0000    0.0419   -0.1149   -0.0000
H        -5.1940   -1.0770   -0.0000   -0.1023    0.0427    0.0000
H         3.3756    3.0341   -0.0000   -0.0480    0.0516    0.0000
H        -3.3754   -3.0341   -0.0000    0.0477   -0.0516   -0.0000
H         3.0341   -3.3754   -0.0000   -0.0516   -0.0479   -0.0000
H         5.1941    1.0769   -0.0000    0.1024   -0.0426    0.0000
H        -1.6227   -5.0513   -0.0000   -0.0415    0.1142   -0.0000
H         5.0504   -1.6228   -0.0000    0.1147    0.0418   -0.0000
H         1.0767   -5.1949   -0.0000    0.0424    0.1020   -0.0000
Mg       -0.0001    0.0000    0.0000    0.0000   -0.0000    0.0000
    37
stable frequency at   1507.017 1/cm IR int. is 6.303 a.m.u.; force const. is 8.435 mDyne/Ang.
N         0.1100    2.0652    0.0000    0.0086    0.0126    0.0000
N        -2.0647    0.1100    0.0000    0.0053    0.0215   -0.0000
N         2.0647   -0.1099    0.0000    0.0055    0.0215   -0.0000
N        -0.1099   -2.0653    0.0000    0.0086    0.0126   -0.0000
C        -0.9521    2.9419    0.0000    0.0681   -0.0026    0.0000
C        -2.8236    1.2591   -0.0000    0.0033   -0.0045    0.0000
C         1.2590    2.8241    0.0000   -0.0911    0.0034   -0.0000
C        -2.9413   -0.9521   -0.0000   -0.0052   -0.0603    0.0000
C        -2.3047    2.5641   -0.0000   -0.0272   -0.0010    0.0000
C        -0.4569    4.3015   -0.0000   -0.0873   -0.0065    0.0000
C        -4.2281    0.9114   -0.0000   -0.0013   -0.0219    0.0000
C         0.9115    4.2288   -0.0000    0.0922   -0.0205   -0.0000
C        -4.3008   -0.4569   -0.0000   -0.0073    0.0371   -0.0000
C         2.5639    2.3048   -0.0000    0.0324    0.0181   -0.0000
C        -2.5638   -2.3048   -0.0000    0.0323    0.0180   -0.0000
C         2.9414    0.9520   -0.0000   -0.0053   -0.0607    0.0000
C        -1.2591   -2.8242   -0.0000   -0.0909    0.0034    0.0000
C         2.8236   -1.2591   -0.0000    0.0032   -0.0040    0.0000
C         0.9520   -2.9419    0.0000    0.0679   -0.0027   -0.0000
C         2.3046   -2.5640   -0.0000   -0.0270   -0.0011    0.0000
C         4.3008    0.4568   -0.0000   -0.0074    0.0379    0.0000
C        -0.9115   -4.2288   -0.0000    0.0924   -0.0206    0.0000
C         4.2281   -0.9115   -0.0000   -0.0014   -0.0227   -0.0000
C         0.4569   -4.3014   -0.0000   -0.0875   -0.0064   -0.0000
H        -3.0344    3.3753   -0.0000   -0.0153    0.0121    0.0000
H        -1.0767    5.1949   -0.0000    0.0569    0.1044    0.0000
H        -5.0505    1.6227   -0.0000    0.0238    0.0009    0.0000
H         1.6229    5.0511   -0.0000   -0.0644    0.1269    0.0000
H        -5.1940   -1.0770   -0.0000    0.0496   -0.0419   -0.0000
H         3.3756    3.0341   -0.0000    0.0336    0.0221    0.0000
H        -3.3754   -3.0341   -0.0000    0.0336    0.0218   -0.0000
H         3.0341   -3.3754   -0.0000   -0.0155    0.0116    0.0000
H         5.1941    1.0769   -0.0000    0.0506   -0.0424    0.0000
H        -1.6227   -5.0513   -0.0000   -0.0643    0.1270    0.0000
H         5.0504   -1.6228   -0.0000    0.0248    0.0013    0.0000
H         1.0767   -5.1949   -0.0000    0.0568    0.1045   -0.0000
Mg       -0.0001    0.0000    0.0000    0.0001    0.0003   -0.0000
    37
stable frequency at   1507.051 1/cm IR int. is 6.306 a.m.u.; force const. is 8.439 mDyne/Ang.
N         0.1100    2.0652    0.0000   -0.0215    0.0054    0.0000
N        -2.0647    0.1100    0.0000   -0.0126    0.0086   -0.0000
N         2.0647   -0.1099    0.0000   -0.0125    0.0086    0.0000
N        -0.1099   -2.0653    0.0000   -0.0216    0.0055    0.0000
C        -0.9521    2.9419    0.0000    0.0604   -0.0053   -0.0000
C        -2.8236    1.2591   -0.0000   -0.0035   -0.0911   -0.0000
C         1.2590    2.8241    0.0000    0.0041    0.0034   -0.0000
C        -2.9413   -0.9521   -0.0000    0.0027    0.0681   -0.0000
C        -2.3047    2.5641   -0.0000   -0.0179    0.0325    0.0000
C        -0.4569    4.3015   -0.0000   -0.0373   -0.0073    0.0000
C        -4.2281    0.9114   -0.0000    0.0206    0.0925    0.0000
C         0.9115    4.2288   -0.0000    0.0223   -0.0014   -0.0000
C        -4.3008   -0.4569   -0.0000    0.0065   -0.0876    0.0000
C         2.5639    2.3048   -0.0000    0.0012   -0.0272    0.0000
C        -2.5638   -2.3048   -0.0000    0.0010   -0.0271   -0.0000
C         2.9414    0.9520   -0.0000    0.0026    0.0679   -0.0000
C        -1.2591   -2.8242   -0.0000    0.0043    0.0032    0.0000
C         2.8236   -1.2591   -0.0000   -0.0035   -0.0909    0.0000
C         0.9520   -2.9419    0.0000    0.0606   -0.0054   -0.0000
C         2.3046   -2.5640   -0.0000   -0.0180    0.0324    0.0000
C         4.3008    0.4568   -0.0000    0.0065   -0.0872    0.0000
C        -0.9115   -4.2288   -0.0000    0.0224   -0.0014   -0.0000
C         4.2281   -0.9115   -0.0000    0.0206    0.0921    0.0000
C         0.4569   -4.3014   -0.0000   -0.0375   -0.0073   -0.0000
H        -3.0344    3.3753   -0.0000   -0.0222    0.0335   -0.0000
H        -1.0767    5.1949   -0.0000    0.0420    0.0499   -0.0000
H        -5.0505    1.6227   -0.0000   -0.1272   -0.0644    0.0000
H         1.6229    5.0511   -0.0000   -0.0012    0.0242   -0.0000
H        -5.1940   -1.0770   -0.0000   -0.1047    0.0569   -0.0000
H         3.3756    3.0341   -0.0000   -0.0121   -0.0150   -0.0000
H        -3.3754   -3.0341   -0.0000   -0.0118   -0.0155   -0.0000
H         3.0341   -3.3754   -0.0000   -0.0223    0.0333   -0.0000
H         5.1941    1.0769   -0.0000   -0.1042    0.0567    0.0000
H        -1.6227   -5.0513   -0.0000   -0.0012    0.0244    0.0000
H         5.0504   -1.6228   -0.0000   -0.1266   -0.0642    0.0000
H         1.0767   -5.1949   -0.0000    0.0422    0.0502    0.0000
Mg       -0.0001    0.0000    0.0000   -0.0003    0.0001   -0.0000
    37
stable frequency at   1531.409 1/cm IR int. is 6.405 a.m.u.; force const. is 8.851 mDyne/Ang.
N         0.1100    2.0652    0.0000    0.0006    0.0138    0.0000
N        -2.0647    0.1100    0.0000   -0.0138    0.0006   -0.0000
N         2.0647   -0.1099    0.0000    0.0137   -0.0007    0.0000
N        -0.1099   -2.0653    0.0000   -0.0005   -0.0138   -0.0000
C        -0.9521    2.9419    0.0000    0.0661   -0.0020    0.0000
C        -2.8236    1.2591   -0.0000   -0.0003   -0.0616   -0.0000
C         1.2590    2.8241    0.0000   -0.0612    0.0000   -0.0000
C        -2.9413   -0.9521   -0.0000    0.0021    0.0665    0.0000
C        -2.3047    2.5641   -0.0000   -0.0242    0.0190   -0.0000
C        -0.4569    4.3015   -0.0000   -0.0695   -0.0085    0.0000
C        -4.2281    0.9114   -0.0000    0.0148    0.0680    0.0000
C         0.9115    4.2288   -0.0000    0.0677   -0.0147    0.0000
C        -4.3008   -0.4569   -0.0000    0.0085   -0.0697    0.0000
C         2.5639    2.3048   -0.0000    0.0186    0.0246   -0.0000
C        -2.5638   -2.3048   -0.0000   -0.0192   -0.0242    0.0000
C         2.9414    0.9520   -0.0000   -0.0018   -0.0666   -0.0000
C        -1.2591   -2.8242   -0.0000    0.0619   -0.0003   -0.0000
C         2.8236   -1.2591   -0.0000    0.0001    0.0616    0.0000
C         0.9520   -2.9419    0.0000   -0.0669    0.0019    0.0000
C         2.3046   -2.5640   -0.0000    0.0247   -0.0188    0.0000
C         4.3008    0.4568   -0.0000   -0.0086    0.0696   -0.0000
C        -0.9115   -4.2288   -0.0000   -0.0680    0.0148   -0.0000
C         4.2281   -0.9115   -0.0000   -0.0147   -0.0679    0.0000
C         0.4569   -4.3014   -0.0000    0.0697    0.0085    0.0000
H        -3.0344    3.3753   -0.0000   -0.0158    0.0300   -0.0000
H        -1.0767    5.1949   -0.0000    0.0490    0.0813    0.0000
H        -5.0505    1.6227   -0.0000   -0.0895   -0.0414    0.0000
H         1.6229    5.0511   -0.0000   -0.0411    0.0891   -0.0000
H        -5.1940   -1.0770   -0.0000   -0.0816    0.0491   -0.0000
H         3.3756    3.0341   -0.0000    0.0306    0.0150   -0.0000
H        -3.3754   -3.0341   -0.0000   -0.0300   -0.0160    0.0000
H         3.0341   -3.3754   -0.0000    0.0155   -0.0305   -0.0000
H         5.1941    1.0769   -0.0000    0.0815   -0.0492   -0.0000
H        -1.6227   -5.0513   -0.0000    0.0415   -0.0895   -0.0000
H         5.0504   -1.6228   -0.0000    0.0893    0.0413    0.0000
H         1.0767   -5.1949   -0.0000   -0.0493   -0.0816    0.0000
Mg       -0.0001    0.0000    0.0000    0.0000   -0.0000    0.0000
    37
stable frequency at   1538.271 1/cm IR int. is 5.792 a.m.u.; force const. is 8.075 mDyne/Ang.
N         0.1100    2.0652    0.0000    0.0033    0.0020   -0.0000
N        -2.0647    0.1100    0.0000   -0.0075   -0.0010   -0.0000
N         2.0647   -0.1099    0.0000   -0.0076   -0.0008   -0.0000
N        -0.1099   -2.0653    0.0000    0.0034    0.0021   -0.0000
C        -0.9521    2.9419    0.0000    0.0206    0.0340    0.0000
C        -2.8236    1.2591   -0.0000    0.0174    0.0424   -0.0000
C         1.2590    2.8241    0.0000    0.0512   -0.0554   -0.0000
C        -2.9413   -0.9521   -0.0000    0.0373   -0.0650   -0.0000
C        -2.3047    2.5641   -0.0000   -0.0427   -0.0458    0.0000
C        -0.4569    4.3015   -0.0000   -0.0233   -0.0166    0.0000
C        -4.2281    0.9114   -0.0000    0.0076    0.0482    0.0000
C         0.9115    4.2288   -0.0000    0.0039    0.0185    0.0000
C        -4.3008   -0.4569   -0.0000   -0.0085   -0.0424    0.0000
C         2.5639    2.3048   -0.0000   -0.0769    0.0892    0.0000
C        -2.5638   -2.3048   -0.0000   -0.0745    0.0867   -0.0000
C         2.9414    0.9520   -0.0000    0.0387   -0.0666    0.0000
C        -1.2591   -2.8242   -0.0000    0.0491   -0.0538    0.0000
C         2.8236   -1.2591   -0.0000    0.0159    0.0407    0.0000
C         0.9520   -2.9419    0.0000    0.0193    0.0327   -0.0000
C         2.3046   -2.5640   -0.0000   -0.0406   -0.0437    0.0000
C         4.3008    0.4568   -0.0000   -0.0090   -0.0423    0.0000
C        -0.9115   -4.2288   -0.0000    0.0046    0.0178    0.0000
C         4.2281   -0.9115   -0.0000    0.0083    0.0489   -0.0000
C         0.4569   -4.3014   -0.0000   -0.0232   -0.0161    0.0000
H        -3.0344    3.3753   -0.0000    0.0775    0.0606    0.0000
H        -1.0767    5.1949   -0.0000    0.0280    0.0188    0.0000
H        -5.0505    1.6227   -0.0000   -0.0443    0.0012   -0.0000
H         1.6229    5.0511   -0.0000    0.0353   -0.0017   -0.0000
H        -5.1940   -1.0770   -0.0000   -0.0372   -0.0175   -0.0000
H         3.3756    3.0341   -0.0000    0.1270   -0.1356   -0.0000
H        -3.3754   -3.0341   -0.0000    0.1235   -0.1315   -0.0000
H         3.0341   -3.3754   -0.0000    0.0740    0.0576   -0.0000
H         5.1941    1.0769   -0.0000   -0.0372   -0.0184   -0.0000
H        -1.6227   -5.0513   -0.0000    0.0339   -0.0007    0.0000
H         5.0504   -1.6228   -0.0000   -0.0453   -0.0001   -0.0000
H         1.0767   -5.1949   -0.0000    0.0271    0.0188   -0.0000
Mg       -0.0001    0.0000    0.0000    0.0021   -0.0008    0.0000
    37
stable frequency at   1538.309 1/cm IR int. is 5.795 a.m.u.; force const. is 8.080 mDyne/Ang.
N         0.1100    2.0652    0.0000   -0.0009    0.0075   -0.0000
N        -2.0647    0.1100    0.0000    0.0021   -0.0034   -0.0000
N         2.0647   -0.1099    0.0000    0.0020   -0.0033    0.0000
N        -0.1099   -2.0653    0.0000   -0.0009    0.0076    0.0000
C        -0.9521    2.9419    0.0000   -0.0661   -0.0380    0.0000
C        -2.8236    1.2591   -0.0000   -0.0546   -0.0500   -0.0000
C         1.2590    2.8241    0.0000    0.0419   -0.0168    0.0000
C        -2.9413   -0.9521   -0.0000    0.0332   -0.0200    0.0000
C        -2.3047    2.5641   -0.0000    0.0881    0.0757    0.0000
C        -0.4569    4.3015   -0.0000   -0.0420    0.0088   -0.0000
C        -4.2281    0.9114   -0.0000    0.0181   -0.0045   -0.0000
C         0.9115    4.2288   -0.0000    0.0482   -0.0078    0.0000
C        -4.3008   -0.4569   -0.0000   -0.0164    0.0235    0.0000
C         2.5639    2.3048   -0.0000   -0.0450    0.0418   -0.0000
C        -2.5638   -2.3048   -0.0000   -0.0445    0.0415    0.0000
C         2.9414    0.9520   -0.0000    0.0335   -0.0200   -0.0000
C        -1.2591   -2.8242   -0.0000    0.0413   -0.0165   -0.0000
C         2.8236   -1.2591   -0.0000   -0.0547   -0.0503   -0.0000
C         0.9520   -2.9419    0.0000   -0.0657   -0.0380   -0.0000
C         2.3046   -2.5640   -0.0000    0.0879    0.0758    0.0000
C         4.3008    0.4568   -0.0000   -0.0164    0.0231    0.0000
C        -0.9115   -4.2288   -0.0000    0.0486   -0.0080    0.0000
C         4.2281   -0.9115   -0.0000    0.0182   -0.0040   -0.0000
C         0.4569   -4.3014   -0.0000   -0.0424    0.0087   -0.0000
H        -3.0344    3.3753   -0.0000   -0.1334   -0.1254    0.0000
H        -1.0767    5.1949   -0.0000   -0.0181    0.0368    0.0000
H        -5.0505    1.6227   -0.0000   -0.0009   -0.0345   -0.0000
H         1.6229    5.0511   -0.0000    0.0008    0.0443   -0.0000
H        -5.1940   -1.0770   -0.0000    0.0190   -0.0276   -0.0000
H         3.3756    3.0341   -0.0000    0.0593   -0.0762   -0.0000
H        -3.3754   -3.0341   -0.0000    0.0588   -0.0754   -0.0000
H         3.0341   -3.3754   -0.0000   -0.1335   -0.1252   -0.0000
H         5.1941    1.0769   -0.0000    0.0186   -0.0276   -0.0000
H        -1.6227   -5.0513   -0.0000    0.0004    0.0449   -0.0000
H         5.0504   -1.6228   -0.0000   -0.0014   -0.0348   -0.0000
H         1.0767   -5.1949   -0.0000   -0.0179    0.0372   -0.0000
Mg       -0.0001    0.0000    0.0000   -0.0008   -0.0021    0.0000
    37
stable frequency at   1543.953 1/cm IR int. is 5.851 a.m.u.; force const. is 8.218 mDyne/Ang.
N         0.1100    2.0652    0.0000    0.0044    0.0004    0.0000
N        -2.0647    0.1100    0.0000   -0.0005    0.0043   -0.0000
N         2.0647   -0.1099    0.0000    0.0003   -0.0044   -0.0000
N        -0.1099   -2.0653    0.0000   -0.0042   -0.0003    0.0000
C        -0.9521    2.9419    0.0000   -0.0478   -0.0392   -0.0000
C        -2.8236    1.2591   -0.0000   -0.0450   -0.0494    0.0000
C         1.2590    2.8241    0.0000   -0.0492    0.0442   -0.0000
C        -2.9413   -0.9521   -0.0000    0.0405   -0.0492    0.0000
C        -2.3047    2.5641   -0.0000    0.0707    0.0653    0.0000
C        -0.4569    4.3015   -0.0000    0.0078    0.0164    0.0000
C        -4.2281    0.9114   -0.0000    0.0194    0.0146    0.0000
C         0.9115    4.2288   -0.0000    0.0140   -0.0190    0.0000
C        -4.3008   -0.4569   -0.0000   -0.0169    0.0077    0.0000
C         2.5639    2.3048   -0.0000    0.0646   -0.0697    0.0000
C        -2.5638   -2.3048   -0.0000   -0.0674    0.0729   -0.0000
C         2.9414    0.9520   -0.0000   -0.0391    0.0468    0.0000
C        -1.2591   -2.8242   -0.0000    0.0510   -0.0461    0.0000
C         2.8236   -1.2591   -0.0000    0.0454    0.0508    0.0000
C         0.9520   -2.9419    0.0000    0.0481    0.0402    0.0000
C         2.3046   -2.5640   -0.0000   -0.0718   -0.0666    0.0000
C         4.3008    0.4568   -0.0000    0.0166   -0.0089   -0.0000
C        -0.9115   -4.2288   -0.0000   -0.0137    0.0195    0.0000
C         4.2281   -0.9115   -0.0000   -0.0191   -0.0132    0.0000
C         0.4569   -4.3014   -0.0000   -0.0087   -0.0169    0.0000
H        -3.0344    3.3753   -0.0000   -0.1080   -0.0960   -0.0000
H        -1.0767    5.1949   -0.0000   -0.0305   -0.0064   -0.0000
H        -5.0505    1.6227   -0.0000   -0.0211   -0.0352   -0.0000
H         1.6229    5.0511   -0.0000   -0.0345    0.0205    0.0000
H        -5.1940   -1.0770   -0.0000    0.0062   -0.0313   -0.0000
H         3.3756    3.0341   -0.0000   -0.0945    0.1069    0.0000
H        -3.3754   -3.0341   -0.0000    0.0989   -0.1115   -0.0000
H         3.0341   -3.3754   -0.0000    0.1101    0.0974   -0.0000
H         5.1941    1.0769   -0.0000   -0.0073    0.0306    0.0000
H        -1.6227   -5.0513   -0.0000    0.0357   -0.0204   -0.0000
H         5.0504   -1.6228   -0.0000    0.0198    0.0352   -0.0000
H         1.0767   -5.1949   -0.0000    0.0313    0.0071   -0.0000
Mg       -0.0001    0.0000    0.0000    0.0000   -0.0000   -0.0000
    37
stable frequency at   1589.422 1/cm IR int. is 7.405 a.m.u.; force const. is 11.021 mDyne/Ang.
N         0.1100    2.0652    0.0000   -0.0002   -0.0067   -0.0000
N        -2.0647    0.1100    0.0000   -0.0067    0.0002   -0.0000
N         2.0647   -0.1099    0.0000    0.0067   -0.0003    0.0000
N        -0.1099   -2.0653    0.0000    0.0003    0.0067   -0.0000
C        -0.9521    2.9419    0.0000    0.0636    0.0278    0.0000
C        -2.8236    1.2591   -0.0000    0.0345    0.0608    0.0000
C         1.2590    2.8241    0.0000   -0.0606    0.0344   -0.0000
C        -2.9413   -0.9521   -0.0000    0.0279   -0.0638    0.0000
C        -2.3047    2.5641   -0.0000   -0.0722   -0.0649    0.0000
C        -0.4569    4.3015   -0.0000    0.0129   -0.0067   -0.0000
C        -4.2281    0.9114   -0.0000   -0.0052    0.0136   -0.0000
C         0.9115    4.2288   -0.0000   -0.0135   -0.0052   -0.0000
C        -4.3008   -0.4569   -0.0000   -0.0067   -0.0130   -0.0000
C         2.5639    2.3048   -0.0000    0.0647   -0.0720    0.0000
C        -2.5638   -2.3048   -0.0000   -0.0651    0.0724    0.0000
C         2.9414    0.9520   -0.0000   -0.0277    0.0635    0.0000
C        -1.2591   -2.8242   -0.0000    0.0609   -0.0346    0.0000
C         2.8236   -1.2591   -0.0000   -0.0346   -0.0608   -0.0000
C         0.9520   -2.9419    0.0000   -0.0638   -0.0278    0.0000
C         2.3046   -2.5640   -0.0000    0.0723    0.0650   -0.0000
C         4.3008    0.4568   -0.0000    0.0067    0.0130   -0.0000
C        -0.9115   -4.2288   -0.0000    0.0136    0.0052    0.0000
C         4.2281   -0.9115   -0.0000    0.0052   -0.0136   -0.0000
C         0.4569   -4.3014   -0.0000   -0.0130    0.0067   -0.0000
H        -3.0344    3.3753   -0.0000    0.0853    0.0773   -0.0000
H        -1.0767    5.1949   -0.0000    0.0184   -0.0095   -0.0000
H        -5.0505    1.6227   -0.0000   -0.0079    0.0190    0.0000
H         1.6229    5.0511   -0.0000   -0.0190   -0.0078   -0.0000
H        -5.1940   -1.0770   -0.0000   -0.0095   -0.0185    0.0000
H         3.3756    3.0341   -0.0000   -0.0771    0.0852    0.0000
H        -3.3754   -3.0341   -0.0000    0.0775   -0.0857    0.0000
H         3.0341   -3.3754   -0.0000   -0.0855   -0.0775   -0.0000
H         5.1941    1.0769   -0.0000    0.0095    0.0183   -0.0000
H        -1.6227   -5.0513   -0.0000    0.0191    0.0079    0.0000
H         5.0504   -1.6228   -0.0000    0.0079   -0.0191    0.0000
H         1.0767   -5.1949   -0.0000   -0.0184    0.0095    0.0000
Mg       -0.0001    0.0000    0.0000    0.0000   -0.0000   -0.0000
    37
stable frequency at   3124.545 1/cm IR int. is 1.088 a.m.u.; force const. is 6.257 mDyne/Ang.
N         0.1100    2.0652    0.0000    0.0007   -0.0002   -0.0000
N        -2.0647    0.1100    0.0000    0.0003   -0.0004   -0.0000
N         2.0647   -0.1099    0.0000    0.0002   -0.0000   -0.0000
N        -0.1099   -2.0653    0.0000    0.0003   -0.0001    0.0000
C        -0.9521    2.9419    0.0000    0.0017    0.0017    0.0000
C        -2.8236    1.2591   -0.0000   -0.0019   -0.0016   -0.0000
C         1.2590    2.8241    0.0000    0.0004   -0.0006   -0.0000
C        -2.9413   -0.9521   -0.0000   -0.0004    0.0005    0.0000
C        -2.3047    2.5641   -0.0000   -0.0472    0.0523   -0.0000
C        -0.4569    4.3015   -0.0000    0.0007   -0.0011    0.0000
C        -4.2281    0.9114   -0.0000    0.0011   -0.0010   -0.0000
C         0.9115    4.2288   -0.0000    0.0008    0.0010   -0.0000
C        -4.3008   -0.4569   -0.0000    0.0001    0.0001    0.0000
C         2.5639    2.3048   -0.0000   -0.0195   -0.0180   -0.0000
C        -2.5638   -2.3048   -0.0000   -0.0091   -0.0085   -0.0000
C         2.9414    0.9520   -0.0000   -0.0007    0.0008   -0.0000
C        -1.2591   -2.8242   -0.0000    0.0001   -0.0003    0.0000
C         2.8236   -1.2591   -0.0000   -0.0008   -0.0007    0.0000
C         0.9520   -2.9419    0.0000    0.0006    0.0007    0.0000
C         2.3046   -2.5640   -0.0000   -0.0192    0.0214    0.0000
C         4.3008    0.4568   -0.0000    0.0004    0.0003    0.0000
C        -0.9115   -4.2288   -0.0000    0.0005    0.0006   -0.0000
C         4.2281   -0.9115   -0.0000    0.0004   -0.0003    0.0000
C         0.4569   -4.3014   -0.0000    0.0000   -0.0001   -0.0000
H        -3.0344    3.3753   -0.0000    0.5520   -0.6132    0.0000
H        -1.0767    5.1949   -0.0000   -0.0100    0.0116    0.0000
H        -5.0505    1.6227   -0.0000   -0.0105    0.0112   -0.0000
H         1.6229    5.0511   -0.0000   -0.0117   -0.0123    0.0000
H        -5.1940   -1.0770   -0.0000    0.0018    0.0015   -0.0000
H         3.3756    3.0341   -0.0000    0.2309    0.2081   -0.0000
H        -3.3754   -3.0341   -0.0000    0.1085    0.0981    0.0000
H         3.0341   -3.3754   -0.0000    0.2249   -0.2499    0.0000
H         5.1941    1.0769   -0.0000   -0.0028   -0.0024   -0.0000
H        -1.6227   -5.0513   -0.0000   -0.0067   -0.0070   -0.0000
H         5.0504   -1.6228   -0.0000   -0.0032    0.0035   -0.0000
H         1.0767   -5.1949   -0.0000   -0.0019    0.0015    0.0000
Mg       -0.0001    0.0000    0.0000    0.0001   -0.0000   -0.0000
    37
stable frequency at   3124.566 1/cm IR int. is 1.088 a.m.u.; force const. is 6.257 mDyne/Ang.
N         0.1100    2.0652    0.0000   -0.0002   -0.0003    0.0000
N        -2.0647    0.1100    0.0000   -0.0001   -0.0005   -0.0000
N         2.0647   -0.1099    0.0000   -0.0002   -0.0005   -0.0000
N        -0.1099   -2.0653    0.0000   -0.0003   -0.0002    0.0000
C        -0.9521    2.9419    0.0000    0.0008    0.0007    0.0000
C        -2.8236    1.2591   -0.0000   -0.0006   -0.0004   -0.0000
C         1.2590    2.8241    0.0000   -0.0013    0.0016    0.0000
C        -2.9413   -0.9521   -0.0000    0.0012   -0.0012    0.0000
C        -2.3047    2.5641   -0.0000   -0.0175    0.0189    0.0000
C        -0.4569    4.3015   -0.0000    0.0003   -0.0004   -0.0000
C        -4.2281    0.9114   -0.0000    0.0009   -0.0008    0.0000
C         0.9115    4.2288   -0.0000   -0.0008   -0.0009   -0.0000
C        -4.3008   -0.4569   -0.0000   -0.0006   -0.0003    0.0000
C         2.5639    2.3048   -0.0000    0.0434    0.0392    0.0000
C        -2.5638   -2.3048   -0.0000    0.0365    0.0329   -0.0000
C         2.9414    0.9520   -0.0000    0.0014   -0.0014    0.0000
C        -1.2591   -2.8242   -0.0000   -0.0011    0.0013    0.0000
C         2.8236   -1.2591   -0.0000   -0.0003   -0.0001   -0.0000
C         0.9520   -2.9419    0.0000    0.0005    0.0003   -0.0000
C         2.3046   -2.5640   -0.0000   -0.0085    0.0089   -0.0000
C         4.3008    0.4568   -0.0000   -0.0008   -0.0005    0.0000
C        -0.9115   -4.2288   -0.0000   -0.0007   -0.0008   -0.0000
C         4.2281   -0.9115   -0.0000    0.0007   -0.0006    0.0000
C         0.4569   -4.3014   -0.0000    0.0001   -0.0001   -0.0000
H        -3.0344    3.3753   -0.0000    0.2018   -0.2236   -0.0000
H        -1.0767    5.1949   -0.0000   -0.0013    0.0017   -0.0000
H        -5.0505    1.6227   -0.0000   -0.0106    0.0103    0.0000
H         1.6229    5.0511   -0.0000    0.0086    0.0079   -0.0000
H        -5.1940   -1.0770   -0.0000    0.0063    0.0058    0.0000
H         3.3756    3.0341   -0.0000   -0.5090   -0.4578   -0.0000
H        -3.3754   -3.0341   -0.0000   -0.4282   -0.3851    0.0000
H         3.0341   -3.3754   -0.0000    0.0968   -0.1070   -0.0000
H         5.1941    1.0769   -0.0000    0.0080    0.0071    0.0000
H        -1.6227   -5.0513   -0.0000    0.0080    0.0076    0.0000
H         5.0504   -1.6228   -0.0000   -0.0093    0.0087   -0.0000
H         1.0767   -5.1949   -0.0000    0.0009   -0.0011    0.0000
Mg       -0.0001    0.0000    0.0000   -0.0000   -0.0001    0.0000
    37
stable frequency at   3125.050 1/cm IR int. is 1.088 a.m.u.; force const. is 6.260 mDyne/Ang.
N         0.1100    2.0652    0.0000   -0.0004   -0.0001    0.0000
N        -2.0647    0.1100    0.0000    0.0002    0.0005   -0.0000
N         2.0647   -0.1099    0.0000   -0.0001   -0.0006   -0.0000
N        -0.1099   -2.0653    0.0000    0.0007    0.0001    0.0000
C        -0.9521    2.9419    0.0000   -0.0002   -0.0002    0.0000
C        -2.8236    1.2591   -0.0000    0.0002    0.0002    0.0000
C         1.2590    2.8241    0.0000   -0.0010    0.0011   -0.0000
C        -2.9413   -0.9521   -0.0000   -0.0014    0.0015   -0.0000
C        -2.3047    2.5641   -0.0000    0.0056   -0.0062    0.0000
C        -0.4569    4.3015   -0.0000   -0.0002    0.0004    0.0000
C        -4.2281    0.9114   -0.0000   -0.0004    0.0002   -0.0000
C         0.9115    4.2288   -0.0000   -0.0006   -0.0007    0.0000
C        -4.3008   -0.4569   -0.0000    0.0012    0.0009    0.0000
C         2.5639    2.3048   -0.0000    0.0329    0.0297   -0.0000
C        -2.5638   -2.3048   -0.0000   -0.0425   -0.0386   -0.0000
C         2.9414    0.9520   -0.0000    0.0010   -0.0010   -0.0000
C        -1.2591   -2.8242   -0.0000    0.0012   -0.0015   -0.0000
C         2.8236   -1.2591   -0.0000   -0.0009   -0.0008   -0.0000
C         0.9520   -2.9419    0.0000    0.0009    0.0008   -0.0000
C         2.3046   -2.5640   -0.0000   -0.0244    0.0270    0.0000
C         4.3008    0.4568   -0.0000   -0.0011   -0.0007   -0.0000
C        -0.9115   -4.2288   -0.0000    0.0010    0.0011    0.0000
C         4.2281   -0.9115   -0.0000    0.0008   -0.0006    0.0000
C         0.4569   -4.3014   -0.0000    0.0004   -0.0007    0.0000
H        -3.0344    3.3753   -0.0000   -0.0649    0.0722   -0.0000
H        -1.0767    5.1949   -0.0000    0.0040   -0.0051   -0.0000
H        -5.0505    1.6227   -0.0000    0.0055   -0.0051   -0.0000
H         1.6229    5.0511   -0.0000    0.0071    0.0066   -0.0000
H        -5.1940   -1.0770   -0.0000   -0.0129   -0.0104   -0.0000
H         3.3756    3.0341   -0.0000   -0.3855   -0.3466   -0.0000
H        -3.3754   -3.0341   -0.0000    0.4997    0.4495    0.0000
H         3.0341   -3.3754   -0.0000    0.2848   -0.3166    0.0000
H         5.1941    1.0769   -0.0000    0.0123    0.0099    0.0000
H        -1.6227   -5.0513   -0.0000   -0.0128   -0.0125    0.0000
H         5.0504   -1.6228   -0.0000   -0.0091    0.0091    0.0000
H         1.0767   -5.1949   -0.0000   -0.0075    0.0089    0.0000
Mg       -0.0001    0.0000    0.0000    0.0000   -0.0000   -0.0000
    37
stable frequency at   3125.345 1/cm IR int. is 1.088 a.m.u.; force const. is 6.260 mDyne/Ang.
N         0.1100    2.0652    0.0000    0.0000   -0.0003   -0.0000
N        -2.0647    0.1100    0.0000    0.0003   -0.0000    0.0000
N         2.0647   -0.1099    0.0000   -0.0004    0.0003   -0.0000
N        -0.1099   -2.0653    0.0000   -0.0003    0.0004    0.0000
C        -0.9521    2.9419    0.0000    0.0008    0.0007    0.0000
C        -2.8236    1.2591   -0.0000   -0.0008   -0.0007   -0.0000
C         1.2590    2.8241    0.0000   -0.0005    0.0006    0.0000
C        -2.9413   -0.9521   -0.0000   -0.0007    0.0006    0.0000
C        -2.3047    2.5641   -0.0000   -0.0207    0.0229   -0.0000
C        -0.4569    4.3015   -0.0000    0.0007   -0.0009   -0.0000
C        -4.2281    0.9114   -0.0000    0.0003   -0.0004    0.0000
C         0.9115    4.2288   -0.0000   -0.0004   -0.0003   -0.0000
C        -4.3008   -0.4569   -0.0000    0.0006    0.0005   -0.0000
C         2.5639    2.3048   -0.0000    0.0176    0.0160   -0.0000
C        -2.5638   -2.3048   -0.0000   -0.0207   -0.0186   -0.0000
C         2.9414    0.9520   -0.0000    0.0006   -0.0007   -0.0000
C        -1.2591   -2.8242   -0.0000    0.0007   -0.0007   -0.0000
C         2.8236   -1.2591   -0.0000    0.0017    0.0014   -0.0000
C         0.9520   -2.9419    0.0000   -0.0017   -0.0016    0.0000
C         2.3046   -2.5640   -0.0000    0.0443   -0.0489    0.0000
C         4.3008    0.4568   -0.0000   -0.0005   -0.0005    0.0000
C        -0.9115   -4.2288   -0.0000    0.0002    0.0001   -0.0000
C         4.2281   -0.9115   -0.0000   -0.0010    0.0010   -0.0000
C         0.4569   -4.3014   -0.0000   -0.0010    0.0013    0.0000
H        -3.0344    3.3753   -0.0000    0.2421   -0.2689   -0.0000
H        -1.0767    5.1949   -0.0000   -0.0064    0.0083   -0.0000
H        -5.0505    1.6227   -0.0000   -0.0018    0.0026   -0.0000
H         1.6229    5.0511   -0.0000    0.0026    0.0020    0.0000
H        -5.1940   -1.0770   -0.0000   -0.0052   -0.0042   -0.0000
H         3.3756    3.0341   -0.0000   -0.2071   -0.1866    0.0000
H        -3.3754   -3.0341   -0.0000    0.2432    0.2187   -0.0000
H         3.0341   -3.3754   -0.0000   -0.5167    0.5740   -0.0000
H         5.1941    1.0769   -0.0000    0.0034    0.0025   -0.0000
H        -1.6227   -5.0513   -0.0000    0.0005    0.0015   -0.0000
H         5.0504   -1.6228   -0.0000    0.0090   -0.0100   -0.0000
H         1.0767   -5.1949   -0.0000    0.0101   -0.0125   -0.0000
Mg       -0.0001    0.0000    0.0000   -0.0000    0.0000    0.0000
    37
stable frequency at   3165.614 1/cm IR int. is 1.089 a.m.u.; force const. is 6.428 mDyne/Ang.
N         0.1100    2.0652    0.0000   -0.0006    0.0001   -0.0000
N        -2.0647    0.1100    0.0000    0.0000    0.0002    0.0000
N         2.0647   -0.1099    0.0000   -0.0000   -0.0002   -0.0000
N        -0.1099   -2.0653    0.0000    0.0000   -0.0000    0.0000
C        -0.9521    2.9419    0.0000    0.0011    0.0019   -0.0000
C        -2.8236    1.2591   -0.0000   -0.0004   -0.0002   -0.0000
C         1.2590    2.8241    0.0000    0.0007   -0.0015    0.0000
C        -2.9413   -0.9521   -0.0000    0.0004   -0.0003    0.0000
C        -2.3047    2.5641   -0.0000    0.0013   -0.0016   -0.0000
C        -0.4569    4.3015   -0.0000    0.0335   -0.0507   -0.0000
C        -4.2281    0.9114   -0.0000    0.0088   -0.0071    0.0000
C         0.9115    4.2288   -0.0000    0.0313    0.0389   -0.0000
C        -4.3008   -0.4569   -0.0000   -0.0113   -0.0075   -0.0000
C         2.5639    2.3048   -0.0000    0.0012    0.0012   -0.0000
C        -2.5638   -2.3048   -0.0000   -0.0003   -0.0003   -0.0000
C         2.9414    0.9520   -0.0000   -0.0004    0.0003    0.0000
C        -1.2591   -2.8242   -0.0000   -0.0000    0.0001    0.0000
C         2.8236   -1.2591   -0.0000    0.0003    0.0002   -0.0000
C         0.9520   -2.9419    0.0000   -0.0000   -0.0001    0.0000
C         2.3046   -2.5640   -0.0000   -0.0004    0.0004    0.0000
C         4.3008    0.4568   -0.0000    0.0088    0.0057   -0.0000
C        -0.9115   -4.2288   -0.0000   -0.0019   -0.0023    0.0000
C         4.2281   -0.9115   -0.0000   -0.0076    0.0062    0.0000
C         0.4569   -4.3014   -0.0000   -0.0012    0.0018   -0.0000
H        -3.0344    3.3753   -0.0000   -0.0164    0.0166   -0.0000
H        -1.0767    5.1949   -0.0000   -0.4006    0.5807   -0.0000
H        -5.0505    1.6227   -0.0000   -0.1005    0.0861   -0.0000
H         1.6229    5.0511   -0.0000   -0.3809   -0.4433   -0.0000
H        -5.1940   -1.0770   -0.0000    0.1289    0.0888   -0.0000
H         3.3756    3.0341   -0.0000   -0.0147   -0.0122   -0.0000
H        -3.3754   -3.0341   -0.0000    0.0033    0.0032   -0.0000
H         3.0341   -3.3754   -0.0000    0.0040   -0.0047   -0.0000
H         5.1941    1.0769   -0.0000   -0.1004   -0.0692   -0.0000
H        -1.6227   -5.0513   -0.0000    0.0222    0.0257   -0.0000
H         5.0504   -1.6228   -0.0000    0.0862   -0.0740   -0.0000
H         1.0767   -5.1949   -0.0000    0.0145   -0.0212   -0.0000
Mg       -0.0001    0.0000    0.0000   -0.0000   -0.0000    0.0000
    37
stable frequency at   3165.644 1/cm IR int. is 1.089 a.m.u.; force const. is 6.428 mDyne/Ang.
N         0.1100    2.0652    0.0000   -0.0001    0.0000    0.0000
N        -2.0647    0.1100    0.0000   -0.0000   -0.0002   -0.0000
N         2.0647   -0.1099    0.0000    0.0000    0.0001    0.0000
N        -0.1099   -2.0653    0.0000   -0.0006    0.0001    0.0000
C        -0.9521    2.9419    0.0000    0.0002    0.0002    0.0000
C        -2.8236    1.2591   -0.0000    0.0003    0.0002    0.0000
C         1.2590    2.8241    0.0000    0.0001   -0.0002   -0.0000
C        -2.9413   -0.9521   -0.0000   -0.0005    0.0003   -0.0000
C        -2.3047    2.5641   -0.0000   -0.0002    0.0002   -0.0000
C        -0.4569    4.3015   -0.0000    0.0046   -0.0068    0.0000
C        -4.2281    0.9114   -0.0000   -0.0090    0.0073    0.0000
C         0.9115    4.2288   -0.0000    0.0034    0.0043   -0.0000
C        -4.3008   -0.4569   -0.0000    0.0105    0.0068    0.0000
C         2.5639    2.3048   -0.0000   -0.0001   -0.0000   -0.0000
C        -2.5638   -2.3048   -0.0000    0.0013    0.0012    0.0000
C         2.9414    0.9520   -0.0000    0.0003   -0.0002   -0.0000
C        -1.2591   -2.8242   -0.0000    0.0007   -0.0015   -0.0000
C         2.8236   -1.2591   -0.0000   -0.0004   -0.0002    0.0000
C         0.9520   -2.9419    0.0000    0.0011    0.0019   -0.0000
C         2.3046   -2.5640   -0.0000    0.0013   -0.0016   -0.0000
C         4.3008    0.4568   -0.0000   -0.0085   -0.0057    0.0000
C        -0.9115   -4.2288   -0.0000    0.0313    0.0389   -0.0000
C         4.2281   -0.9115   -0.0000    0.0065   -0.0052    0.0000
C         0.4569   -4.3014   -0.0000    0.0334   -0.0505    0.0000
H        -3.0344    3.3753   -0.0000    0.0018   -0.0028   -0.0000
H        -1.0767    5.1949   -0.0000   -0.0536    0.0776   -0.0000
H        -5.0505    1.6227   -0.0000    0.1023   -0.0879    0.0000
H         1.6229    5.0511   -0.0000   -0.0421   -0.0491   -0.0000
H        -5.1940   -1.0770   -0.0000   -0.1201   -0.0829    0.0000
H         3.3756    3.0341   -0.0000    0.0006    0.0008    0.0000
H        -3.3754   -3.0341   -0.0000   -0.0153   -0.0128   -0.0000
H         3.0341   -3.3754   -0.0000   -0.0157    0.0157   -0.0000
H         5.1941    1.0769   -0.0000    0.0974    0.0671    0.0000
H        -1.6227   -5.0513   -0.0000   -0.3802   -0.4426    0.0000
H         5.0504   -1.6228   -0.0000   -0.0736    0.0629    0.0000
H         1.0767   -5.1949   -0.0000   -0.3993    0.5788   -0.0000
Mg       -0.0001    0.0000    0.0000   -0.0000   -0.0000    0.0000
    37
stable frequency at   3165.849 1/cm IR int. is 1.089 a.m.u.; force const. is 6.429 mDyne/Ang.
N         0.1100    2.0652    0.0000    0.0000   -0.0000   -0.0000
N        -2.0647    0.1100    0.0000    0.0001    0.0005   -0.0000
N         2.0647   -0.1099    0.0000    0.0001    0.0003    0.0000
N        -0.1099   -2.0653    0.0000   -0.0000    0.0000    0.0000
C        -0.9521    2.9419    0.0000   -0.0001   -0.0001    0.0000
C        -2.8236    1.2591   -0.0000   -0.0013   -0.0005    0.0000
C         1.2590    2.8241    0.0000   -0.0001    0.0002    0.0000
C        -2.9413   -0.9521   -0.0000    0.0016   -0.0010    0.0000
C        -2.3047    2.5641   -0.0000    0.0007   -0.0007    0.0000
C        -0.4569    4.3015   -0.0000   -0.0031    0.0045    0.0000
C        -4.2281    0.9114   -0.0000    0.0328   -0.0263   -0.0000
C         0.9115    4.2288   -0.0000   -0.0022   -0.0028   -0.0000
C        -4.3008   -0.4569   -0.0000   -0.0439   -0.0291   -0.0000
C         2.5639    2.3048   -0.0000   -0.0008   -0.0006    0.0000
C        -2.5638   -2.3048   -0.0000   -0.0010   -0.0008    0.0000
C         2.9414    0.9520   -0.0000    0.0011   -0.0007    0.0000
C        -1.2591   -2.8242   -0.0000    0.0000   -0.0001    0.0000
C         2.8236   -1.2591   -0.0000   -0.0009   -0.0004   -0.0000
C         0.9520   -2.9419    0.0000    0.0001    0.0002   -0.0000
C         2.3046   -2.5640   -0.0000    0.0007   -0.0007   -0.0000
C         4.3008    0.4568   -0.0000   -0.0301   -0.0200    0.0000
C        -0.9115   -4.2288   -0.0000    0.0034    0.0041    0.0000
C         4.2281   -0.9115   -0.0000    0.0218   -0.0174    0.0000
C         0.4569   -4.3014   -0.0000    0.0031   -0.0047    0.0000
H        -3.0344    3.3753   -0.0000   -0.0069    0.0090    0.0000
H        -1.0767    5.1949   -0.0000    0.0358   -0.0519    0.0000
H        -5.0505    1.6227   -0.0000   -0.3734    0.3208   -0.0000
H         1.6229    5.0511   -0.0000    0.0271    0.0316    0.0000
H        -5.1940   -1.0770   -0.0000    0.5026    0.3471   -0.0000
H         3.3756    3.0341   -0.0000    0.0072    0.0075    0.0000
H        -3.3754   -3.0341   -0.0000    0.0098    0.0105   -0.0000
H         3.0341   -3.3754   -0.0000   -0.0076    0.0090    0.0000
H         5.1941    1.0769   -0.0000    0.3439    0.2375   -0.0000
H        -1.6227   -5.0513   -0.0000   -0.0408   -0.0472   -0.0000
H         5.0504   -1.6228   -0.0000   -0.2484    0.2132    0.0000
H         1.0767   -5.1949   -0.0000   -0.0377    0.0546   -0.0000
Mg       -0.0001    0.0000    0.0000   -0.0000    0.0000   -0.0000
    37
stable frequency at   3165.949 1/cm IR int. is 1.089 a.m.u.; force const. is 6.428 mDyne/Ang.
N         0.1100    2.0652    0.0000    0.0000   -0.0000   -0.0000
N        -2.0647    0.1100    0.0000    0.0001    0.0002   -0.0000
N         2.0647   -0.1099    0.0000   -0.0001   -0.0004   -0.0000
N        -0.1099   -2.0653    0.0000   -0.0001    0.0000    0.0000
C        -0.9521    2.9419    0.0000   -0.0002   -0.0005   -0.0000
C        -2.8236    1.2591   -0.0000   -0.0007   -0.0003    0.0000
C         1.2590    2.8241    0.0000   -0.0001    0.0003    0.0000
C        -2.9413   -0.9521   -0.0000    0.0009   -0.0005    0.0000
C        -2.3047    2.5641   -0.0000    0.0001   -0.0000    0.0000
C        -0.4569    4.3015   -0.0000   -0.0086    0.0130   -0.0000
C        -4.2281    0.9114   -0.0000    0.0197   -0.0158   -0.0000
C         0.9115    4.2288   -0.0000   -0.0076   -0.0095    0.0000
C        -4.3008   -0.4569   -0.0000   -0.0256   -0.0169   -0.0000
C         2.5639    2.3048   -0.0000    0.0010    0.0008   -0.0000
C        -2.5638   -2.3048   -0.0000   -0.0006   -0.0005   -0.0000
C         2.9414    0.9520   -0.0000   -0.0016    0.0009   -0.0000
C        -1.2591   -2.8242   -0.0000    0.0001   -0.0004    0.0000
C         2.8236   -1.2591   -0.0000    0.0012    0.0005   -0.0000
C         0.9520   -2.9419    0.0000    0.0002    0.0005    0.0000
C         2.3046   -2.5640   -0.0000   -0.0004    0.0003    0.0000
C         4.3008    0.4568   -0.0000    0.0426    0.0283   -0.0000
C        -0.9115   -4.2288   -0.0000    0.0084    0.0105   -0.0000
C         4.2281   -0.9115   -0.0000   -0.0316    0.0254   -0.0000
C         0.4569   -4.3014   -0.0000    0.0097   -0.0146    0.0000
H        -3.0344    3.3753   -0.0000    0.0002    0.0011   -0.0000
H        -1.0767    5.1949   -0.0000    0.1029   -0.1489   -0.0000
H        -5.0505    1.6227   -0.0000   -0.2238    0.1925   -0.0000
H         1.6229    5.0511   -0.0000    0.0932    0.1081   -0.0000
H        -5.1940   -1.0770   -0.0000    0.2934    0.2026   -0.0000
H         3.3756    3.0341   -0.0000   -0.0101   -0.0109   -0.0000
H        -3.3754   -3.0341   -0.0000    0.0059    0.0065   -0.0000
H         3.0341   -3.3754   -0.0000    0.0026   -0.0047   -0.0000
H         5.1941    1.0769   -0.0000   -0.4885   -0.3373   -0.0000
H        -1.6227   -5.0513   -0.0000   -0.1028   -0.1194   -0.0000
H         5.0504   -1.6228   -0.0000    0.3604   -0.3097   -0.0000
H         1.0767   -5.1949   -0.0000   -0.1154    0.1671   -0.0000
Mg       -0.0001    0.0000    0.0000    0.0000   -0.0000    0.0000
    37
stable frequency at   3185.158 1/cm IR int. is 1.104 a.m.u.; force const. is 6.598 mDyne/Ang.
N         0.1100    2.0652    0.0000   -0.0001   -0.0006    0.0000
N        -2.0647    0.1100    0.0000   -0.0001   -0.0000    0.0000
N         2.0647   -0.1099    0.0000   -0.0000   -0.0000    0.0000
N        -0.1099   -2.0653    0.0000   -0.0001   -0.0005    0.0000
C        -0.9521    2.9419    0.0000   -0.0013   -0.0018   -0.0000
C        -2.8236    1.2591   -0.0000   -0.0001   -0.0001   -0.0000
C         1.2590    2.8241    0.0000    0.0011   -0.0022   -0.0000
C        -2.9413   -0.9521   -0.0000   -0.0002    0.0001   -0.0000
C        -2.3047    2.5641   -0.0000    0.0002    0.0002   -0.0000
C        -0.4569    4.3015   -0.0000   -0.0274    0.0339   -0.0000
C        -4.2281    0.9114   -0.0000    0.0022   -0.0022   -0.0000
C         0.9115    4.2288   -0.0000    0.0371    0.0381    0.0000
C        -4.3008   -0.4569   -0.0000    0.0028    0.0022    0.0000
C         2.5639    2.3048   -0.0000    0.0005    0.0009   -0.0000
C        -2.5638   -2.3048   -0.0000    0.0005    0.0008    0.0000
C         2.9414    0.9520   -0.0000   -0.0001   -0.0000   -0.0000
C        -1.2591   -2.8242   -0.0000    0.0009   -0.0018    0.0000
C         2.8236   -1.2591   -0.0000    0.0001    0.0000    0.0000
C         0.9520   -2.9419    0.0000   -0.0010   -0.0015   -0.0000
C         2.3046   -2.5640   -0.0000    0.0002    0.0001   -0.0000
C         4.3008    0.4568   -0.0000   -0.0006   -0.0005   -0.0000
C        -0.9115   -4.2288   -0.0000    0.0302    0.0310   -0.0000
C         4.2281   -0.9115   -0.0000   -0.0013    0.0012   -0.0000
C         0.4569   -4.3014   -0.0000   -0.0223    0.0275    0.0000
H        -3.0344    3.3753   -0.0000   -0.0004    0.0013   -0.0000
H        -1.0767    5.1949   -0.0000    0.2653   -0.3787    0.0000
H        -5.0505    1.6227   -0.0000   -0.0258    0.0222    0.0000
H         1.6229    5.0511   -0.0000   -0.3746   -0.4294   -0.0000
H        -5.1940   -1.0770   -0.0000   -0.0314   -0.0216   -0.0000
H         3.3756    3.0341   -0.0000   -0.0088   -0.0066   -0.0000
H        -3.3754   -3.0341   -0.0000   -0.0079   -0.0062    0.0000
H         3.0341   -3.3754   -0.0000   -0.0008    0.0016   -0.0000
H         5.1941    1.0769   -0.0000    0.0063    0.0048    0.0000
H        -1.6227   -5.0513   -0.0000   -0.3051   -0.3499   -0.0000
H         5.0504   -1.6228   -0.0000    0.0141   -0.0125   -0.0000
H         1.0767   -5.1949   -0.0000    0.2153   -0.3073    0.0000
Mg       -0.0001    0.0000    0.0000   -0.0000   -0.0000    0.0000
    37
stable frequency at   3185.208 1/cm IR int. is 1.104 a.m.u.; force const. is 6.598 mDyne/Ang.
N         0.1100    2.0652    0.0000    0.0000    0.0004    0.0000
N        -2.0647    0.1100    0.0000    0.0003   -0.0000   -0.0000
N         2.0647   -0.1099    0.0000   -0.0002    0.0000   -0.0000
N        -0.1099   -2.0653    0.0000   -0.0001   -0.0005    0.0000
C        -0.9521    2.9419    0.0000    0.0008    0.0012    0.0000
C        -2.8236    1.2591   -0.0000    0.0013    0.0007   -0.0000
C         1.2590    2.8241    0.0000   -0.0008    0.0014   -0.0000
C        -2.9413   -0.9521   -0.0000    0.0010   -0.0008   -0.0000
C        -2.3047    2.5641   -0.0000   -0.0003   -0.0003    0.0000
C        -0.4569    4.3015   -0.0000    0.0185   -0.0230   -0.0000
C        -4.2281    0.9114   -0.0000   -0.0221    0.0215   -0.0000
C         0.9115    4.2288   -0.0000   -0.0240   -0.0246    0.0000
C        -4.3008   -0.4569   -0.0000   -0.0206   -0.0166    0.0000
C         2.5639    2.3048   -0.0000    0.0000   -0.0004   -0.0000
C        -2.5638   -2.3048   -0.0000    0.0000    0.0006   -0.0000
C         2.9414    0.9520   -0.0000   -0.0006    0.0005    0.0000
C        -1.2591   -2.8242   -0.0000    0.0010   -0.0019   -0.0000
C         2.8236   -1.2591   -0.0000   -0.0007   -0.0004   -0.0000
C         0.9520   -2.9419    0.0000   -0.0011   -0.0016    0.0000
C         2.3046   -2.5640   -0.0000    0.0001    0.0004   -0.0000
C         4.3008    0.4568   -0.0000    0.0126    0.0101    0.0000
C        -0.9115   -4.2288   -0.0000    0.0317    0.0325    0.0000
C         4.2281   -0.9115   -0.0000    0.0131   -0.0128   -0.0000
C         0.4569   -4.3014   -0.0000   -0.0244    0.0304    0.0000
H        -3.0344    3.3753   -0.0000   -0.0009   -0.0004   -0.0000
H        -1.0767    5.1949   -0.0000   -0.1800    0.2570    0.0000
H        -5.0505    1.6227   -0.0000    0.2488   -0.2168    0.0000
H         1.6229    5.0511   -0.0000    0.2416    0.2771    0.0000
H        -5.1940   -1.0770   -0.0000    0.2303    0.1615   -0.0000
H         3.3756    3.0341   -0.0000    0.0021    0.0007    0.0000
H        -3.3754   -3.0341   -0.0000   -0.0044   -0.0023   -0.0000
H         3.0341   -3.3754   -0.0000    0.0024   -0.0015   -0.0000
H         5.1941    1.0769   -0.0000   -0.1405   -0.0985   -0.0000
H        -1.6227   -5.0513   -0.0000   -0.3198   -0.3669   -0.0000
H         5.0504   -1.6228   -0.0000   -0.1474    0.1282   -0.0000
H         1.0767   -5.1949   -0.0000    0.2378   -0.3397   -0.0000
Mg       -0.0001    0.0000    0.0000    0.0000   -0.0000    0.0000
    37
stable frequency at   3185.465 1/cm IR int. is 1.104 a.m.u.; force const. is 6.599 mDyne/Ang.
N         0.1100    2.0652    0.0000    0.0000    0.0001    0.0000
N        -2.0647    0.1100    0.0000   -0.0006    0.0001   -0.0000
N         2.0647   -0.1099    0.0000   -0.0005    0.0001   -0.0000
N        -0.1099   -2.0653    0.0000   -0.0000   -0.0001   -0.0000
C        -0.9521    2.9419    0.0000    0.0002    0.0004   -0.0000
C        -2.8236    1.2591   -0.0000   -0.0022   -0.0011    0.0000
C         1.2590    2.8241    0.0000   -0.0002    0.0004   -0.0000
C        -2.9413   -0.9521   -0.0000   -0.0018    0.0012   -0.0000
C        -2.3047    2.5641   -0.0000    0.0009   -0.0007    0.0000
C        -0.4569    4.3015   -0.0000    0.0053   -0.0067   -0.0000
C        -4.2281    0.9114   -0.0000    0.0366   -0.0356    0.0000
C         0.9115    4.2288   -0.0000   -0.0065   -0.0066    0.0000
C        -4.3008   -0.4569   -0.0000    0.0322    0.0261   -0.0000
C         2.5639    2.3048   -0.0000   -0.0000   -0.0004    0.0000
C        -2.5638   -2.3048   -0.0000    0.0002   -0.0000   -0.0000
C         2.9414    0.9520   -0.0000   -0.0015    0.0010   -0.0000
C        -1.2591   -2.8242   -0.0000    0.0002   -0.0005    0.0000
C         2.8236   -1.2591   -0.0000   -0.0018   -0.0010    0.0000
C         0.9520   -2.9419    0.0000   -0.0002   -0.0002   -0.0000
C         2.3046   -2.5640   -0.0000    0.0007   -0.0004   -0.0000
C         4.3008    0.4568   -0.0000    0.0276    0.0224    0.0000
C        -0.9115   -4.2288   -0.0000    0.0066    0.0068    0.0000
C         4.2281   -0.9115   -0.0000    0.0319   -0.0310   -0.0000
C         0.4569   -4.3014   -0.0000   -0.0046    0.0056    0.0000
H        -3.0344    3.3753   -0.0000   -0.0075    0.0097   -0.0000
H        -1.0767    5.1949   -0.0000   -0.0520    0.0750   -0.0000
H        -5.0505    1.6227   -0.0000   -0.4132    0.3604    0.0000
H         1.6229    5.0511   -0.0000    0.0657    0.0755   -0.0000
H        -5.1940   -1.0770   -0.0000   -0.3595   -0.2519    0.0000
H         3.3756    3.0341   -0.0000    0.0030    0.0018    0.0000
H        -3.3754   -3.0341   -0.0000   -0.0004   -0.0008    0.0000
H         3.0341   -3.3754   -0.0000   -0.0051    0.0070   -0.0000
H         5.1941    1.0769   -0.0000   -0.3081   -0.2160    0.0000
H        -1.6227   -5.0513   -0.0000   -0.0670   -0.0766    0.0000
H         5.0504   -1.6228   -0.0000   -0.3602    0.3141    0.0000
H         1.0767   -5.1949   -0.0000    0.0438   -0.0621   -0.0000
Mg       -0.0001    0.0000    0.0000   -0.0000    0.0000   -0.0000
    37
stable frequency at   3185.860 1/cm IR int. is 1.104 a.m.u.; force const. is 6.601 mDyne/Ang.
N         0.1100    2.0652    0.0000   -0.0000   -0.0003    0.0000
N        -2.0647    0.1100    0.0000    0.0004   -0.0000   -0.0000
N         2.0647   -0.1099    0.0000   -0.0006    0.0001    0.0000
N        -0.1099   -2.0653    0.0000    0.0000    0.0003   -0.0000
C        -0.9521    2.9419    0.0000   -0.0005   -0.0009   -0.0000
C        -2.8236    1.2591   -0.0000    0.0014    0.0007   -0.0000
C         1.2590    2.8241    0.0000    0.0005   -0.0011   -0.0000
C        -2.9413   -0.9521   -0.0000    0.0012   -0.0008   -0.0000
C        -2.3047    2.5641   -0.0000   -0.0006    0.0006    0.0000
C        -0.4569    4.3015   -0.0000   -0.0121    0.0149   -0.0000
C        -4.2281    0.9114   -0.0000   -0.0239    0.0232   -0.0000
C         0.9115    4.2288   -0.0000    0.0167    0.0172   -0.0000
C        -4.3008   -0.4569   -0.0000   -0.0215   -0.0174   -0.0000
C         2.5639    2.3048   -0.0000    0.0007    0.0005   -0.0000
C        -2.5638   -2.3048   -0.0000   -0.0007   -0.0006   -0.0000
C         2.9414    0.9520   -0.0000   -0.0017    0.0011   -0.0000
C        -1.2591   -2.8242   -0.0000   -0.0005    0.0011    0.0000
C         2.8236   -1.2591   -0.0000   -0.0021   -0.0010   -0.0000
C         0.9520   -2.9419    0.0000    0.0006    0.0009   -0.0000
C         2.3046   -2.5640   -0.0000    0.0009   -0.0007    0.0000
C         4.3008    0.4568   -0.0000    0.0310    0.0251   -0.0000
C        -0.9115   -4.2288   -0.0000   -0.0172   -0.0178   -0.0000
C         4.2281   -0.9115   -0.0000    0.0355   -0.0344    0.0000
C         0.4569   -4.3014   -0.0000    0.0127   -0.0157   -0.0000
H        -3.0344    3.3753   -0.0000    0.0055   -0.0069   -0.0000
H        -1.0767    5.1949   -0.0000    0.1163   -0.1665   -0.0000
H        -5.0505    1.6227   -0.0000    0.2695   -0.2353   -0.0000
H         1.6229    5.0511   -0.0000   -0.1693   -0.1936   -0.0000
H        -5.1940   -1.0770   -0.0000    0.2402    0.1679   -0.0000
H         3.3756    3.0341   -0.0000   -0.0072   -0.0063   -0.0000
H        -3.3754   -3.0341   -0.0000    0.0078    0.0066   -0.0000
H         3.0341   -3.3754   -0.0000   -0.0076    0.0098   -0.0000
H         5.1941    1.0769   -0.0000   -0.3458   -0.2420   -0.0000
H        -1.6227   -5.0513   -0.0000    0.1749    0.2003    0.0000
H         5.0504   -1.6228   -0.0000   -0.3999    0.3490   -0.0000
H         1.0767   -5.1949   -0.0000   -0.1225    0.1756   -0.0000
Mg       -0.0001    0.0000    0.0000   -0.0000    0.0000    0.0000
