    57
stable frequency at    933.761 1/cm IR int. is 1.387 a.m.u.; force const. is 0.713 mDyne/Ang.
Fe        0.6734   -0.3855    0.1306   -0.0000   -0.0000   -0.0002
N         3.9138    0.5779    0.1328   -0.0000   -0.0000    0.0017
N         1.6368   -3.6259    0.1334   -0.0000   -0.0000    0.0017
N        -0.2395   -2.0709    0.1309    0.0000    0.0000    0.0031
N        -1.0120    0.5273    0.1286    0.0000    0.0000    0.0031
N         1.5863    1.2998    0.1304    0.0000    0.0000    0.0031
N         2.3588   -1.2984    0.1326    0.0000    0.0000    0.0031
N        -0.2900    2.8548    0.1277   -0.0000   -0.0000    0.0017
N        -2.5670   -1.3489    0.1285   -0.0000   -0.0000    0.0017
C        -2.6308    2.2050    0.1263   -0.0000    0.0000    0.0116
C        -1.2119    1.9066    0.1276   -0.0000    0.0000   -0.0065
C         1.0001    2.5643    0.1290   -0.0000   -0.0000   -0.0063
C         2.0252    3.5895    0.1292   -0.0000    0.0000    0.0115
C        -3.3016    0.9663    0.1265   -0.0000    0.0000    0.0116
C        -2.2764   -0.0588    0.1280    0.0000   -0.0000   -0.0063
C        -0.6092   -5.7583    0.1333    0.0000   -0.0000   -0.0441
C        -3.1252   -4.3959    0.1301    0.0000   -0.0000   -0.0449
C        -1.8137   -6.4621    0.1328   -0.0000    0.0000    0.0302
C        -4.6993    0.8970    0.1255    0.0000   -0.0000   -0.0444
C        -3.3370    3.4131    0.1250    0.0001   -0.0000   -0.0453
C        -5.4031    2.1016    0.1242   -0.0001    0.0000    0.0305
C        -3.0557   -5.7893    0.1313   -0.0000    0.0000    0.0308
C        -1.6188   -2.2708    0.1299    0.0000   -0.0000   -0.0064
C        -1.9171   -3.6897    0.1307   -0.0000    0.0000    0.0115
C         3.2639    2.9186    0.1308   -0.0000    0.0000    0.0115
C         2.9656    1.4998    0.1315    0.0000    0.0000   -0.0064
C        -4.7303    3.3435    0.1239   -0.0000    0.0000    0.0311
C         3.6232   -0.7123    0.1333    0.0000   -0.0000   -0.0063
C         4.6484   -1.7374    0.1346    0.0000    0.0000    0.0115
C         2.5587   -2.6777    0.1336   -0.0000    0.0000   -0.0064
C         3.9776   -2.9761    0.1348   -0.0000    0.0000    0.0115
C        -0.6784   -4.3606    0.1322   -0.0000    0.0000    0.0115
C         0.3466   -3.3353    0.1323   -0.0000   -0.0000   -0.0063
C         1.9559    4.9872    0.1281    0.0001   -0.0000   -0.0441
C         4.4720    3.6248    0.1315    0.0000   -0.0000   -0.0449
C         3.1605    5.6910    0.1287   -0.0000    0.0000    0.0302
C         4.4025    5.0182    0.1304   -0.0000    0.0000    0.0308
C         6.0461   -1.6681    0.1356    0.0000   -0.0000   -0.0442
C         4.6838   -4.1842    0.1359    0.0001   -0.0000   -0.0450
C         6.7499   -2.8727    0.1368   -0.0001    0.0000    0.0303
C         6.0771   -4.1146    0.1369   -0.0000   -0.0000    0.0309
H         6.5562   -0.7047    0.1355   -0.0001    0.0001    0.2392
H         4.1560   -5.1380    0.1360   -0.0001    0.0001    0.2453
H         6.6624   -5.0353    0.1378    0.0002   -0.0001   -0.1711
H        -5.2094   -0.0664    0.1257   -0.0001    0.0001    0.2404
H        -2.8092    4.3669    0.1248   -0.0001    0.0001    0.2465
H        -5.3156    4.2642    0.1229    0.0002   -0.0001   -0.1720
H        -6.4939    2.0893    0.1234    0.0001   -0.0001   -0.1665
H         0.3542   -6.2683    0.1345   -0.0002    0.0002    0.2385
H        -4.0791   -3.8681    0.1290   -0.0002    0.0002    0.2445
H        -3.9763   -6.3745    0.1309    0.0002   -0.0002   -0.1705
H        -1.8014   -7.5529    0.1337    0.0002   -0.0001   -0.1652
H         0.9926    5.4972    0.1268   -0.0002    0.0002    0.2385
H         5.4259    3.0971    0.1328   -0.0002    0.0002    0.2445
H         5.3231    5.6035    0.1309    0.0002   -0.0002   -0.1705
H         3.1482    6.7818    0.1279    0.0002   -0.0001   -0.1652
H         7.8407   -2.8603    0.1376    0.0001   -0.0001   -0.1657
