------------------------------------------------------------
          Invoking FHI-aims ...

          When using FHI-aims, please cite the following reference:

            Volker Blum, Ralf Gehrke, Felix Hanke, Paula Havu,
            Ville Havu, Xinguo Ren, Karsten Reuter, and Matthias Scheffler,
            'Ab Initio Molecular Simulations with Numeric Atom-Centered Orbitals',
            Computer Physics Communications 180, 2175-2196 (2009)

          In addition, many other developments in FHI-aims are likely important for
          your particular application. If so, please cite them. A partial list of references
          is written at the end of this file. Thank you for giving credit to the authors
          of these developments.

          For general information about FHI-aims please find us at

            https://fhi-aims.org

          Online tutorials can be found at

            https://fhi-aims-club.gitlab.io/tutorials/tutorials-overview/

          For any questions about FHI-aims, please visit our slack channel at

            https://fhi-aims.slack.com

          and our main development and support site at

            https://aims-git.rz-berlin.mpg.de .

          The latter site, in particular, has a wiki to collect information, as well
          as an issue tracker to log discussions, suggest improvements, and report issues
          or bugs. https://aims-git.rz-berlin.mpg.de is also the main development site
          of the project and all new and updated code versions can be obtained there.
          Please send an email to aims-coordinators@fhi-berlin.mpg.de and we will add
          you to these sites. They are for you and everyone is welcome there.

------------------------------------------------------------



  Date     :  20260121, Time     :  115054.729
  Time zero on CPU 1             :   0.165199000000000E+00  s.
  Internal wall clock time zero  :           538228254.729  s.

  FHI-aims created a unique identifier for this run for later identification
  aims_uuid : 4AA694AC-5263-477D-AA0C-FDACB62A2967

  Build configuration of the current instance of FHI-aims
  -------------------------------------------------------
  FHI-aims version      : 250822
  Commit number         : GITDIR-NOTFOUND
  CMake host system     : Linux-4.18.0-553.74.1.el8_10.x86_64
  CMake version         : 3.26.5
  OS Distribution       : Rocky Linux 8.10 (Green Obsidian)
  Built on              : Intel(R) Xeon(R) Gold 6230 CPU @ 2.10GHz
  Fortran compiler      : /appl/spack/v018/install-tree/intel-2021.6.0/intel-oneapi-mpi-2021.6.0-ujces6/mpi/2021.6.0/bin/mpiifort (Intel) version 2021.6.0.20220226
  Fortran compiler flags: -O2 -ip -fp-model precise -diag-disable=10448 -g
  C compiler            : /appl/spack/v018/install-tree/gcc-8.5.0/intel-oneapi-compilers-2022.1.0-fogrir/compiler/2022.1.0/linux/bin/icx (IntelLLVM) version 2022.1.0
  C compiler flags      : -O2 -ip -fp-model precise -std=gnu99 -g -DNDEBUG
  C++ compiler          : /appl/spack/v018/install-tree/gcc-8.5.0/intel-oneapi-compilers-2022.1.0-fogrir/compiler/2022.1.0/linux/bin/icpx (IntelLLVM) version 2022.1.0
  C++ compiler flags    : -O2 -ip -fp-model precise -g -DNDEBUG
  HIP compiler          :
  HIP compiler flags    :
  HIP GPU arch          :
  Using MPI
  Using ScaLAPACK
  Using LibXC
  Using i-PI
  Using RLSY
  Linking against: /appl/spack/v018/install-tree/intel-2021.6.0/intel-oneapi-mkl-2022.1.0-tr5vm2/mkl/2022.1.0/lib/intel64/libmkl_intel_lp64.so
                   /appl/spack/v018/install-tree/intel-2021.6.0/intel-oneapi-mkl-2022.1.0-tr5vm2/mkl/2022.1.0/lib/intel64/libmkl_sequential.so
                   /appl/spack/v018/install-tree/intel-2021.6.0/intel-oneapi-mkl-2022.1.0-tr5vm2/mkl/2022.1.0/lib/intel64/libmkl_core.so
                   /appl/spack/v018/install-tree/intel-2021.6.0/intel-oneapi-mkl-2022.1.0-tr5vm2/mkl/2022.1.0/lib/intel64/libmkl_blacs_intelmpi_lp64.so
                   /appl/spack/v018/install-tree/intel-2021.6.0/intel-oneapi-mkl-2022.1.0-tr5vm2/mkl/2022.1.0/lib/intel64/libmkl_scalapack_lp64.so

  Using        4 parallel tasks.
  Task        0 on host r07c01.bullx reporting.
  Task        1 on host r07c01.bullx reporting.
  Task        2 on host r07c01.bullx reporting.
  Task        3 on host r07c01.bullx reporting.

  Obtaining array dimensions for all initial allocations:
  
  -----------------------------------------------------------------------
  Parsing control.in (first pass over file, find array dimensions only).
  The contents of control.in will be repeated verbatim below
  unless switched off by setting 'verbatim_writeout .false.' .
  in the first line of control.in .
  -----------------------------------------------------------------------
  
  xc            pbe
  relativistic  atomic_zora scalar
  vdw_correction_hirshfeld
  relax_geometry bfgs 0.01
  output_level MD_light
  
  ################################################################################
  #
  #  FHI-aims code project
  #  VB, Fritz-Haber Institut, 2009
  #
  #  Suggested "light" defaults for C atom (to be pasted into control.in file)
  #  Be sure to double-check any results obtained with these settings for post-processing,
  #  e.g., with the "tight" defaults and larger basis sets.
  #
  ################################################################################
    species        C
  #     global species definitions
      nucleus             6
      mass                12.0107
  #
      l_hartree           4
  #
      cut_pot             3.5  1.5  1.0
      basis_dep_cutoff    1e-4
  #
      radial_base         34 5.0
      radial_multiplier   1
      angular_grids specified
        division   0.3326   50
        division   0.5710  110
        division   0.7727  194
        division   0.8772  302
  #      division   0.9334  434
  #      division   0.9625  590
  #      division   0.9924  770
  #      division   1.0230  974
  #      division   1.4589 1202
  #     outer_grid  974
       outer_grid 302
  ################################################################################
  #
  #  Definition of "minimal" basis
  #
  ################################################################################
  #     valence basis states
      valence      2  s   2.
      valence      2  p   2.
  #     ion occupancy
      ion_occ      2  s   1.
      ion_occ      2  p   1.
  ################################################################################
  #
  #  Suggested additional basis functions. For production calculations,
  #  uncomment them one after another (the most important basis functions are
  #  listed first).
  #
  #  Constructed for dimers: 1.0 A, 1.25 A, 1.5 A, 2.0 A, 3.0 A
  #
  ################################################################################
  #  "First tier" - improvements: -1214.57 meV to -155.61 meV
       hydro 2 p 1.7
       hydro 3 d 6
       hydro 2 s 4.9
  #  "Second tier" - improvements: -67.75 meV to -5.23 meV
  #     hydro 4 f 9.8
  #     hydro 3 p 5.2
  #     hydro 3 s 4.3
  #     hydro 5 g 14.4
  #     hydro 3 d 6.2
  #  "Third tier" - improvements: -2.43 meV to -0.60 meV
  #     hydro 2 p 5.6
  #     hydro 2 s 1.4
  #     hydro 3 d 4.9
  #     hydro 4 f 11.2
  #  "Fourth tier" - improvements: -0.39 meV to -0.18 meV
  #     hydro 2 p 2.1
  #     hydro 5 g 16.4
  #     hydro 4 d 13.2
  #     hydro 3 s 13.6
  #     hydro 4 f 17.6
  #  Further basis functions - improvements: -0.08 meV and below
  #     hydro 3 s 2
  #     hydro 3 p 6
  #     hydro 4 d 20
  
  ################################################################################
  #
  #  FHI-aims code project
  #  VB, Fritz-Haber Institut, 2009
  #
  #  Suggested "light" defaults for H atom (to be pasted into control.in file)
  #  Be sure to double-check any results obtained with these settings for post-processing,
  #  e.g., with the "tight" defaults and larger basis sets.
  #
  ################################################################################
    species        H
  #     global species definitions
      nucleus             1
      mass                1.00794
  #
      l_hartree           4
  #
      cut_pot             3.5  1.5  1.0
      basis_dep_cutoff    1e-4
  #
      radial_base         24 5.0
      radial_multiplier   1
      angular_grids       specified
        division   0.2421   50
        division   0.3822  110
        division   0.4799  194
        division   0.5341  302
  #      division   0.5626  434
  #      division   0.5922  590
  #      division   0.6542  770
  #      division   0.6868 1202
  #      outer_grid  770
        outer_grid  302
  ################################################################################
  #
  #  Definition of "minimal" basis
  #
  ################################################################################
  #     valence basis states
      valence      1  s   1.
  #     ion occupancy
      ion_occ      1  s   0.5
  ################################################################################
  #
  #  Suggested additional basis functions. For production calculations,
  #  uncomment them one after another (the most important basis functions are
  #  listed first).
  #
  #  Basis constructed for dimers: 0.5 A, 0.7 A, 1.0 A, 1.5 A, 2.5 A
  #
  ################################################################################
  #  "First tier" - improvements: -1014.90 meV to -62.69 meV
       hydro 2 s 2.1
       hydro 2 p 3.5
  #  "Second tier" - improvements: -12.89 meV to -1.83 meV
  #     hydro 1 s 0.85
  #     hydro 2 p 3.7
  #     hydro 2 s 1.2
  #     hydro 3 d 7
  #  "Third tier" - improvements: -0.25 meV to -0.12 meV
  #     hydro 4 f 11.2
  #     hydro 3 p 4.8
  #     hydro 4 d 9
  #     hydro 3 s 3.2
  
  ################################################################################
  #
  #  FHI-aims code project
  #  VB, Fritz-Haber Institut, 2009
  #
  #  Suggested "light" defaults for Mg atom (to be pasted into control.in file)
  #  Be sure to double-check any results obtained with these settings for post-processing,
  #  e.g., with the "tight" defaults and larger basis sets.
  #
  ################################################################################
    species        Mg
  #     global species definitions
      nucleus             12
      mass                24.3050
  #
      l_hartree           4
  #
      cut_pot             4.0          1.5  1.0
      basis_dep_cutoff    1e-4
  #
      radial_base         40 5.5
      radial_multiplier   1
      angular_grids       specified
        division   0.7029   50
        division   0.9689  110
        division   1.1879  194
        division   1.3129  302
  #      division   1.4867  434
  #      division   1.6018  590
  #      division   1.8611  770
  #      division   1.9576  974
  #      division   2.2261 1202
  #      outer_grid   974
        outer_grid   302
  ################################################################################
  #
  #  Definition of "minimal" basis
  #
  ################################################################################
  #     valence basis states
      valence      3  s   2.
      valence      2  p   6.
  #     ion occupancy
      ion_occ      2  s   2.
      ion_occ      2  p   6.
  ################################################################################
  #
  #  Suggested additional basis functions. For production calculations,
  #  uncomment them one after another (the most important basis functions are
  #  listed first).
  #
  #  Constructed for dimers: 2.125 A, 2.375 A, 2.875 A, 3.375 A, 4.5 A
  #
  ################################################################################
  #  "First tier" - improvements: -230.76 meV to -21.94 meV
       hydro 2 p 1.5
       ionic 3 d auto
       hydro 3 s 2.4
  #  "Second tier" - improvements: -5.43 meV to -1.64 meV
  #     hydro 4 f 4.3
  #     hydro 2 p 3.4
  #     hydro 4 s 11.2
  #     hydro 3 d 6.2
  #  "Third tier" - improvements: -0.92 meV to -0.22 meV
  #     hydro 2 s 0.6
  #     hydro 3 p 4.8
  #     hydro 4 f 7.4
  #     hydro 5 g 6.6
  #     hydro 2 p 1.6
  #     hydro 3 d 1.8
  #  "Fourth tier" - improvements: -0.09 meV to -0.05 meV
  #     hydro 4 p 0.45
  #     hydro 5 g 10.4
  #     hydro 2 s 12.4
  #     hydro 4 d 1.7
  
  ################################################################################
  #
  #  FHI-aims code project
  #  VB, Fritz-Haber Institut, 2009
  #
  #  Suggested "light" defaults for N atom (to be pasted into control.in file)
  #  Be sure to double-check any results obtained with these settings for post-processing,
  #  e.g., with the "tight" defaults and larger basis sets.
  #
  ################################################################################
    species        N
  #     global species definitions
      nucleus             7
      mass                14.0067
  #
      l_hartree           4
  #
      cut_pot             3.5  1.5  1.0
      basis_dep_cutoff    1e-4
  #
      radial_base         35 5.0
      radial_multiplier   1
      angular_grids       specified
        division   0.2599   50
        division   0.4601  110
        division   0.5885  194
        division   0.6503  302
  #      division   0.6939  434
  #      division   0.7396  590
  #      division   0.7632  770
  #      division   0.8122  974
  #      division   1.1604 1202
  #      outer_grid  974
        outer_grid  302
  ################################################################################
  #
  #  Definition of "minimal" basis
  #
  ################################################################################
  #     valence basis states
      valence      2  s   2.
      valence      2  p   3.
  #     ion occupancy
      ion_occ      2  s   1.
      ion_occ      2  p   2.
  ################################################################################
  #
  #  Suggested additional basis functions. For production calculations,
  #  uncomment them one after another (the most important basis functions are
  #  listed first).
  #
  #  Constructed for dimers: 1.0 A, 1.1 A, 1.5 A, 2.0 A, 3.0 A
  #
  ################################################################################
  #  "First tier" - improvements: -1193.42 meV to -220.60 meV
       hydro 2 p 1.8
       hydro 3 d 6.8
       hydro 3 s 5.8
  #  "Second tier" - improvements: -80.21 meV to -6.86 meV
  #     hydro 4 f 10.8
  #     hydro 3 p 5.8
  #     hydro 1 s 0.8
  #     hydro 5 g 16
  #     hydro 3 d 4.9
  #  "Third tier" - improvements: -4.29 meV to -0.53 meV
  #     hydro 3 s 16
  #     ionic 2 p auto
  #     hydro 3 d 6.6
  #     hydro 4 f 11.6
  #  "Fourth tier" - improvements: -0.75 meV to -0.25 meV
  #     hydro 2 p 4.5
  #     hydro 2 s 2.4
  #     hydro 5 g 14.4
  #     hydro 4 d 14.4
  #     hydro 4 f 16.8
  # Further basis functions - -0.21 meV and below
  #     hydro 3 p 14.8
  #     hydro 3 s 4.4
  #     hydro 3 d 19.6
  #     hydro 5 g 12.8
  
  -----------------------------------------------------------------------
  Completed first pass over input file control.in .
  -----------------------------------------------------------------------
  
  
  -----------------------------------------------------------------------
  Parsing geometry.in (first pass over file, find array dimensions only).
  The contents of geometry.in will be repeated verbatim below
  unless switched off by setting 'verbatim_writeout .false.' .
  in the first line of geometry.in .
  -----------------------------------------------------------------------
  
  atom 0.1100682867338706 2.0655746959962200 0 N
  atom -2.0648493063000495 0.1100922478319775 0 N
  atom 2.0647625564415240 -0.1099645574262321 0 N
  atom -0.1098023868475933 -2.0655305304306846 0 N
  atom -0.9520234519141585 2.9423289525460037 0 C
  atom -2.8236379231028250 1.2590137665661749 0 C
  atom 1.2589628339327943 2.8243437162268057 0 C
  atom -2.9414630370767907 -0.9520559015980496 0 C
  atom -2.3044053405868747 2.5638738294765422 0 C
  atom -0.4571231372926070 4.3022233679054409 0 C
  atom -4.2282306189649708 0.9112255586963114 0 C
  atom 0.9114426856201365 4.2291409955370005 0 C
  atom -4.3011459287058020 -0.4572095595583207 0 C
  atom 2.5637303081935738 2.3045299920192481 0 C
  atom -2.5633948896416419 -2.3044644100688556 0 C
  atom 2.9416837540223275 0.9518928807428251 0 C
  atom -1.2588436730521750 -2.8244044406886548 0 C
  atom 2.8235476591855933 -1.2590502186761070 0 C
  atom 0.9517703664447564 -2.9422668150625144 0 C
  atom 2.3040785870065479 -2.5637647057068667 0 C
  atom 4.3012918210718816 0.4570738862012934 0 C
  atom -0.9113429628798034 -4.2292205155498284 0 C
  atom 4.2280938213461203 -0.9113405219730415 0 C
  atom 0.4570366703665028 -4.3021603172072629 0 C
  atom -3.0341533402575305 3.3751168969198444 0 H
  atom -1.0768130554510904 5.1957500375853689 0 H
  atom -5.0503910706636077 1.6227387153799566 0 H
  atom 1.6231217378004517 5.0512568366130646 0 H
  atom -5.1944322104912386 -1.0771825719073238 0 H
  atom 3.3755008524978845 3.0336460792979429 0 H
  atom -3.3750389478979725 -3.0336569249299012 0 H
  atom 3.0334458591540145 -3.3751245547730173 0 H
  atom 5.1946104786507794 1.0771056519760391 0 H
  atom -1.6228127977581730 -5.0515440446267617 0 H
  atom 5.0501533183383502 -1.6227843876297599 0 H
  atom 1.0766667336633327 -5.1957025284344587 0 H
  atom -0.0001322730508138 0.0000621915906897 0 Mg
  
  -----------------------------------------------------------------------
  Completed first pass over input file geometry.in .
  -----------------------------------------------------------------------
  

  Basic array size parameters:
  | Number of species                 :        4
  | Number of atoms                   :       37
  | Max. basis fn. angular momentum   :        2
  | Max. atomic/ionic basis occupied n:        3
  | Max. number of basis fn. types    :        3
  | Max. radial fns per species/type  :        4
  | Max. logarithmic grid size        :     1334
  | Max. radial integration grid size :       40
  | Max. angular integration grid size:      302
  | Max. angular grid division number :        8
  | Radial grid for Hartree potential :     1334
  | Number of spin channels           :        1

  Definition of standardized fundamental physical constants in this FHI-aims run:
  | Using the set of values used in FHI-aims up to 2024, which combines values from
  | different CODATA sets - see constants.f90.
  | Use the 'codata' keyword in control.in to change this selection.

  Memory overcommitment is allowed on your operating system.

------------------------------------------------------------
          Reading file control.in.
------------------------------------------------------------
  XC: Using PBE gradient-corrected functionals.
  Scalar relativistic treatment of kinetic energy: on-site free-atom approximation to ZORA.
  Geometry relaxation: Modified BFGS - TRM (trust radius method) for lattice optimization.
  Convergence accuracy for geometry relaxation: Maximum force <   0.100000E-01 eV/A.
  Requested output level: MD_light
 
  Reading configuration options for species C                   .
  | Found nuclear charge :   6.0000
  | Found atomic mass :    12.0107000000000      amu
  | Found l_max for Hartree potential  :   4
  | Found cutoff potl. onset [A], width [A], scale factor :    3.50000    1.50000    1.00000
  | Threshold for basis-dependent cutoff potential is   0.100000E-03
  | Found data for basic radial integration grid :    34 points, outermost radius =    5.000 A
  | Found multiplier for basic radial grid :   1
  | Found angular grid specification: user-specified.
  | Specified grid contains     5 separate shells.
  | Check grid settings after all constraints further below.
  | Found free-atom valence shell :  2 s   2.000
  | Found free-atom valence shell :  2 p   2.000
  | Found free-ion valence shell :  2 s   1.000
  | Found free-ion valence shell :  2 p   1.000
  | Found hydrogenic basis function :  2 p   1.700
  | Found hydrogenic basis function :  3 d   6.000
  | Found hydrogenic basis function :  2 s   4.900
 | Encountered keyword species, ending the description of species C                   .
  Species C                   : Missing cutoff potential type.
  Defaulting to exp(1/x)/(1-x)^2 type cutoff potential.
  Species C : No 'logarithmic' tag. Using default grid for free atom:
  | Default logarithmic grid data [bohr] : 0.1000E-03 0.1000E+03 0.1012E+01
  Species C : On-site basis accuracy parameter (for Gram-Schmidt orthonormalisation) not specified.
  Using default value basis_acc =  0.1000000E-03.
  Species C                   : Using default innermost maximum threshold i_radial=  2 for radial functions.
  Species C                   : Default cutoff onset for free atom density etc. : 0.35000000E+01 AA.
  Species C                   : Basic radial grid will be enhanced according to radial_multiplier =   1, to contain    34 grid points.
 
  Reading configuration options for species H                   .
  | Found nuclear charge :   1.0000
  | Found atomic mass :    1.00794000000000      amu
  | Found l_max for Hartree potential  :   4
  | Found cutoff potl. onset [A], width [A], scale factor :    3.50000    1.50000    1.00000
  | Threshold for basis-dependent cutoff potential is   0.100000E-03
  | Found data for basic radial integration grid :    24 points, outermost radius =    5.000 A
  | Found multiplier for basic radial grid :   1
  | Found angular grid specification: user-specified.
  | Specified grid contains     5 separate shells.
  | Check grid settings after all constraints further below.
  | Found free-atom valence shell :  1 s   1.000
  | Found free-ion valence shell :  1 s   0.500
  | Found hydrogenic basis function :  2 s   2.100
  | Found hydrogenic basis function :  2 p   3.500
 | Encountered keyword species, ending the description of species H                   .
  Species H                   : Missing cutoff potential type.
  Defaulting to exp(1/x)/(1-x)^2 type cutoff potential.
  Species H : No 'logarithmic' tag. Using default grid for free atom:
  | Default logarithmic grid data [bohr] : 0.1000E-03 0.1000E+03 0.1012E+01
  Species H : On-site basis accuracy parameter (for Gram-Schmidt orthonormalisation) not specified.
  Using default value basis_acc =  0.1000000E-03.
  Species H                   : Using default innermost maximum threshold i_radial=  2 for radial functions.
  Species H                   : Default cutoff onset for free atom density etc. : 0.35000000E+01 AA.
  Species H                   : Basic radial grid will be enhanced according to radial_multiplier =   1, to contain    24 grid points.
 
  Reading configuration options for species Mg                  .
  | Found nuclear charge :  12.0000
  | Found atomic mass :    24.3050000000000      amu
  | Found l_max for Hartree potential  :   4
  | Found cutoff potl. onset [A], width [A], scale factor :    4.00000    1.50000    1.00000
  | Threshold for basis-dependent cutoff potential is   0.100000E-03
  | Found data for basic radial integration grid :    40 points, outermost radius =    5.500 A
  | Found multiplier for basic radial grid :   1
  | Found angular grid specification: user-specified.
  | Specified grid contains     5 separate shells.
  | Check grid settings after all constraints further below.
  | Found free-atom valence shell :  3 s   2.000
  | Found free-atom valence shell :  2 p   6.000
  | Found free-ion valence shell :  2 s   2.000
  | Found free-ion valence shell :  2 p   6.000
  | Found hydrogenic basis function :  2 p   1.500
  | Found ionic basis function :  3 d , default cutoff radius.
  | Found hydrogenic basis function :  3 s   2.400
 | Encountered keyword species, ending the description of species Mg                  .
  Species Mg                  : Missing cutoff potential type.
  Defaulting to exp(1/x)/(1-x)^2 type cutoff potential.
  Species Mg: No 'logarithmic' tag. Using default grid for free atom:
  | Default logarithmic grid data [bohr] : 0.1000E-03 0.1000E+03 0.1012E+01
  | Will include ionic basis functions of  2.0-fold positive Mg                   ion.
  Species Mg: On-site basis accuracy parameter (for Gram-Schmidt orthonormalisation) not specified.
  Using default value basis_acc =  0.1000000E-03.
  Species Mg                  : Using default innermost maximum threshold i_radial=  2 for radial functions.
  Species Mg                  : Default cutoff onset for free atom density etc. : 0.40000000E+01 AA.
  Species Mg                  : Basic radial grid will be enhanced according to radial_multiplier =   1, to contain    40 grid points.
 
  Reading configuration options for species N                   .
  | Found nuclear charge :   7.0000
  | Found atomic mass :    14.0067000000000      amu
  | Found l_max for Hartree potential  :   4
  | Found cutoff potl. onset [A], width [A], scale factor :    3.50000    1.50000    1.00000
  | Threshold for basis-dependent cutoff potential is   0.100000E-03
  | Found data for basic radial integration grid :    35 points, outermost radius =    5.000 A
  | Found multiplier for basic radial grid :   1
  | Found angular grid specification: user-specified.
  | Specified grid contains     5 separate shells.
  | Check grid settings after all constraints further below.
  | Found free-atom valence shell :  2 s   2.000
  | Found free-atom valence shell :  2 p   3.000
  | Found free-ion valence shell :  2 s   1.000
  | Found free-ion valence shell :  2 p   2.000
  | Found hydrogenic basis function :  2 p   1.800
  | Found hydrogenic basis function :  3 d   6.800
  | Found hydrogenic basis function :  3 s   5.800
  Species N                   : Missing cutoff potential type.
  Defaulting to exp(1/x)/(1-x)^2 type cutoff potential.
  Species N : No 'logarithmic' tag. Using default grid for free atom:
  | Default logarithmic grid data [bohr] : 0.1000E-03 0.1000E+03 0.1012E+01
  Species N : On-site basis accuracy parameter (for Gram-Schmidt orthonormalisation) not specified.
  Using default value basis_acc =  0.1000000E-03.
  Species N                   : Using default innermost maximum threshold i_radial=  2 for radial functions.
  Species N                   : Default cutoff onset for free atom density etc. : 0.35000000E+01 AA.
  Species N                   : Basic radial grid will be enhanced according to radial_multiplier =   1, to contain    35 grid points.
 
  Finished reading input file 'control.in'.
 
------------------------------------------------------------


------------------------------------------------------------
          Reading geometry description geometry.in.
------------------------------------------------------------
  | The smallest distance between any two atoms is         1.08716797 AA.
  | The first atom of this pair is atom number                     23 .
  | The second atom of this pair is atom number                    35 .
  Input structure read successfully.
  The structure contains       37 atoms,  and a total of        172.000 electrons.

  Input geometry:
  | No unit cell requested.
  | Atomic structure:
  |       Atom                x [A]            y [A]            z [A]
  |    1: Species N             0.11006829        2.06557470        0.00000000
  |    2: Species N            -2.06484931        0.11009225        0.00000000
  |    3: Species N             2.06476256       -0.10996456        0.00000000
  |    4: Species N            -0.10980239       -2.06553053        0.00000000
  |    5: Species C            -0.95202345        2.94232895        0.00000000
  |    6: Species C            -2.82363792        1.25901377        0.00000000
  |    7: Species C             1.25896283        2.82434372        0.00000000
  |    8: Species C            -2.94146304       -0.95205590        0.00000000
  |    9: Species C            -2.30440534        2.56387383        0.00000000
  |   10: Species C            -0.45712314        4.30222337        0.00000000
  |   11: Species C            -4.22823062        0.91122556        0.00000000
  |   12: Species C             0.91144269        4.22914100        0.00000000
  |   13: Species C            -4.30114593       -0.45720956        0.00000000
  |   14: Species C             2.56373031        2.30452999        0.00000000
  |   15: Species C            -2.56339489       -2.30446441        0.00000000
  |   16: Species C             2.94168375        0.95189288        0.00000000
  |   17: Species C            -1.25884367       -2.82440444        0.00000000
  |   18: Species C             2.82354766       -1.25905022        0.00000000
  |   19: Species C             0.95177037       -2.94226682        0.00000000
  |   20: Species C             2.30407859       -2.56376471        0.00000000
  |   21: Species C             4.30129182        0.45707389        0.00000000
  |   22: Species C            -0.91134296       -4.22922052        0.00000000
  |   23: Species C             4.22809382       -0.91134052        0.00000000
  |   24: Species C             0.45703667       -4.30216032        0.00000000
  |   25: Species H            -3.03415334        3.37511690        0.00000000
  |   26: Species H            -1.07681306        5.19575004        0.00000000
  |   27: Species H            -5.05039107        1.62273872        0.00000000
  |   28: Species H             1.62312174        5.05125684        0.00000000
  |   29: Species H            -5.19443221       -1.07718257        0.00000000
  |   30: Species H             3.37550085        3.03364608        0.00000000
  |   31: Species H            -3.37503895       -3.03365692        0.00000000
  |   32: Species H             3.03344586       -3.37512455        0.00000000
  |   33: Species H             5.19461048        1.07710565        0.00000000
  |   34: Species H            -1.62281280       -5.05154404        0.00000000
  |   35: Species H             5.05015332       -1.62278439        0.00000000
  |   36: Species H             1.07666673       -5.19570253        0.00000000
  |   37: Species Mg           -0.00013227        0.00006219        0.00000000

  Slab Identifier: This is not a periodic structure.
 
  Finished reading input file 'geometry.in'.
 

 
  Consistency checks for stacksize environment parameter are next.
 
  | Maximum stacksize for task 0: unlimited
  | Maximum stacksize for task 1: unlimited
  | Maximum stacksize for task 2: unlimited
  | Maximum stacksize for task 3: unlimited
  | Current stacksize for task 0: 1024 [Mb]
  | Current stacksize for task 1: 1024 [Mb]
  | Current stacksize for task 2: 1024 [Mb]
  | Current stacksize for task 3: 1024 [Mb]
 
  Consistency checks for the contents of control.in are next.
 
  MPI_IN_PLACE appears to work with this MPI implementation.
  | Keeping use_mpi_in_place .true. (see manual).
  Target number of points in a grid batch is not set. Defaulting to  100
  Method for grid partitioning is not set. Defaulting to parallel hash+maxmin partitioning.
  Batch size limit is not set. Defaulting to    200
  By default, will store active basis functions for each batch.
  If in need of memory, prune_basis_once .false. can be used to disable this option.
  communication_type for Hartree potential was not specified.
  Defaulting to calc_hartree .
  Defaulting to Pulay charge density mixer.
  Pulay mixer: Number of relevant iterations not set.
  Defaulting to    8 iterations.
  Pulay mixer: Number of initial linear mixing iterations not set.
  Defaulting to    0 iterations.
  Work space size for distributed Hartree potential not set.
  Defaulting to   0.200000E+03 MB.
  Mixing parameter for charge density mixing has not been set.
  Using default: charge_mix_param =     0.0500.
  The mixing parameter will be adjusted in iteration number     2 of each s.c.f. cycle (i.e., each geometry step).
  Algorithm-dependent basis array size parameters:
  | n_max_pulay                         :        8
  Maximum number of self-consistency iterations not provided.
  Presetting  1000 iterations.
  Presetting      1001 iterations before the initial mixing cycle
  is restarted anyway using the sc_init_iter criterion / keyword.
  Presetting a factor      1.000 between actual scf density residual
  and density convergence criterion sc_accuracy_rho below which sc_init_iter
  takes no effect.
 * No s.c.f. convergence criteria (sc_accuracy_*) were provided in control.in.
 * The run will proceed with a reasonable default guess, but please check whether.
 * the s.c.f. cycles seem to take too much or too little time.
  No maximum number of relaxation steps, defaulting to     1000
  Default initial Hessian is Lindh matrix (thres = 15.00) plus  0.200000E+01 eV/A^2 times unity.
  No maximum energy tolerance for TRM/BFGS moves, defaulting to   0.150000E-02
  Maximum energy tolerance by which TRM/BFGS trajectory may increase over multiple steps:   0.300000E-02
  No harmonic length scale. Defaulting to   0.250000E-01 A.
  No trust radius initializer. Defaulting to   0.200000E+00 A.
  Forces evaluation will include force correction term due to incomplete self-consistency (default).
 * Notice: The s.c.f. convergence criterion sc_accuracy_rho was not provided.
 * We used to stop in this case, and ask the user to provide reasonable
 * scf convergence criteria. However, this led some users to employ criteria
 * that led to extremely long run times, e.g., for simple relaxation.
 * We now preset a default value for sc_accuracy_rho if it is not set.
 * You may still wish to check if this setting is too tight or too loose for your needs.
 * Based on n_atoms and forces and force-correction status, FHI-aims chose sc_accuracy_rho =  0.198662E-04 .
  Force calculation: scf convergence accuracy of forces not set.
  Defaulting to 'sc_accuracy_forces not_checked'.
  Handling of forces: Unphysical translation and rotation will be removed from forces.
  No accuracy limit for integral partition fn. given. Defaulting to  0.1000E-14.
  No threshold value for u(r) in integrations given. Defaulting to  0.1000E-05.
  No occupation type (smearing scheme) given. Defaulting to Gaussian broadening, width =  0.1000E-01 eV.
  The width will be adjusted in iteration number     2 of each s.c.f. cycle (i.e., each geometry step).
  No accuracy for occupation numbers given. Defaulting to  0.1000E-12.
  No threshold value for occupation numbers given. Defaulting to  0.0000E+00.
  No accuracy for fermi level given. Defaulting to  0.1000E-19.
  Maximum # of iterations to find E_F not set. Defaulting to  200.
  Preferred method for the eigenvalue solver ('KS_method') not specified in 'control.in'.
  Calling BLACS routine to test compilation state
  Since ScaLAPACK support is enabled, defaulting to ELPA (via ELSI).
  Will not use alltoall communication since running on < 1024 CPUs.
  Threshold for basis singularities not set.
  Default threshold for basis singularities:  0.1000E-04
  partition_type (choice of integration weights) for integrals was not specified.
  | Using a version of the partition function of Stratmann and coworkers ('stratmann_sparse').
  | At each grid point, the set of atoms used to build the partition table is smoothly restricted to
  | only those atoms whose free-atom density would be non-zero at that grid point.
  Partitioning for Hartree potential was not defined. Using partition_type for integrals.
  | Adjusted default value of keyword multip_moments_threshold to:       0.10000000E-11
  | This value may affect high angular momentum components of the Hartree potential in periodic systems.
  Spin handling was not defined in control.in. Defaulting to unpolarized case.
  No q(lm)/r^(l+1) cutoff set for long-range Hartree potential.
  | Using default value of  0.100000E-09 .
  | Verify using the multipole_threshold keyword.
  Defaulting to new monopole extrapolation.
  Density update method: automatic selection selected.
  Geometry relaxation: A file "geometry.in.next_step" is written out by default after each step.
  | This file contains the geometry of the current relaxation step as well as
  | the current Hessian matrix needed to restart the relaxation algorithm.
  | If you do not want part or all of this information, use the keywords
  | "write_restart_geometry" or "hessian_to_restart_geometry" to switch the output off.
  Charge integration errors on the 3D integration grid will be compensated
  by explicit normalization and distribution of residual charges.
  Use the "compensate_multipole_errors" flag to change this behaviour.
  Set 'collect_eigenvectors' to be '.true.' for use_density_matrix .false.
  Found potential conflicts with setting 'use_local_index' for this calculation. Will not set it.
 
  Consistency checks for the contents of geometry.in are next.
 
  Number of empty states per atom not set in control.in - providing a guess from actual geometry.
  | Total number of empty states used during s.c.f. cycle:       93
  If you use a very high smearing, use empty_states (per atom!) in control.in to increase this value.

  Structure-dependent array size parameters: 
  | Maximum number of distinct radial functions  :       22
  | Maximum number of basis functions            :      411
  | Number of Kohn-Sham states (occupied + empty):      179
------------------------------------------------------------
  After read_input_data [GB]:    183.12

  Performing system and environment tests:
  | Environment variable OMP_NUM_THREADS correctly set to 1.
  | Checking for ScaLAPACK...
  | Testing pdtran()...
  | All pdtran() tests passed.
  | Testing CPU compatibility for run-time vs. build-time.
  | Reading /proc/cpuinfo for CPU information ...
  | Built for  : Intel(R) Xeon(R) Gold 6230 CPU @ 2.10GHz
  | Running on : Intel(R) Xeon(R) Gold 6230 CPU @ 2.10GHz
  | Runtime CPU compatibility verified.
  
  After prepare_system [GB]:    183.09

------------------------------------------------------------
          Preparing all fixed parts of the calculation.
------------------------------------------------------------
  Determining machine precision:
    2.225073858507201E-308
  Setting up grids for atomic and cluster calculations.

  Creating wave function, potential, and density for free atoms.
  Runtime choices for atomic solver:
  | atomic solver xc        : PBE
  | compute density gradient: 1
  | compute kinetic density : F

  Species: C

  List of occupied orbitals and eigenvalues:
    n    l              occ      energy [Ha]    energy [eV]
    1    0           2.0000       -10.046810      -273.3876
    2    0           2.0000        -0.503128       -13.6908
    2    1           2.0000        -0.191849        -5.2205


  Species: H

  List of occupied orbitals and eigenvalues:
    n    l              occ      energy [Ha]    energy [eV]
    1    0           1.0000        -0.237593        -6.4652


  Species: Mg

  List of occupied orbitals and eigenvalues:
    n    l              occ      energy [Ha]    energy [eV]
    1    0           2.0000       -46.359170     -1261.4972
    2    0           2.0000        -2.927498       -79.6613
    3    0           2.0000        -0.167982        -4.5710
    2    1           6.0000        -1.706030       -46.4234


  Species: N

  List of occupied orbitals and eigenvalues:
    n    l              occ      energy [Ha]    energy [eV]
    1    0           2.0000       -14.143973      -384.8771
    2    0           2.0000        -0.682008       -18.5584
    2    1           3.0000        -0.259605        -7.0642


  Adding cutoff potential to free-atom effective potential.
  Creating fixed part of basis set: Ionic, confined, hydrogenic.
 
  C                    hydrogenic:
 
  List of hydrogenic basis orbitals: 
    n    l      effective z      eigenvalue [eV]  inner max. [A]     outer max. [A]     outer radius [A]   
    2    1         1.700000        -9.7616           1.230570           1.230570           4.607917
    3    2         6.000000       -54.4224           0.792453           0.792453           3.883070
    2    0         4.900000       -81.6679           0.082559           0.562749           3.078220
 
 
  H                    hydrogenic:
 
  List of hydrogenic basis orbitals: 
    n    l      effective z      eigenvalue [eV]  inner max. [A]     outer max. [A]     outer radius [A]   
    2    0         2.100000       -14.9728           0.193243           1.317208           4.583499
    2    1         3.500000       -41.6669           0.602369           0.602369           3.723403
 
 
  Mg                   ion:

  List of free ionic orbitals and eigenvalues:
    n    l      energy [Ha]    energy [eV]
    1    0       -47.122987     -1282.2817
    2    0        -3.674099       -99.9773
    2    1        -2.451441       -66.7071


  List of ionic basis orbitals and eigenvalues:
    n    l      energy [Ha]    energy [eV]    outer radius [A]
    3    2        -0.253797        -6.9062       5.100062

 
  Mg                   hydrogenic:
 
  List of hydrogenic basis orbitals: 
    n    l      effective z      eigenvalue [eV]  inner max. [A]     outer max. [A]     outer radius [A]   
    2    1         1.500000        -7.5955           1.395712           1.395712           5.100062
    3    0         2.400000        -8.0111           0.162319           2.734035           5.100062
 
 
  N                    hydrogenic:
 
  List of hydrogenic basis orbitals: 
    n    l      effective z      eigenvalue [eV]  inner max. [A]     outer max. [A]     outer radius [A]   
    2    1         1.800000       -10.9749           1.177451           1.177451           4.573712
    3    2         6.800000       -69.9026           0.704619           0.704619           3.538137
    3    0         5.800000       -50.8545           0.067388           1.191934           4.250239
 
  Creating atomic-like basis functions for current effective potential.

  Species C                   :

  List of atomic basis orbitals and eigenvalues:
    n    l      energy [Ha]    energy [eV]    outer radius [A]
    1    0       -10.046810      -273.3876       1.934409
    2    0        -0.503128       -13.6908       4.496620
    2    1        -0.191849        -5.2205       4.551928


  Species H                   :

  List of atomic basis orbitals and eigenvalues:
    n    l      energy [Ha]    energy [eV]    outer radius [A]
    1    0        -0.237593        -6.4652       4.527807


  Species Mg                  :

  List of atomic basis orbitals and eigenvalues:
    n    l      energy [Ha]    energy [eV]    outer radius [A]
    1    0       -46.359170     -1261.4972       0.921046
    2    0        -2.927498       -79.6613       3.621735
    3    0        -0.167982        -4.5710       5.100062
    2    1        -1.706030       -46.4234       4.404175


  Species N                   :

  List of atomic basis orbitals and eigenvalues:
    n    l      energy [Ha]    energy [eV]    outer radius [A]
    1    0       -14.143973      -384.8771       1.637919
    2    0        -0.682008       -18.5584       4.463241
    2    1        -0.259605        -7.0642       4.518138

  Assembling full basis from fixed parts.
  | Species C :   atomic orbital   1 s accepted.
  | Species C :    hydro orbital   2 s accepted.
  | Species C :   atomic orbital   2 s accepted.
  | Species C :   atomic orbital   2 p accepted.
  | Species C :    hydro orbital   2 p accepted.
  | Species C :    hydro orbital   3 d accepted.
  | Species H :   atomic orbital   1 s accepted.
  | Species H :    hydro orbital   2 s accepted.
  | Species H :    hydro orbital   2 p accepted.
  | Species Mg :   atomic orbital   1 s accepted.
  | Species Mg :   atomic orbital   2 s accepted.
  | Species Mg :   atomic orbital   3 s accepted.
  | Species Mg :    hydro orbital   3 s accepted.
  | Species Mg :   atomic orbital   2 p accepted.
  | Species Mg :    hydro orbital   2 p accepted.
  | Species Mg :    ionic orbital   3 d accepted.
  | Species N :   atomic orbital   1 s accepted.
  | Species N :    hydro orbital   3 s accepted.
  | Species N :   atomic orbital   2 s accepted.
  | Species N :   atomic orbital   2 p accepted.
  | Species N :    hydro orbital   2 p accepted.
  | Species N :    hydro orbital   3 d accepted.
 
  Basis size parameters after reduction:
  | Total number of radial functions:       22
  | Total number of basis functions :      411
 
  Per-task memory consumption for arrays in subroutine allocate_ext:
  |           7.526300MB.
  Testing on-site integration grid accuracy.
  |  Species  Function  <phi|h_atom|phi> (log., in eV)  <phi|h_atom|phi> (rad., in eV)
           1        1               -273.3876219248               -273.3875919908
           1        2                -10.7204647119                -10.7200987605
           1        3                 17.5782951162                 17.5752355731
           1        4                 -5.2222267983                 -5.2237454471
           1        5                  8.6866956284                  8.6634852736
           1        6                 27.4984676161                 27.4985577266
           2        7                 -6.4664147733                 -6.4652229287
           2        8                 13.7099062243                 13.7158503352
           2        9                 25.2661739479                 25.2663166526
           3       10              -1261.4972086064              -1261.4966102663
           3       11                -79.6612686792                -79.6612661850
           3       12                 -4.5766449847                 -4.5764463354
           3       13                  4.2856803862                  4.2813226631
           3       14                -46.4234362291                -46.4234361907
           3       15                 -0.5282558506                 -0.5281575826
           3       16                  4.0144889854                  4.0133736295
           4       17               -384.8770852097               -384.8770238657
           4       18                 12.5754985572                 12.5755902269
           4       19                -15.7673946340                -15.7673131149
           4       20                 -7.0647024644                 -7.0651952861
           4       21                  8.8117910312                  8.7928686445
           4       22                 35.9641313274                 35.9643080893

  Preparing densities etc. for the partition functions (integrals / Hartree potential).

  Preparations completed.
  max(cpu_time)          :      0.183 s.
  Wall clock time (cpu1) :      3.383 s.
------------------------------------------------------------
  After prepare_scf [GB]:    183.02

  Initializing index lists of integration centers etc. from given atomic structure:
  | Number of centers in hartree potential                       :        37
  | Number of centers in hartree multipole                       :        37
  | Number of centers in electron density summation              :        37
  | Number of centers in basis integrals                         :        37
  | Number of centers in integrals                               :        37
  | Number of centers in hamiltonian                             :        37
  | Number of centers in partition table from touching 0-cell    :        37
  | Number of centers in partition table total                   :        37
  After initialize_bc_dependent_lists [GB]:    183.02

------------------------------------------------------------
          Begin self-consistency loop: Initialization.

          Date     :  20260121, Time     :  115101.333
------------------------------------------------------------

  Initializing relaxation algorithms.
  Finished initialization of distributed Hessian storage.
  | Global dimension:       111
  | BLACS block size:        28
  | Number of workers:        4

  Available memory per node after initialize_hartree_non_periodic_ewald [GB]:    183.02
  Available memory per node after initialize_recip_hartree_potential [GB]:    183.02
  * Using 4 tasks for Scalapack Eigenvalue solver.
  Detailed listing of tasks and assigned k-points:
  (for non-periodic systems, the "k-point" denotes an internal label only)
   Task     0 k-point     1 on r07c01.bullx
   Task     1 k-point     1 on r07c01.bullx
   Task     2 k-point     1 on r07c01.bullx
   Task     3 k-point     1 on r07c01.bullx
  Tasks:     4 split into      2 X      2 BLACS grid
  Calculating block size based on n_basis =          411  max_nprow =            2  max_npcol =            2
  ScaLAPACK block size set to:           16
  Allocating        0.330 MB for ovlp
  Allocating        0.330 MB for ham
  Allocating        0.330 MB for eigenvec
  Required Scalapack workspace - INTEGER:            1  REAL:             1
  Available memory per node after initialize_scalapack [GB]:    183.02
  Available memory per node after aims_elsi_init_scf [GB]:    183.02
  Available memory per node after initialize_fixed_grids [GB]:    183.02
  Partitioning the integration grid into batches with parallel hashing+maxmin method.
  | Number of batches:     1853
  | Maximal batch size:     185
  | Minimal batch size:      51
  | Average batch size:     109.407
  | Standard deviation of batch sizes:      28.588

  Integration load balanced across     4 MPI tasks.
  Work distribution over tasks is as follows:
  Task     0 has      50683 integration points.
  Task     1 has      50666 integration points.
  Task     2 has      50683 integration points.
  Task     3 has      50700 integration points.
  Available memory per node after partition_grid [GB]:    182.99
  Initializing partition tables, free-atom densities, potentials, etc. across the integration grid (initialize_grid_storage).
  | initialize_grid_storage: Actual outermost partition radius vs. multipole_radius_free
  | (-- VB: in principle, multipole_radius_free should be larger, hence this output)
  | Species        1: Confinement radius =              4.999999999999999 AA, multipole_radius_free =              5.019602836301480 AA.
  | Species        1: outer_partition_radius set to              5.019602836301480 AA .
  | Species        2: Confinement radius =              4.999999999999999 AA, multipole_radius_free =              5.054417573612229 AA.
  | Species        2: outer_partition_radius set to              5.054417573612229 AA .
  | Species        3: Confinement radius =              5.500000000000000 AA, multipole_radius_free =              5.555717568450569 AA.
  | Species        3: outer_partition_radius set to              5.555717568450569 AA .
  | Species        4: Confinement radius =              4.999999999999999 AA, multipole_radius_free =              5.043624274424571 AA.
  | Species        4: outer_partition_radius set to              5.043624274424571 AA .
  | The sparse table of interatomic distances needs         16.14 kbyte instead of        10.95 kbyte of memory.
  | Using the partition_type stratmann_smoother will reduce your memory usage.
  | Net number of integration points:   202732
  | of which are non-zero points    :   173768
  Available memory per node after initialize_grid_storage_p1 [GB]:    182.96
  Renormalizing the initial density to the exact electron count on the 3D integration grid.
  | Initial density: Formal number of electrons (from input files) :     172.0000000000
  | Integrated number of electrons on 3D grid     :     171.9999348913
  | Charge integration error                      :      -0.0000651087
  | Normalization factor for density and gradient :       1.0000003785
  Renormalizing the free-atom superposition density to the exact electron count on the 3D integration grid.
  | Formal number of electrons (from input files) :     172.0000000000
  | Integrated number of electrons on 3D grid     :     171.9999348913
  | Charge integration error                      :      -0.0000651087
  | Normalization factor for density and gradient :       1.0000003785
  Obtaining max. number of non-zero basis functions in each batch (get_n_compute_maxes).
  | Maximal number of non-zero basis functions:      320 in task     0
  | Maximal number of non-zero basis functions:      320 in task     1
  | Maximal number of non-zero basis functions:      335 in task     2
  | Maximal number of non-zero basis functions:      321 in task     3
  Selecting the method for density update.
  Loop over occupied states selected for charge density update.
  Available memory per node after get_n_compute_maxes_p1 [GB]:    182.96
  Allocating        0.561 MB for KS_eigenvector
  Available memory per node after allocate_matrices [GB]:    182.96
  Available memory per node after init_comm_sparse_local_matrix_scalapack [GB]:    182.96
  Integrating Hamiltonian matrix: batch-based integration.
  Time summed over all CPUs for integration: real work        7.968 s, elapsed        7.984 s
  Available memory per node after integrate hamiltonian matrix [GB]:    182.92
  Integrating overlap matrix.
  Time summed over all CPUs for integration: real work        0.928 s, elapsed        0.935 s
  Available memory per node after integrate ovlp matrix [GB]:    182.92
  Available memory per node after ASI_callbacks invoke [GB]:    182.92
  Deallocating overlap matrix.
  Available memory per node after save_overlap_scalapack [GB]:    182.92

  Updating Kohn-Sham eigenvalues and eigenvectors using ELSI and the ELPA eigensolver.

  Obtaining occupation numbers and electronic chemical potential using ELSI.
  | Note that, for insulating systems, the printed 'chemical potential' value is not uniquely defined.
  | It can be anywhere in the energy gap, as long as it correctly separates occupied and unoccupied states.
  | In systems with a gap, the physically relevant chemical potential is the VBM or HOMO.

  | Chemical potential (Fermi level):    -8.20073405 eV
  Available memory per node after advance_KS_solution [GB]:    182.90
  Writing Kohn-Sham eigenvalues.

  State    Occupation    Eigenvalue [Ha]    Eigenvalue [eV]
      1       2.00000         -46.366456        -1261.69547
      2       2.00000         -14.251108         -387.79238
      3       2.00000         -14.251093         -387.79197
      4       2.00000         -14.251081         -387.79163
      5       2.00000         -14.251058         -387.79103
      6       2.00000         -10.160980         -276.49432
      7       2.00000         -10.160966         -276.49394
      8       2.00000         -10.160948         -276.49347
      9       2.00000         -10.160911         -276.49246
     10       2.00000         -10.160480         -276.48072
     11       2.00000         -10.160466         -276.48036
     12       2.00000         -10.160448         -276.47987
     13       2.00000         -10.160413         -276.47889
     14       2.00000         -10.159248         -276.44720
     15       2.00000         -10.159235         -276.44685
     16       2.00000         -10.159210         -276.44618
     17       2.00000         -10.159180         -276.44536
     18       2.00000         -10.151130         -276.22629
     19       2.00000         -10.151117         -276.22595
     20       2.00000         -10.151115         -276.22589
     21       2.00000         -10.151110         -276.22575
     22       2.00000         -10.151096         -276.22538
     23       2.00000         -10.151086         -276.22510
     24       2.00000         -10.151080         -276.22495
     25       2.00000         -10.151061         -276.22443
     26       2.00000          -2.938529          -79.96144
     27       2.00000          -1.719279          -46.78396
     28       2.00000          -1.719267          -46.78362
     29       2.00000          -1.715175          -46.67229
     30       2.00000          -1.067309          -29.04296
     31       2.00000          -1.061062          -28.87297
     32       2.00000          -1.061049          -28.87261
     33       2.00000          -1.054458          -28.69328
     34       2.00000          -0.919873          -25.03102
     35       2.00000          -0.900115          -24.49338
     36       2.00000          -0.900082          -24.49247
     37       2.00000          -0.894855          -24.35024
     38       2.00000          -0.887691          -24.15529
     39       2.00000          -0.887670          -24.15473
     40       2.00000          -0.887391          -24.14713
     41       2.00000          -0.854911          -23.26331
     42       2.00000          -0.831843          -22.63561
     43       2.00000          -0.778357          -21.18016
     44       2.00000          -0.778335          -21.17957
     45       2.00000          -0.716932          -19.50871
     46       2.00000          -0.712920          -19.39953
     47       2.00000          -0.692662          -18.84830
     48       2.00000          -0.692641          -18.84773
     49       2.00000          -0.691610          -18.81966
     50       2.00000          -0.671782          -18.28011
     51       2.00000          -0.662425          -18.02551
     52       2.00000          -0.651133          -17.71823
     53       2.00000          -0.651111          -17.71764
     54       2.00000          -0.635899          -17.30370
     55       2.00000          -0.628859          -17.11213
     56       2.00000          -0.628856          -17.11205
     57       2.00000          -0.583197          -15.86961
     58       2.00000          -0.571433          -15.54948
     59       2.00000          -0.559159          -15.21550
     60       2.00000          -0.559112          -15.21421
     61       2.00000          -0.557904          -15.18133
     62       2.00000          -0.538860          -14.66313
     63       2.00000          -0.536468          -14.59805
     64       2.00000          -0.533731          -14.52356
     65       2.00000          -0.527660          -14.35835
     66       2.00000          -0.527645          -14.35794
     67       2.00000          -0.522679          -14.22282
     68       2.00000          -0.522653          -14.22212
     69       2.00000          -0.515096          -14.01649
     70       2.00000          -0.515069          -14.01573
     71       2.00000          -0.510334          -13.88689
     72       2.00000          -0.506654          -13.78675
     73       2.00000          -0.504182          -13.71948
     74       2.00000          -0.496591          -13.51293
     75       2.00000          -0.460818          -12.53949
     76       2.00000          -0.460794          -12.53884
     77       2.00000          -0.440155          -11.97722
     78       2.00000          -0.438483          -11.93173
     79       2.00000          -0.406468          -11.06057
     80       2.00000          -0.406446          -11.05996
     81       2.00000          -0.394028          -10.72205
     82       2.00000          -0.386141          -10.50744
     83       2.00000          -0.386125          -10.50701
     84       2.00000          -0.385137          -10.48010
     85       2.00000          -0.338791           -9.21896
     86       2.00000          -0.336978           -9.16964
     87       0.00000          -0.265765           -7.23183
     88       0.00000          -0.265746           -7.23132
     89       0.00000          -0.219776           -5.98040
     90       0.00000          -0.156510           -4.25884
     91       0.00000          -0.139795           -3.80401
     92       0.00000          -0.139783           -3.80370
     93       0.00000          -0.125306           -3.40976
     94       0.00000          -0.083571           -2.27408
     95       0.00000          -0.080358           -2.18665
     96       0.00000          -0.073079           -1.98857
     97       0.00000          -0.072069           -1.96110
     98       0.00000          -0.072056           -1.96075
     99       0.00000          -0.044901           -1.22181
    100       0.00000          -0.044863           -1.22077
    101       0.00000          -0.043283           -1.17779
    102       0.00000          -0.002006           -0.05458
    103       0.00000          -0.001551           -0.04220
    104       0.00000           0.003441            0.09364
    105       0.00000           0.004118            0.11206
    106       0.00000           0.004138            0.11261
    107       0.00000           0.014031            0.38179
    108       0.00000           0.014130            0.38449
    109       0.00000           0.016707            0.45462
    110       0.00000           0.022949            0.62448
    111       0.00000           0.022983            0.62539
    112       0.00000           0.025497            0.69381
    113       0.00000           0.025525            0.69457
    114       0.00000           0.032205            0.87635
    115       0.00000           0.034992            0.95218
    116       0.00000           0.042085            1.14519
    117       0.00000           0.050362            1.37041
    118       0.00000           0.066967            1.82226
    119       0.00000           0.066979            1.82260
    120       0.00000           0.075214            2.04668
    121       0.00000           0.099466            2.70662
    122       0.00000           0.099502            2.70759
    123       0.00000           0.118964            3.23718
    124       0.00000           0.119010            3.23842
    125       0.00000           0.119438            3.25008
    126       0.00000           0.119690            3.25694
    127       0.00000           0.138384            3.76561
    128       0.00000           0.138430            3.76688
    129       0.00000           0.138815            3.77734
    130       0.00000           0.146861            3.99629
    131       0.00000           0.146908            3.99757
    132       0.00000           0.153247            4.17007
    133       0.00000           0.185935            5.05954
    134       0.00000           0.189997            5.17009
    135       0.00000           0.194495            5.29249
    136       0.00000           0.204941            5.57672
    137       0.00000           0.213911            5.82082
    138       0.00000           0.213932            5.82138
    139       0.00000           0.214471            5.83605
    140       0.00000           0.217187            5.90996
    141       0.00000           0.217197            5.91023
    142       0.00000           0.229785            6.25278
    143       0.00000           0.231379            6.29614
    144       0.00000           0.231405            6.29686
    145       0.00000           0.232877            6.33692
    146       0.00000           0.233383            6.35067
    147       0.00000           0.244754            6.66009
    148       0.00000           0.250191            6.80804
    149       0.00000           0.257042            6.99447
    150       0.00000           0.257051            6.99471
    151       0.00000           0.267558            7.28063
    152       0.00000           0.273357            7.43843
    153       0.00000           0.277977            7.56415
    154       0.00000           0.279277            7.59951
    155       0.00000           0.279323            7.60076
    156       0.00000           0.284986            7.75485
    157       0.00000           0.284999            7.75522
    158       0.00000           0.303414            8.25631
    159       0.00000           0.304428            8.28390
    160       0.00000           0.304450            8.28452
    161       0.00000           0.328124            8.92870
    162       0.00000           0.341315            9.28767
    163       0.00000           0.348391            9.48021
    164       0.00000           0.348413            9.48079
    165       0.00000           0.358365            9.75162
    166       0.00000           0.358380            9.75201
    167       0.00000           0.358423            9.75318
    168       0.00000           0.365875            9.95598
    169       0.00000           0.369213           10.04680
    170       0.00000           0.371295           10.10345
    171       0.00000           0.377610           10.27530
    172       0.00000           0.410002           11.15671
    173       0.00000           0.410060           11.15829
    174       0.00000           0.420720           11.44837
    175       0.00000           0.422174           11.48794
    176       0.00000           0.459874           12.51380
    177       0.00000           0.459989           12.51694
    178       0.00000           0.467381           12.71808
    179       0.00000           0.471830           12.83916

  Highest occupied state (VBM) at     -9.16964309 eV
  | Occupation number:      2.00000000

  Lowest unoccupied state (CBM) at    -7.23182501 eV
  | Occupation number:      0.00000000

  Overall HOMO-LUMO gap:      1.93781808 eV.
  Calculating total energy contributions from superposition of free atom densities.

  Total energy components:
  | Sum of eigenvalues            :        -701.64989427 Ha      -19092.86505733 eV
  | XC energy correction          :        -153.85214364 Ha       -4186.52983684 eV
  | XC potential correction       :         197.72675658 Ha        5380.41879927 eV
  | Free-atom electrostatic energy:        -531.83827093 Ha      -14472.05568198 eV
  | Hartree energy correction     :           0.00000000 Ha           0.00000000 eV
  | vdW energy correction         :           0.00000000 Ha           0.00000000 eV
  | Entropy correction            :           0.00000000 Ha           0.00000000 eV
  | ---------------------------
  | Total energy                  :       -1189.61355226 Ha      -32371.03177688 eV
  | Total energy, T -> 0          :       -1189.61355226 Ha      -32371.03177688 eV  <-- do not rely on this value for anything but (periodic) metals
  | Electronic free energy        :       -1189.61355226 Ha      -32371.03177688 eV

  Derived energy quantities:
  | Kinetic energy                :        1182.13551810 Ha       32167.54411403 eV
  | Electrostatic energy          :       -2217.89692671 Ha      -60352.04605407 eV
  | Energy correction for multipole
  | error in Hartree potential    :           0.00000000 Ha           0.00000000 eV
  | Sum of eigenvalues per atom                           :        -516.02337993 eV
  | Total energy (T->0) per atom                          :        -874.89275073 eV  <-- do not rely on this value for anything but (periodic) metals
  | Electronic free energy per atom                       :        -874.89275073 eV
  Initialize hartree_potential_storage
  Max. number of atoms included in rho_multipole:           37

  End scf initialization - timings             :  max(cpu_time)    wall_clock(cpu1)
  | Time for scf. initialization                :        1.706 s           6.008 s
  | Boundary condition initialization           :        0.012 s           0.099 s
  | Relaxation initialization                   :        0.008 s           0.122 s
  | Integration                                 :        0.615 s           2.286 s
  | Solution of K.-S. eqns.                     :        0.601 s           1.912 s
  | Grid partitioning                           :        0.079 s           0.218 s
  | Preloading free-atom quantities on grid     :        0.351 s           1.080 s
  | Free-atom superposition energy              :        0.063 s           0.098 s
  | Total energy evaluation                     :        0.000 s           0.028 s

  Partial memory accounting:
  | Current value for overall tracked memory usage:
  |   Minimum:        2.208 MB (on task 3)
  |   Maximum:        2.256 MB (on task 0)
  |   Average:        2.232 MB
  | Peak value for overall tracked memory usage:
  |   Minimum:        5.007 MB (on task 3 after allocating wave)
  |   Maximum:        5.161 MB (on task 2 after allocating wave)
  |   Average:        5.059 MB
  | Largest tracked array allocation so far:
  |   Minimum:        1.155 MB (all_coords on task 1)
  |   Maximum:        1.166 MB (all_coords on task 2)
  |   Average:        1.160 MB
  Note:  These values currently only include a subset of arrays which are explicitly tracked.
  The "true" memory usage will be greater.
------------------------------------------------------------
  Available memory after initialize_scf [GB]:    182.90
  Time for density update prior                :  max(cpu_time)    wall_clock(cpu1)
  | self-consistency iterative process          :        0.419 s           0.464 s
------------------------------------------------------------
Convergence:    q app. |  density  | eigen (eV) | Etot (eV) | forces (eV/A) |       CPU time |     Clock time
  SCF    1 : -0.56E-13 |  0.91E+00 |   0.84E+02 |  0.38E+01 |             . |        1.088 s |        1.233 s
  SCF    2 : -0.10E-11 |  0.84E+00 |   0.76E+03 |  0.16E+02 |             . |        1.086 s |        1.319 s
  SCF    3 : -0.84E-12 |  0.36E+00 |  -0.10E+03 |  0.69E+00 |             . |        1.120 s |        1.122 s
  SCF    4 : -0.12E-11 |  0.20E+00 |   0.11E+03 |  0.41E+00 |             . |        1.115 s |        1.117 s
  SCF    5 : -0.90E-12 |  0.60E-01 |   0.38E+01 |  0.43E-01 |             . |        1.158 s |        1.160 s
  SCF    6 : -0.29E-12 |  0.26E-01 |   0.15E+02 |  0.28E-01 |             . |        1.112 s |        1.115 s
  SCF    7 :  0.31E-13 |  0.80E-02 |   0.12E+01 |  0.57E-02 |             . |        1.099 s |        1.101 s
  SCF    8 : -0.11E-11 |  0.36E-02 |  -0.44E-01 | -0.14E-03 |             . |        1.120 s |        1.123 s
  SCF    9 : -0.11E-12 |  0.24E-02 |   0.20E+01 |  0.60E-03 |             . |        1.113 s |        1.114 s
  SCF   10 : -0.64E-12 |  0.65E-03 |   0.94E+00 | -0.40E-05 |             . |        1.101 s |        1.103 s
  SCF   11 :  0.43E-13 |  0.17E-03 |   0.76E-01 | -0.63E-04 |             . |        1.123 s |        1.126 s
  SCF   12 : -0.46E-12 |  0.55E-04 |  -0.14E-01 |  0.36E-05 |             . |        1.116 s |        1.118 s
  SCF   13 : -0.70E-12 |  0.20E-04 |  -0.14E-02 | -0.31E-05 |             . |        1.103 s |        1.106 s
  SCF   14 : -0.55E-12 |  0.12E-04 |  -0.21E-02 | -0.18E-05 |      0.95E+00 |        4.577 s |        4.994 s

  Total energy components:
  | Sum of eigenvalues            :        -669.56096532 Ha      -18219.68087356 eV
  | XC energy correction          :        -156.11403659 Ha       -4248.07907545 eV
  | XC potential correction       :         200.65582691 Ha        5460.12285823 eV
  | Free-atom electrostatic energy:        -531.83827093 Ha      -14472.05568198 eV
  | Hartree energy correction     :         -31.97223117 Ha        -870.00867576 eV
  | vdW energy correction         :           0.00000000 Ha           0.00000000 eV
  | Entropy correction            :           0.00000000 Ha           0.00000000 eV
  | ---------------------------
  | Total energy                  :       -1188.82967710 Ha      -32349.70144854 eV
  | Total energy, T -> 0          :       -1188.82967710 Ha      -32349.70144854 eV  <-- do not rely on this value for anything but (periodic) metals
  | Electronic free energy        :       -1188.82967710 Ha      -32349.70144854 eV

  Derived energy quantities:
  | Kinetic energy                :        1186.19762689 Ha       32278.07971817 eV
  | Electrostatic energy          :       -2218.91326740 Ha      -60379.70209125 eV
  | Energy correction for multipole
  | error in Hartree potential    :           0.27788427 Ha           7.56161566 eV
  | Sum of eigenvalues per atom                           :        -492.42380739 eV
  | Total energy (T->0) per atom                          :        -874.31625537 eV  <-- do not rely on this value for anything but (periodic) metals
  | Electronic free energy per atom                       :        -874.31625537 eV
  Highest occupied state (VBM) at     -5.04915337 eV
  | Occupation number:      2.00000000

  Lowest unoccupied state (CBM) at    -3.06206139 eV
  | Occupation number:      0.00000000

  Overall HOMO-LUMO gap:      1.98709197 eV.

  | Chemical Potential                          :    -4.05560738 eV
  | Note that, for insulating systems, the printed 'chemical potential' value is not uniquely defined.
  | It can be anywhere in the energy gap, as long as it correctly separates occupied and unoccupied states.
  | In systems with a gap, the physically relevant chemical potential is the VBM or HOMO.

  Self-consistency cycle converged.



  Total energy components:
  | Sum of eigenvalues            :        -669.56096532 Ha      -18219.68087356 eV
  | XC energy correction          :        -156.11403659 Ha       -4248.07907545 eV
  | XC potential correction       :         200.65582691 Ha        5460.12285823 eV
  | Free-atom electrostatic energy:        -531.83827093 Ha      -14472.05568198 eV
  | Hartree energy correction     :         -31.97223117 Ha        -870.00867576 eV
  | vdW energy correction         :          -0.02540606 Ha          -0.69133409 eV
  | Entropy correction            :           0.00000000 Ha           0.00000000 eV
  | ---------------------------
  | Total energy                  :       -1188.85508316 Ha      -32350.39278262 eV
  | Total energy, T -> 0          :       -1188.85508316 Ha      -32350.39278262 eV  <-- do not rely on this value for anything but (periodic) metals
  | Electronic free energy        :       -1188.85508316 Ha      -32350.39278262 eV

  Derived energy quantities:
  | Kinetic energy                :        1186.19762689 Ha       32278.07971817 eV
  | Electrostatic energy          :       -2218.91326740 Ha      -60379.70209125 eV
  | Energy correction for multipole
  | error in Hartree potential    :           0.27788427 Ha           7.56161566 eV
  | Sum of eigenvalues per atom                           :        -492.42380739 eV
  | Total energy (T->0) per atom                          :        -874.33494007 eV  <-- do not rely on this value for anything but (periodic) metals
  | Electronic free energy per atom                       :        -874.33494007 eV
  Removing unitary transformations (pure translations, rotations) from forces on atoms.
  Atomic forces before filtering:
  | Net force on center of mass :  -0.475080E-04  0.707468E-04  0.144716E-09 eV/A
  | Net torque on center of mass:   0.539028E-10 -0.367721E-10 -0.149273E+00 eV
  Atomic forces after filtering:
  | Net force on center of mass :   0.452984E-17  0.176403E-16 -0.415384E-25 eV/A
  | Net torque on center of mass:   0.186137E-25  0.777069E-26  0.716674E-16 eV

  Energy and forces in a compact form:
  | Total energy uncorrected      :         -0.323503927826216E+05 eV
  | Total energy corrected        :         -0.323503927826216E+05 eV  <-- do not rely on this value for anything but (periodic) metals
  | Electronic free energy        :         -0.323503927826216E+05 eV
  Total atomic forces (unitary forces cleaned) [eV/Ang]:
  |    1         -0.117023593574232E-01         -0.217935898175493E-02         -0.352975669563781E-11
  |    2          0.437353639266993E-02         -0.972689358618453E-02         -0.104741195639674E-10
  |    3          0.342045662973419E-03          0.594232657915545E-02         -0.386558505153975E-11
  |    4         -0.522014731564255E-02          0.220965347028392E-02          0.902032830288784E-11
  |    5          0.260568568624631E-02         -0.420677019690657E-02         -0.321673173068043E-11
  |    6         -0.129652221329120E-02          0.330137356122293E-03         -0.833155354004461E-11
  |    7          0.663078474441864E-02         -0.118268057613142E-03         -0.528519027229836E-11
  |    8          0.630794010816482E-02          0.451250329224719E-02         -0.386981808647667E-11
  |    9         -0.152930670622733E-01          0.159574674208361E-01          0.469957729451081E-12
  |   10          0.186139644099042E-01         -0.212994287710976E-01         -0.917563253072327E-11
  |   11         -0.106054372229899E-03          0.364453046545579E-03         -0.804150715404680E-11
  |   12         -0.454861889609792E-02         -0.296723253338243E-02          0.793073075971146E-12
  |   13          0.155024872990041E-01          0.127631487719461E-01         -0.103532241657575E-10
  |   14          0.115999566468859E-01          0.137143661471893E-01         -0.255787850623017E-11
  |   15         -0.145092617754462E-01         -0.195292447949245E-01         -0.107006359991357E-11
  |   16         -0.124104065130040E-01          0.777034006398840E-02         -0.295405227855304E-11
  |   17         -0.229932040600213E-02          0.360491496408794E-02         -0.124380020416743E-10
  |   18         -0.384163654616690E-02          0.309555869811719E-02         -0.273538461485771E-10
  |   19          0.943369824483277E-02          0.294441890532607E-02         -0.441435512584803E-11
  |   20          0.172731030392961E-01         -0.159971630153314E-01          0.397379831851732E-11
  |   21         -0.156068877340990E-01         -0.133938184817686E-01         -0.420659292651595E-11
  |   22         -0.274366670345992E-02          0.448429335764655E-02         -0.256308337467250E-11
  |   23          0.152393117163430E-02          0.871139041773746E-03         -0.416071953560495E-11
  |   24         -0.118511789405764E-01          0.182518879772692E-01         -0.103337881494761E-10
  |   25          0.183772958264132E-03         -0.143240718388289E-02         -0.414269260873235E-11
  |   26         -0.190552885475056E-02         -0.189201381730638E-02         -0.475066079571288E-11
  |   27         -0.320663042943549E-02         -0.618004954972123E-03         -0.357703392777571E-11
  |   28         -0.233933440303700E-02          0.105048130405498E-02         -0.501208106592369E-11
  |   29         -0.130972614763411E-03         -0.152553409270513E-02         -0.307785278633913E-11
  |   30         -0.186971958672892E-02          0.181421267064472E-02         -0.486788678383018E-11
  |   31         -0.152937832465349E-03         -0.227680197838393E-02         -0.291467281843145E-11
  |   32          0.517702649678040E-02         -0.186801578702252E-02         -0.366177702986799E-11
  |   33         -0.142439462988193E-02         -0.377466870947068E-03         -0.475028335868863E-11
  |   34          0.175559100261026E-02          0.485293070258907E-03         -0.281166162505090E-11
  |   35          0.612011397755569E-02         -0.278938294049799E-02         -0.418936007787581E-11
  |   36          0.317959342146715E-02          0.180297509371901E-02         -0.311894585679599E-11
  |   37          0.183541492406721E-02          0.228234813469205E-03          0.170813251786436E-09

  Relaxation / MD: End force evaluation.       :  max(cpu_time)    wall_clock(cpu1)
  | Time for this force evaluation              :       20.880 s          26.760 s

------------------------------------------------------------
  Geometry optimization: Attempting to predict improved coordinates.

  Removing unitary transformations (pure translations, rotations) from forces on atoms.
  Atomic forces before filtering:
  | Net force on center of mass :   0.452984E-17  0.176403E-16 -0.415384E-25 eV/A
  | Net torque on center of mass:   0.186137E-25  0.777069E-26  0.716674E-16 eV
  Atomic forces after filtering:
  | Net force on center of mass :   0.313605E-17  0.182936E-17  0.415384E-25 eV/A
  | Net torque on center of mass:  -0.619831E-27  0.901572E-27  0.480653E-16 eV
  Net remaining forces (excluding translations, rotations) in present geometry:
  || Forces on atoms   || =   0.212994E-01 eV/A.
  Maximum force component is  0.212994E-01 eV/A.
  Present geometry is not yet converged.

  Relaxation step number      1: Predicting new coordinates.

  Advancing geometry using trust radius method.
  Allocating        0.330 MB for eigenvec_stored
  | Hessian has        0 negative and        6 zero eigenvalues.
  | Positive eigenvalues (eV/A^2): 2.09E+00 ... 2.24E+02
  | Use Quasi-Newton step of length |H^-1 F| = 2.62E-03 A.
  Finished advancing geometry
  | Time :      0.005 s
  Updated atomic structure:
                         x [A]             y [A]             z [A]
            atom         0.11000380        2.06524408        0.00000000  N
            atom        -2.06469076        0.11001326        0.00000000  N
            atom         2.06465413       -0.10994533        0.00000000  N
            atom        -0.10990158       -2.06526401        0.00000000  N
            atom        -0.95207783        2.94192433        0.00000000  C
            atom        -2.82359449        1.25907572       -0.00000000  C
            atom         1.25904897        2.82410466        0.00000000  C
            atom        -2.94132172       -0.95209845       -0.00000000  C
            atom        -2.30468456        2.56408095       -0.00000000  C
            atom        -0.45685143        4.30148048       -0.00000000  C
            atom        -4.22814403        0.91141104       -0.00000000  C
            atom         0.91153589        4.22876035       -0.00000000  C
            atom        -4.30076993       -0.45692967       -0.00000000  C
            atom         2.56393317        2.30480497       -0.00000000  C
            atom        -2.56381893       -2.30477191       -0.00000000  C
            atom         2.94139999        0.95203095       -0.00000000  C
            atom        -1.25905801       -2.82415895       -0.00000000  C
            atom         2.82356716       -1.25910889       -0.00000000  C
            atom         0.95196294       -2.94187152        0.00000000  C
            atom         2.30456522       -2.56402994       -0.00000000  C
            atom         4.30081455        0.45684393       -0.00000000  C
            atom        -0.91148027       -4.22879785       -0.00000000  C
            atom         4.22807677       -0.91149539       -0.00000000  C
            atom         0.45685058       -4.30144356       -0.00000000  C
            atom        -3.03437199        3.37532215       -0.00000000  H
            atom        -1.07670565        5.19492236       -0.00000000  H
            atom        -5.05052846        1.62272445       -0.00000000  H
            atom         1.62293176        5.05111468       -0.00000000  H
            atom        -5.19403941       -1.07699782       -0.00000000  H
            atom         3.37555854        3.03405226       -0.00000000  H
            atom        -3.37538746       -3.03405957       -0.00000000  H
            atom         3.03405939       -3.37537307       -0.00000000  H
            atom         5.19408558        1.07693563       -0.00000000  H
            atom        -1.62273102       -5.05128321       -0.00000000  H
            atom         5.05043156       -1.62279145       -0.00000000  H
            atom         1.07668198       -5.19489069       -0.00000000  H
            atom        -0.00007250        0.00002784        0.00000000  Mg
------------------------------------------------------------
  Writing the current geometry to file "geometry.in.next_step".
  Writing estimated Hessian matrix to file 'hessian.aims'

------------------------------------------------------------
          Begin self-consistency loop: Re-initialization.

  Date     :  20260121, Time     :  115129.001
------------------------------------------------------------

  Initializing index lists of integration centers etc. from given atomic structure:
  | Number of centers in hartree potential                       :        37
  | Number of centers in hartree multipole                       :        37
  | Number of centers in electron density summation              :        37
  | Number of centers in basis integrals                         :        37
  | Number of centers in integrals                               :        37
  | Number of centers in hamiltonian                             :        37
  | Number of centers in partition table from touching 0-cell    :        37
  | Number of centers in partition table total                   :        37
  Partitioning the integration grid into batches with parallel hashing+maxmin method.
  Initializing partition tables, free-atom densities, potentials, etc. across the integration grid (initialize_grid_storage).
  | Species        1: outer_partition_radius set to              5.019602836301480 AA .
  | Species        2: outer_partition_radius set to              5.054417573612229 AA .
  | Species        3: outer_partition_radius set to              5.555717568450569 AA .
  | Species        4: outer_partition_radius set to              5.043624274424571 AA .
  | Net number of integration points:   202732
  | of which are non-zero points    :   173763
  Renormalizing the initial density to the exact electron count on the 3D integration grid.
  | Initial density: Formal number of electrons (from input files) :     172.0000000000
  | Integrated number of electrons on 3D grid     :     171.9999341497
  | Charge integration error                      :      -0.0000658503
  | Normalization factor for density and gradient :       1.0000003829
  Renormalizing the free-atom superposition density to the exact electron count on the 3D integration grid.
  | Formal number of electrons (from input files) :     172.0000000000
  | Integrated number of electrons on 3D grid     :     171.9999341497
  | Charge integration error                      :      -0.0000658503
  | Normalization factor for density and gradient :       1.0000003829
  Calculating total energy contributions from superposition of free atom densities.
  Initialize hartree_potential_storage
  Max. number of atoms included in rho_multipole:           37
  Integrating overlap matrix.
  Time summed over all CPUs for integration: real work        0.741 s, elapsed        0.747 s
  Normalizing  ScaLAPACK eigenvectors
  Deallocating overlap matrix.

  End scf reinitialization - timings           :  max(cpu_time)    wall_clock(cpu1)
  | Time for scf. reinitialization              :        0.690 s           0.757 s
  | Boundary condition initialization           :        0.001 s           0.001 s
  | Integration                                 :        0.191 s           0.201 s
  | Grid partitioning                           :        0.071 s           0.071 s
  | Preloading free-atom quantities on grid     :        0.349 s           0.350 s
  | Free-atom superposition energy              :        0.062 s           0.062 s
  | K.-S. eigenvector reorthonormalization      :        0.014 s           0.071 s
------------------------------------------------------------
  Time for density update prior                :  max(cpu_time)    wall_clock(cpu1)
  | self-consistency iterative process          :        0.406 s           0.407 s
------------------------------------------------------------
Convergence:    q app. |  density  | eigen (eV) | Etot (eV) | forces (eV/A) |       CPU time |     Clock time
  SCF    1 :  0.15E-11 |  0.69E+00 |  -0.18E+05 | -0.32E+05 |             . |        1.103 s |        1.105 s
  SCF    2 :  0.66E-12 |  0.20E-03 |   0.86E-02 | -0.53E-06 |             . |        1.096 s |        1.098 s
  SCF    3 :  0.16E-11 |  0.14E-03 |   0.16E-01 | -0.18E-05 |             . |        1.085 s |        1.088 s
  SCF    4 :  0.55E-12 |  0.65E-04 |   0.68E-02 | -0.84E-06 |             . |        1.092 s |        1.094 s
  SCF    5 : -0.30E-12 |  0.24E-04 |  -0.32E-02 |  0.38E-06 |             . |        1.662 s |        2.093 s
  SCF    6 :  0.64E-12 |  0.11E-04 |  -0.39E-02 |  0.33E-06 |             . |        1.353 s |        1.357 s
  SCF    7 :  0.16E-11 |  0.44E-05 |  -0.56E-03 | -0.54E-07 |      0.95E+00 |        4.886 s |        4.896 s

  Total energy components:
  | Sum of eigenvalues            :        -669.55897471 Ha      -18219.62670630 eV
  | XC energy correction          :        -156.11436489 Ha       -4248.08800896 eV
  | XC potential correction       :         200.65626623 Ha        5460.13481285 eV
  | Free-atom electrostatic energy:        -531.83691358 Ha      -14472.01874668 eV
  | Hartree energy correction     :         -31.97569096 Ha        -870.10282130 eV
  | vdW energy correction         :           0.00000000 Ha           0.00000000 eV
  | Entropy correction            :           0.00000000 Ha           0.00000000 eV
  | ---------------------------
  | Total energy                  :       -1188.82967790 Ha      -32349.70147039 eV
  | Total energy, T -> 0          :       -1188.82967790 Ha      -32349.70147039 eV  <-- do not rely on this value for anything but (periodic) metals
  | Electronic free energy        :       -1188.82967790 Ha      -32349.70147039 eV

  Derived energy quantities:
  | Kinetic energy                :        1186.19907938 Ha       32278.11924247 eV
  | Electrostatic energy          :       -2218.91439239 Ha      -60379.73270390 eV
  | Energy correction for multipole
  | error in Hartree potential    :           0.27793838 Ha           7.56308803 eV
  | Sum of eigenvalues per atom                           :        -492.42234341 eV
  | Total energy (T->0) per atom                          :        -874.31625596 eV  <-- do not rely on this value for anything but (periodic) metals
  | Electronic free energy per atom                       :        -874.31625596 eV
  Highest occupied state (VBM) at     -5.04989831 eV
  | Occupation number:      2.00000000

  Lowest unoccupied state (CBM) at    -3.06230333 eV
  | Occupation number:      0.00000000

  Overall HOMO-LUMO gap:      1.98759498 eV.

  | Chemical Potential                          :    -4.05610082 eV
  | Note that, for insulating systems, the printed 'chemical potential' value is not uniquely defined.
  | It can be anywhere in the energy gap, as long as it correctly separates occupied and unoccupied states.
  | In systems with a gap, the physically relevant chemical potential is the VBM or HOMO.

  Self-consistency cycle converged.



  Total energy components:
  | Sum of eigenvalues            :        -669.55897471 Ha      -18219.62670630 eV
  | XC energy correction          :        -156.11436489 Ha       -4248.08800896 eV
  | XC potential correction       :         200.65626623 Ha        5460.13481285 eV
  | Free-atom electrostatic energy:        -531.83691358 Ha      -14472.01874668 eV
  | Hartree energy correction     :         -31.97569096 Ha        -870.10282130 eV
  | vdW energy correction         :          -0.02540814 Ha          -0.69139065 eV
  | Entropy correction            :           0.00000000 Ha           0.00000000 eV
  | ---------------------------
  | Total energy                  :       -1188.85508604 Ha      -32350.39286103 eV
  | Total energy, T -> 0          :       -1188.85508604 Ha      -32350.39286103 eV  <-- do not rely on this value for anything but (periodic) metals
  | Electronic free energy        :       -1188.85508604 Ha      -32350.39286103 eV

  Derived energy quantities:
  | Kinetic energy                :        1186.19907938 Ha       32278.11924247 eV
  | Electrostatic energy          :       -2218.91439239 Ha      -60379.73270390 eV
  | Energy correction for multipole
  | error in Hartree potential    :           0.27793838 Ha           7.56308803 eV
  | Sum of eigenvalues per atom                           :        -492.42234341 eV
  | Total energy (T->0) per atom                          :        -874.33494219 eV  <-- do not rely on this value for anything but (periodic) metals
  | Electronic free energy per atom                       :        -874.33494219 eV
  Removing unitary transformations (pure translations, rotations) from forces on atoms.
  Atomic forces before filtering:
  | Net force on center of mass :  -0.896393E-05  0.611839E-04  0.661257E-10 eV/A
  | Net torque on center of mass:  -0.248968E-10 -0.112514E-10 -0.148674E+00 eV
  Atomic forces after filtering:
  | Net force on center of mass :  -0.209070E-17 -0.174225E-18  0.363461E-25 eV/A
  | Net torque on center of mass:  -0.233070E-18  0.567198E-18 -0.260261E-16 eV

  Energy and forces in a compact form:
  | Total energy uncorrected      :         -0.323503928610323E+05 eV
  | Total energy corrected        :         -0.323503928610323E+05 eV  <-- do not rely on this value for anything but (periodic) metals
  | Electronic free energy        :         -0.323503928610323E+05 eV
  Total atomic forces (unitary forces cleaned) [eV/Ang]:
  |    1         -0.562670492947172E-02         -0.359762865850158E-02          0.474419337127154E-11
  |    2          0.269831438834670E-02         -0.445411908132962E-02          0.604252460131632E-11
  |    3         -0.108369035169092E-02          0.159243712999646E-02         -0.238415732034235E-11
  |    4         -0.284428955990940E-02          0.525252856166702E-02         -0.882983559386374E-11
  |    5          0.415828670486605E-02         -0.166948346761924E-02          0.195757462072764E-10
  |    6         -0.597205566126614E-03          0.512092547276515E-03          0.172402066448742E-10
  |    7          0.305461689161401E-02          0.223646634920747E-04          0.175791106529931E-10
  |    8          0.245506104200660E-02          0.468679424784605E-02          0.177155077316297E-10
  |    9         -0.683778647236167E-02          0.701137110506744E-02         -0.106438112560423E-10
  |   10          0.612859275066597E-02         -0.767871681908481E-02         -0.254337376066277E-11
  |   11          0.437843227922362E-03          0.474795308941999E-03         -0.292120328283164E-11
  |   12         -0.144598659983227E-02         -0.206823573255357E-02         -0.114679000637827E-10
  |   13          0.522921733087780E-02          0.413710291817995E-02         -0.426180811788542E-12
  |   14          0.590143808417990E-02          0.561945118695670E-02         -0.309400991089445E-11
  |   15         -0.737317088485208E-02         -0.852269188144977E-02         -0.756203948284550E-11
  |   16         -0.468691415616993E-02          0.368951622000954E-03          0.215596475749939E-10
  |   17          0.141294098767182E-02          0.153906051904563E-02          0.326881691895159E-10
  |   18         -0.226398538036341E-02          0.185915867316844E-02          0.295984342546574E-10
  |   19          0.155105371674747E-02         -0.354005819548362E-04          0.167053253701683E-10
  |   20          0.690186912544255E-02         -0.780436611693714E-02         -0.117350585510252E-10
  |   21         -0.520842095973285E-02         -0.441743535038407E-02         -0.295925733006349E-11
  |   22         -0.116001212682522E-02          0.208767124381705E-02         -0.597201058365790E-11
  |   23          0.993759832309334E-03          0.579829789188866E-03         -0.540860205598220E-11
  |   24         -0.443568160987523E-02          0.664307634589500E-02          0.882265868283714E-12
  |   25          0.256143068309767E-03         -0.749386700423231E-03         -0.261749965572813E-11
  |   26         -0.117990741678066E-02         -0.137830474534712E-02         -0.623513767113341E-11
  |   27         -0.128305630093486E-02         -0.973514940793335E-03         -0.767562246223472E-11
  |   28         -0.169689750612318E-02          0.373678367346116E-03         -0.531843067639976E-11
  |   29          0.168380903465405E-03         -0.743246908332133E-03         -0.802565466887633E-11
  |   30         -0.129669948590777E-02          0.771348754957225E-03         -0.196605053648487E-11
  |   31          0.378128783187278E-03         -0.802142489470179E-03         -0.427548531986543E-11
  |   32          0.172739087355505E-02         -0.535822818642081E-04         -0.488082418215894E-11
  |   33         -0.445552225366366E-03          0.114968059151912E-03         -0.642395986231160E-11
  |   34          0.123369174547935E-02          0.182450198406319E-03         -0.796168413489702E-11
  |   35          0.205192752112463E-02         -0.261370704450380E-04         -0.848961764032283E-11
  |   36          0.169791358403166E-02          0.137752479786829E-02         -0.813841886182854E-11
  |   37          0.102939097052045E-02         -0.232263213780124E-03         -0.363753057909561E-10

  Relaxation / MD: End force evaluation.       :  max(cpu_time)    wall_clock(cpu1)
  | Time for this force evaluation              :       13.295 s          14.043 s

------------------------------------------------------------
  Geometry optimization: Attempting to predict improved coordinates.

  Removing unitary transformations (pure translations, rotations) from forces on atoms.
  Atomic forces before filtering:
  | Net force on center of mass :  -0.209070E-17 -0.174225E-18  0.363461E-25 eV/A
  | Net torque on center of mass:  -0.233070E-18  0.567198E-18 -0.260261E-16 eV
  Atomic forces after filtering:
  | Net force on center of mass :  -0.696899E-18 -0.522674E-18  0.415384E-25 eV/A
  | Net torque on center of mass:   0.306038E-25 -0.148887E-25 -0.230758E-16 eV
  Net remaining forces (excluding translations, rotations) in present geometry:
  || Forces on atoms   || =   0.852269E-02 eV/A.
  Maximum force component is  0.852269E-02 eV/A.
  Present geometry is converged.

------------------------------------------------------------
  Final atomic structure:
                         x [A]             y [A]             z [A]
            atom         0.11000380        2.06524408        0.00000000  N
            atom        -2.06469076        0.11001326        0.00000000  N
            atom         2.06465413       -0.10994533        0.00000000  N
            atom        -0.10990158       -2.06526401        0.00000000  N
            atom        -0.95207783        2.94192433        0.00000000  C
            atom        -2.82359449        1.25907572       -0.00000000  C
            atom         1.25904897        2.82410466        0.00000000  C
            atom        -2.94132172       -0.95209845       -0.00000000  C
            atom        -2.30468456        2.56408095       -0.00000000  C
            atom        -0.45685143        4.30148048       -0.00000000  C
            atom        -4.22814403        0.91141104       -0.00000000  C
            atom         0.91153589        4.22876035       -0.00000000  C
            atom        -4.30076993       -0.45692967       -0.00000000  C
            atom         2.56393317        2.30480497       -0.00000000  C
            atom        -2.56381893       -2.30477191       -0.00000000  C
            atom         2.94139999        0.95203095       -0.00000000  C
            atom        -1.25905801       -2.82415895       -0.00000000  C
            atom         2.82356716       -1.25910889       -0.00000000  C
            atom         0.95196294       -2.94187152        0.00000000  C
            atom         2.30456522       -2.56402994       -0.00000000  C
            atom         4.30081455        0.45684393       -0.00000000  C
            atom        -0.91148027       -4.22879785       -0.00000000  C
            atom         4.22807677       -0.91149539       -0.00000000  C
            atom         0.45685058       -4.30144356       -0.00000000  C
            atom        -3.03437199        3.37532215       -0.00000000  H
            atom        -1.07670565        5.19492236       -0.00000000  H
            atom        -5.05052846        1.62272445       -0.00000000  H
            atom         1.62293176        5.05111468       -0.00000000  H
            atom        -5.19403941       -1.07699782       -0.00000000  H
            atom         3.37555854        3.03405226       -0.00000000  H
            atom        -3.37538746       -3.03405957       -0.00000000  H
            atom         3.03405939       -3.37537307       -0.00000000  H
            atom         5.19408558        1.07693563       -0.00000000  H
            atom        -1.62273102       -5.05128321       -0.00000000  H
            atom         5.05043156       -1.62279145       -0.00000000  H
            atom         1.07668198       -5.19489069       -0.00000000  H
            atom        -0.00007250        0.00002784        0.00000000  Mg
------------------------------------------------------------

------------------------------------------------------------------------------
  Final output of selected total energy values:

  The following output summarizes some interesting total energy values
  at the end of a run (AFTER all relaxation, molecular dynamics, etc.).

  | Total energy of the DFT / Hartree-Fock s.c.f. calculation      :         -32350.392861032 eV
  | Final zero-broadening corrected energy (caution - metals only) :         -32350.392861032 eV
  | For reference only, the value of 1 Hartree used in FHI-aims is :             27.211384500 eV

  Before relying on these values, please be sure to understand exactly which
  total energy value is referred to by a given number. Different objects may
  all carry the same name 'total energy'. Definitions:

  Total energy of the DFT / Hartree-Fock s.c.f. calculation:
  | Note that this energy does not include ANY quantities calculated after the
  | s.c.f. cycle, in particular not ANY RPA, MP2, etc. many-body perturbation terms.

  Final zero-broadening corrected energy:
  | For metallic systems only, a broadening of the occupation numbers at the Fermi
  | level can be extrapolated back to zero broadening by an electron-gas inspired
  | formula. For all systems that are not real metals, this value can be
  | meaningless and should be avoided.

------------------------------------------------------------------------------
  Methods described in the following list of references were used in this FHI-aims run.
  If you publish the results, please make sure to cite these reference if they apply.
  FHI-aims is an academic code, and for our developers (often, Ph.D. students
  and postdocs), scientific credit in the community is essential.
  Thank you for helping us!

  For any use of FHI-aims, please cite:

    Volker Blum, Ralf Gehrke, Felix Hanke, Paula Havu, Ville Havu,
    Xinguo Ren, Karsten Reuter, and Matthias Scheffler
    'Ab initio molecular simulations with numeric atom-centered orbitals'
    Computer Physics Communications 180, 2175-2196 (2009)
    http://doi.org/10.1016/j.cpc.2009.06.022


  The ELSI infrastructure was used in your run to solve the Kohn-Sham electronic structure.
  Please check out https://wordpress.elsi-interchange.org to learn more.
  If scalability is important for your project, please acknowledge ELSI by citing:

    V. W-z. Yu, F. Corsetti, A. Garcia, W. P. Huhn, M. Jacquelin, W. Jia,
    B. Lange, L. Lin, J. Lu, W. Mi, A. Seifitokaldani, A. Vazquez-Mayagoitia,
    C. Yang, H. Yang, and V. Blum
    'ELSI: A unified software interface for Kohn-Sham electronic structure solvers'
    Computer Physics Communications 222, 267-285 (2018).
    http://doi.org/10.1016/j.cpc.2017.09.007


  For the real-space grid partitioning and parallelization used in this calculation, please cite:

    Ville Havu, Volker Blum, Paula Havu, and Matthias Scheffler,
    'Efficient O(N) integration for all-electron electronic structure calculation'
    'using numerically tabulated basis functions'
    Journal of Computational Physics 228, 8367-8379 (2009).
    http://doi.org/10.1016/j.jcp.2009.08.008

  Of course, there are many other important community references, e.g., those cited in the
  above references. Our list is limited to references that describe implementations in the
  FHI-aims code. The reason is purely practical (length of this list) - please credit others as well.
------------------------------------------------------------
Warnings summary:

At least    0 warnings were raised during execution.

------------------------------------------------------------
          Leaving FHI-aims.
          Date     :  20260121, Time     :  115143.183

          Computational steps:
          | Number of self-consistency cycles          :           21
          | Number of SCF (re)initializations          :            2
          | Number of relaxation steps                 :            1

          Detailed time accounting                     :  max(cpu_time)    wall_clock(cpu1)
          | Total time                                  :       36.046 s          48.454 s
          | Preparation time                            :        0.183 s           3.383 s
          | Boundary condition initalization            :        0.013 s           0.100 s
          | Grid partitioning                           :        0.151 s           0.289 s
          | Preloading free-atom quantities on grid     :        0.700 s           1.430 s
          | Free-atom superposition energy              :        0.125 s           0.160 s
          | Total time for integrations                 :       10.150 s          11.852 s
          | Total time for solution of K.-S. equations  :        0.972 s           2.284 s
          | Total time for EV reorthonormalization      :        0.014 s           0.071 s
          | Total time for density & force components   :       13.264 s          14.040 s
          | Total time for mixing                       :        0.170 s           0.319 s
          | Total time for Hartree multipole update     :        0.132 s           0.177 s
          | Total time for Hartree multipole sum        :        7.037 s           7.117 s
          | Total time for total energy evaluation      :        0.001 s           0.030 s
          | Total time NSC force correction             :        1.809 s           1.812 s
          | Total time for scaled ZORA corrections      :        0.000 s           0.000 s
          | Total time for vdW-like corrections         :        0.230 s           0.375 s

          Partial memory accounting:
          | Residual value for overall tracked memory usage across tasks:     0.000000 MB (should be 0.000000 MB)
          | Peak values for overall tracked memory usage:
          |   Minimum:       36.230 MB (on task 3 after allocating hessian_basis_wave)
          |   Maximum:       36.387 MB (on task 0 after allocating hessian_basis_wave)
          |   Average:       36.312 MB
          | Largest tracked array allocation:
          |   Minimum:        9.281 MB (previous_rho_gradient_diff on task 0)
          |   Maximum:        9.289 MB (previous_rho_gradient_diff on task 1)
          |   Average:        9.284 MB
          Note:  These values currently only include a subset of arrays which are explicitly tracked.
          The "true" memory usage will be greater.

          Have a nice day.
------------------------------------------------------------
