------------------------------------------------------------
          Invoking FHI-aims ...

          When using FHI-aims, please cite the following reference:

            Volker Blum, Ralf Gehrke, Felix Hanke, Paula Havu,
            Ville Havu, Xinguo Ren, Karsten Reuter, and Matthias Scheffler,
            'Ab Initio Molecular Simulations with Numeric Atom-Centered Orbitals',
            Computer Physics Communications 180, 2175-2196 (2009)

          In addition, many other developments in FHI-aims are likely important for
          your particular application. If so, please cite them. A partial list of references
          is written at the end of this file. Thank you for giving credit to the authors
          of these developments.

          For general information about FHI-aims please find us at

            https://fhi-aims.org

          Online tutorials can be found at

            https://fhi-aims-club.gitlab.io/tutorials/tutorials-overview/

          For any questions about FHI-aims, please visit our slack channel at

            https://fhi-aims.slack.com

          and our main development and support site at

            https://aims-git.rz-berlin.mpg.de .

          The latter site, in particular, has a wiki to collect information, as well
          as an issue tracker to log discussions, suggest improvements, and report issues
          or bugs. https://aims-git.rz-berlin.mpg.de is also the main development site
          of the project and all new and updated code versions can be obtained there.
          Please send an email to aims-coordinators@fhi-berlin.mpg.de and we will add
          you to these sites. They are for you and everyone is welcome there.

------------------------------------------------------------



  Date     :  20260605, Time     :  102742.027
  Time zero on CPU 1             :   0.702816000000000E+00  s.
  Internal wall clock time zero  :           549887262.027  s.

  FHI-aims created a unique identifier for this run for later identification
  aims_uuid : C99912AE-3680-48E5-A493-C2F3EFF83208

  Build configuration of the current instance of FHI-aims
  -------------------------------------------------------
  FHI-aims version      : 250320
  Commit number         : GITDIR-NOTFOUND
  CMake host system     : Linux-5.14.0-503.26.1.el9_5.x86_64
  CMake version         : 3.27.7
  Fortran compiler      : /appl/scibuilder-spack/aalto-rhel9-prod/2024-01/software/linux-rhel9-haswell/gcc-12.3.0/openmpi-4.1.6-wr26yds/bin/mpifort (GNU) version 12.3.0
  Fortran compiler flags: -O3 -mavx -mavx2 -mfma -ffree-line-length-none -fallow-argument-mismatch
  C compiler            : /appl/scibuilder-spack/aalto-rhel9-prod/2024-01-compilers/software/linux-rhel9-haswell/gcc-11.4.1/gcc-12.3.0-xh5vv5d/bin/gcc (GNU) version 12.3.0
  C compiler flags      : -O3 -mavx -mavx2 -mfma -DNDEBUG -funroll-loops
  C++ compiler          : /appl/scibuilder-spack/aalto-rhel9-prod/2024-01-compilers/software/linux-rhel9-haswell/gcc-11.4.1/gcc-12.3.0-xh5vv5d/bin/g++ (GNU) version 12.3.0
  C++ compiler flags    : -O3 -mavx -mavx2 -mfma -DNDEBUG -funroll-loops
  HIP compiler          :
  HIP compiler flags    :
  HIP GPU arch          :
  ELPA2 kernel          : AVX2
  Using MPI
  Using ScaLAPACK
  Using LibXC
  Using i-PI
  Using RLSY
  Linking against: /appl/scibuilder-spack/aalto-rhel9-prod/2024-01/software/linux-rhel9-haswell/gcc-12.3.0/netlib-scalapack-2.2.0-gywln2j/lib/libscalapack.so
                   /appl/scibuilder-spack/aalto-rhel9-prod/2024-01/software/linux-rhel9-haswell/gcc-12.3.0/openblas-0.3.24-ca7rirz/lib/libopenblas.so

  Using       24 parallel tasks.
  Task        0 on host milan7.int.triton.aalto.fi reporting.
  Task        1 on host milan7.int.triton.aalto.fi reporting.
  Task        2 on host milan7.int.triton.aalto.fi reporting.
  Task        3 on host milan7.int.triton.aalto.fi reporting.
  Task        4 on host milan7.int.triton.aalto.fi reporting.
  Task        5 on host milan7.int.triton.aalto.fi reporting.
  Task        6 on host milan7.int.triton.aalto.fi reporting.
  Task        7 on host milan7.int.triton.aalto.fi reporting.
  Task        8 on host milan7.int.triton.aalto.fi reporting.
  Task        9 on host milan7.int.triton.aalto.fi reporting.
  Task       10 on host milan7.int.triton.aalto.fi reporting.
  Task       11 on host milan7.int.triton.aalto.fi reporting.
  Task       12 on host milan7.int.triton.aalto.fi reporting.
  Task       13 on host milan7.int.triton.aalto.fi reporting.
  Task       14 on host milan7.int.triton.aalto.fi reporting.
  Task       15 on host milan7.int.triton.aalto.fi reporting.
  Task       16 on host milan7.int.triton.aalto.fi reporting.
  Task       17 on host milan7.int.triton.aalto.fi reporting.
  Task       18 on host milan7.int.triton.aalto.fi reporting.
  Task       19 on host milan7.int.triton.aalto.fi reporting.
  Task       20 on host milan7.int.triton.aalto.fi reporting.
  Task       21 on host milan7.int.triton.aalto.fi reporting.
  Task       22 on host milan7.int.triton.aalto.fi reporting.
  Task       23 on host milan7.int.triton.aalto.fi reporting.

  Obtaining array dimensions for all initial allocations:
  
  -----------------------------------------------------------------------
  Parsing control.in (first pass over file, find array dimensions only).
  The contents of control.in will be repeated verbatim below
  unless switched off by setting 'verbatim_writeout .false.' .
  in the first line of control.in .
  -----------------------------------------------------------------------
  
  xc            pbe
  spin collinear
  relativistic  atomic_zora scalar
  vdw_correction_hirshfeld
  relax_geometry none
  output_level MD_light
  sc_accuracy_rho 1e-07
  elsi_restart write scf_converged
  #elsi_restart read
  
  ################################################################################
  #
  #  FHI-aims code project
  #  VB, Fritz-Haber Institut, 2009
  #
  #  Suggested "light" defaults for C atom (to be pasted into control.in file)
  #  Be sure to double-check any results obtained with these settings for post-processing,
  #  e.g., with the "tight" defaults and larger basis sets.
  #
  ################################################################################
    species        C
  #     global species definitions
      nucleus             6
      mass                12.0107
  #
      l_hartree           4
  #
      cut_pot             3.5  1.5  1.0
      basis_dep_cutoff    1e-4
  #
      radial_base         34 5.0
      radial_multiplier   1
      angular_grids specified
        division   0.3326   50
        division   0.5710  110
        division   0.7727  194
        division   0.8772  302
  #      division   0.9334  434
  #      division   0.9625  590
  #      division   0.9924  770
  #      division   1.0230  974
  #      division   1.4589 1202
  #     outer_grid  974
       outer_grid 302
  ################################################################################
  #
  #  Definition of "minimal" basis
  #
  ################################################################################
  #     valence basis states
      valence      2  s   2.
      valence      2  p   2.
  #     ion occupancy
      ion_occ      2  s   1.
      ion_occ      2  p   1.
  ################################################################################
  #
  #  Suggested additional basis functions. For production calculations,
  #  uncomment them one after another (the most important basis functions are
  #  listed first).
  #
  #  Constructed for dimers: 1.0 A, 1.25 A, 1.5 A, 2.0 A, 3.0 A
  #
  ################################################################################
  #  "First tier" - improvements: -1214.57 meV to -155.61 meV
       hydro 2 p 1.7
       hydro 3 d 6
       hydro 2 s 4.9
  #  "Second tier" - improvements: -67.75 meV to -5.23 meV
  #     hydro 4 f 9.8
  #     hydro 3 p 5.2
  #     hydro 3 s 4.3
  #     hydro 5 g 14.4
  #     hydro 3 d 6.2
  #  "Third tier" - improvements: -2.43 meV to -0.60 meV
  #     hydro 2 p 5.6
  #     hydro 2 s 1.4
  #     hydro 3 d 4.9
  #     hydro 4 f 11.2
  #  "Fourth tier" - improvements: -0.39 meV to -0.18 meV
  #     hydro 2 p 2.1
  #     hydro 5 g 16.4
  #     hydro 4 d 13.2
  #     hydro 3 s 13.6
  #     hydro 4 f 17.6
  #  Further basis functions - improvements: -0.08 meV and below
  #     hydro 3 s 2
  #     hydro 3 p 6
  #     hydro 4 d 20
  
  ################################################################################
  #
  #  FHI-aims code project
  #  VB, Fritz-Haber Institut, 2009
  #
  #  Suggested "light" defaults for Fe atom (to be pasted into control.in file)
  #  Be sure to double-check any results obtained with these settings for post-processing,
  #  e.g., with the "tight" defaults and larger basis sets.
  #
  ################################################################################
    species        Fe
  #     global species definitions
      nucleus             26
      mass                55.845
  #
      l_hartree           4
  #
      cut_pot             3.5          1.5  1.0
      basis_dep_cutoff    1e-4
  #
      radial_base         51 5.0
      radial_multiplier   1
      angular_grids       specified
        division   0.4337   50
        division   0.8154  110
        division   1.1046  194
        division   1.3713  302
  #      division   1.5424  434
  #      division   1.7365  590
  #      division   1.9587  770
  #      division   1.9990  974
  #      division   2.4139 1202
  #      outer_grid  1202
        outer_grid  302
  ################################################################################
  #
  #  Definition of "minimal" basis
  #
  ################################################################################
  #     valence basis states
      valence      4  s   2.
      valence      3  p   6.
      valence      3  d   6.
  #     ion occupancy
      ion_occ      4  s   1.
      ion_occ      3  p   6.
      ion_occ      3  d   5.
  ################################################################################
  #
  #  Suggested additional basis functions. For production calculations,
  #  uncomment them one after another (the most important basis functions are
  #  listed first).
  #
  #  Constructed for dimers: 1.45 A, 1.725 A, 2.25 A, 3.00 A, 4.00 A
  #
  ################################################################################
  #  "First tier" - improvements: -300.53 meV to -10.50 meV
       hydro 4 f 9.4
       hydro 2 p 2.2
  #     hydro 5 g 12.4
       hydro 3 d 3.1
       ionic 4 s auto
  #  "Second tier" - improvements: -16.31 meV to -0.65 meV
  #     hydro 3 d 6.2
  #     hydro 6 h 19.2
  #     hydro 4 f 15.2
  #     hydro 4 f 6.6
  #     hydro 3 p 3
  #     hydro 5 g 13.2
  #     hydro 1 s 0.65
  #  "Third tier" - improvements: -1.60 meV to -0.10 meV
  #     hydro 4 d 7.8
  #     hydro 4 p 19.6
  #     hydro 4 d 10.4
  #     ionic 4 p auto
  #     hydro 6 h 17.6
  #     hydro 5 f 27.2
  #     hydro 4 s 4.8
  #  "Fourth tier": improvements -0.13 meV and below
  #     hydro 5 f 12
  #     hydro 5 g 10.4
  #     hydro 5 p 8.4
  #     hydro 4 d 14.8
  #     hydro 2 s 1.9
  
  ################################################################################
  #
  #  FHI-aims code project
  #  VB, Fritz-Haber Institut, 2009
  #
  #  Suggested "light" defaults for H atom (to be pasted into control.in file)
  #  Be sure to double-check any results obtained with these settings for post-processing,
  #  e.g., with the "tight" defaults and larger basis sets.
  #
  ################################################################################
    species        H
  #     global species definitions
      nucleus             1
      mass                1.00794
  #
      l_hartree           4
  #
      cut_pot             3.5  1.5  1.0
      basis_dep_cutoff    1e-4
  #
      radial_base         24 5.0
      radial_multiplier   1
      angular_grids       specified
        division   0.2421   50
        division   0.3822  110
        division   0.4799  194
        division   0.5341  302
  #      division   0.5626  434
  #      division   0.5922  590
  #      division   0.6542  770
  #      division   0.6868 1202
  #      outer_grid  770
        outer_grid  302
  ################################################################################
  #
  #  Definition of "minimal" basis
  #
  ################################################################################
  #     valence basis states
      valence      1  s   1.
  #     ion occupancy
      ion_occ      1  s   0.5
  ################################################################################
  #
  #  Suggested additional basis functions. For production calculations,
  #  uncomment them one after another (the most important basis functions are
  #  listed first).
  #
  #  Basis constructed for dimers: 0.5 A, 0.7 A, 1.0 A, 1.5 A, 2.5 A
  #
  ################################################################################
  #  "First tier" - improvements: -1014.90 meV to -62.69 meV
       hydro 2 s 2.1
       hydro 2 p 3.5
  #  "Second tier" - improvements: -12.89 meV to -1.83 meV
  #     hydro 1 s 0.85
  #     hydro 2 p 3.7
  #     hydro 2 s 1.2
  #     hydro 3 d 7
  #  "Third tier" - improvements: -0.25 meV to -0.12 meV
  #     hydro 4 f 11.2
  #     hydro 3 p 4.8
  #     hydro 4 d 9
  #     hydro 3 s 3.2
  
  ################################################################################
  #
  #  FHI-aims code project
  #  VB, Fritz-Haber Institut, 2009
  #
  #  Suggested "light" defaults for N atom (to be pasted into control.in file)
  #  Be sure to double-check any results obtained with these settings for post-processing,
  #  e.g., with the "tight" defaults and larger basis sets.
  #
  ################################################################################
    species        N
  #     global species definitions
      nucleus             7
      mass                14.0067
  #
      l_hartree           4
  #
      cut_pot             3.5  1.5  1.0
      basis_dep_cutoff    1e-4
  #
      radial_base         35 5.0
      radial_multiplier   1
      angular_grids       specified
        division   0.2599   50
        division   0.4601  110
        division   0.5885  194
        division   0.6503  302
  #      division   0.6939  434
  #      division   0.7396  590
  #      division   0.7632  770
  #      division   0.8122  974
  #      division   1.1604 1202
  #      outer_grid  974
        outer_grid  302
  ################################################################################
  #
  #  Definition of "minimal" basis
  #
  ################################################################################
  #     valence basis states
      valence      2  s   2.
      valence      2  p   3.
  #     ion occupancy
      ion_occ      2  s   1.
      ion_occ      2  p   2.
  ################################################################################
  #
  #  Suggested additional basis functions. For production calculations,
  #  uncomment them one after another (the most important basis functions are
  #  listed first).
  #
  #  Constructed for dimers: 1.0 A, 1.1 A, 1.5 A, 2.0 A, 3.0 A
  #
  ################################################################################
  #  "First tier" - improvements: -1193.42 meV to -220.60 meV
       hydro 2 p 1.8
       hydro 3 d 6.8
       hydro 3 s 5.8
  #  "Second tier" - improvements: -80.21 meV to -6.86 meV
  #     hydro 4 f 10.8
  #     hydro 3 p 5.8
  #     hydro 1 s 0.8
  #     hydro 5 g 16
  #     hydro 3 d 4.9
  #  "Third tier" - improvements: -4.29 meV to -0.53 meV
  #     hydro 3 s 16
  #     ionic 2 p auto
  #     hydro 3 d 6.6
  #     hydro 4 f 11.6
  #  "Fourth tier" - improvements: -0.75 meV to -0.25 meV
  #     hydro 2 p 4.5
  #     hydro 2 s 2.4
  #     hydro 5 g 14.4
  #     hydro 4 d 14.4
  #     hydro 4 f 16.8
  # Further basis functions - -0.21 meV and below
  #     hydro 3 p 14.8
  #     hydro 3 s 4.4
  #     hydro 3 d 19.6
  #     hydro 5 g 12.8
  
  -----------------------------------------------------------------------
  Completed first pass over input file control.in .
  -----------------------------------------------------------------------
  
  
  -----------------------------------------------------------------------
  Parsing geometry.in (first pass over file, find array dimensions only).
  The contents of geometry.in will be repeated verbatim below
  unless switched off by setting 'verbatim_writeout .false.' .
  in the first line of geometry.in .
  -----------------------------------------------------------------------
  
  #
  # This is the geometry file that corresponds to the current relaxation step.
  # If you do not want this file to be written, set the "write_restart_geometry" flag to .false.
  #  aims_uuid : 0A1C618F-919D-4E12-AF8A-4F0648420C9D
  #
  atom       0.673397079365     -0.385542252987      0.130633238548 Fe
    initial_moment       2.00000000
  atom       3.915157785209      0.578294038846      0.132855674875 N
  atom       1.637232564401     -3.627302339899      0.133446208082 N
  atom      -0.247364280032     -2.085559127526      0.130916795451 N
  atom      -1.026618424606      0.535217671153      0.128570864917 N
  atom       1.594157989783      1.314473941643      0.130364446895 N
  atom       2.373413532689     -1.306302786237      0.132681651465 N
  atom      -0.290437987572      2.856218233487      0.127676369032 N
  atom      -2.568363362635     -1.349380393617      0.128556813802 N
  atom      -2.639142957302      2.209438612635      0.126251449341 C
  atom      -1.217186048401      1.908932206524      0.127541712974 C
  atom       1.003282307294      2.569136417439      0.128979497054 C
  atom       2.029801554561      3.597818706682      0.129182808548 C
  atom      -3.309963073198      0.970857630038      0.126522824539 C
  atom      -2.281280303703     -0.055659650433      0.127964126269 C
  atom      -0.613788359905     -5.765818232016      0.133280194869 C
  atom      -3.128975667254     -4.403901422143      0.130161867411 C
  atom      -1.818793058074     -6.470095212676      0.132828578336 C
  atom      -4.706877321049      0.901642802637      0.125509843962 C
  atom      -3.344956747219      3.416829679909      0.124952053516 C
  atom      -5.411152372720      2.106648058337      0.124202549934 C
  atom      -3.059623917929     -5.797859636764      0.131276030010 C
  atom      -1.621078322097     -2.276128168037      0.129917349569 C
  atom      -1.921585230740     -3.698085628458      0.130648299598 C
  atom       3.268380987970      2.926997677719      0.130823803458 C
  atom       2.967871851779      1.505041322964      0.131485985314 C
  atom      -4.738915014556      3.347478960282      0.123931493153 C
  atom       3.628075748876     -0.715426585920      0.133339749873 C
  atom       4.656758139040     -1.741944963028      0.134670944049 C
  atom       2.563980499140     -2.680016439515      0.133591091686 C
  atom       3.985936678857     -2.980525349208      0.134816008254 C
  atom      -0.683004281902     -4.368904302764      0.132158677624 C
  atom       0.343512289362     -3.340220098265      0.132250179781 C
  atom       1.960590518760      4.994733147615      0.128083746636 C
  atom       4.475773501923      3.632809520041      0.131487110388 C
  atom       3.165597339778      5.699006587297      0.128712822279 C
  atom       4.406426310689      5.026767821753      0.130408654052 C
  atom       6.053672504600     -1.672732596504      0.135660081376 C
  atom       4.691748104575     -4.187917699708      0.135945508970 C
  atom       6.757945554893     -2.877739333206      0.136795296876 C
  atom       6.085706480029     -4.118569285174      0.136930633597 C
  atom       6.563915961395     -0.709421531293      0.135515108603 H
  atom       4.164152634702     -5.141910716979      0.136038054551 H
  atom       6.670643244859     -5.039464071113      0.137806975872 H
  atom      -5.217118727774     -0.061669337542      0.125735254799 H
  atom      -2.817363349699      4.370823823376      0.124771903487 H
  atom      -5.323853233111      4.268372698693      0.122913779672 H
  atom      -6.501974955841      2.093909090536      0.123392340389 H
  atom       0.349524131930     -6.276057652623      0.134465860986 H
  atom      -4.082970135696     -3.876309929826      0.128975752634 H
  atom      -3.980517195816     -6.382799381224      0.130956446965 H
  atom      -1.806053615239     -7.560917746961      0.133674708200 H
  atom       0.997280183204      5.504976429802      0.126811612051 H
  atom       5.429765754039      3.105214212496      0.132767227617 H
  atom       5.327321285110      5.611704778643      0.130875868664 H
  atom       3.152861153628      6.789829199281      0.127903669451 H
  atom       7.848768173799     -2.865002261699      0.137567053101 H
  #
  # What follows is the current estimated Hessian matrix constructed by the BFGS algorithm.
  # This is NOT the true Hessian matrix of the system.
  # If you do not want this information here, switch it off using the "hessian_to_restart_geometry" keyword.
  #
  trust_radius             0.2000000030
  hessian_file
  
  -----------------------------------------------------------------------
  Completed first pass over input file geometry.in .
  -----------------------------------------------------------------------
  

  Basic array size parameters:
  | Number of species                 :        4
  | Number of atoms                   :       57
  | Max. basis fn. angular momentum   :        3
  | Max. atomic/ionic basis occupied n:        4
  | Max. number of basis fn. types    :        3
  | Max. radial fns per species/type  :        7
  | Max. logarithmic grid size        :     1397
  | Max. radial integration grid size :       51
  | Max. angular integration grid size:      302
  | Max. angular grid division number :        8
  | Radial grid for Hartree potential :     1397
  | Number of spin channels           :        2

  Definition of standardized fundamental physical constants in this FHI-aims run:
  | Using the set of values used in FHI-aims up to 2024, which combines values from
  | different CODATA sets - see constants.f90.
  | Use the 'codata' keyword in control.in to change this selection.

  Memory overcommitment is allowed on your operating system.

------------------------------------------------------------
          Reading file control.in.
------------------------------------------------------------
  XC: Using PBE gradient-corrected functionals.
  Spin treatment: Spin density functional theory - collinear spins.
  Scalar relativistic treatment of kinetic energy: on-site free-atom approximation to ZORA.
  Geometry relaxation: No relaxation will be performed.
  Requested output level: MD_light
  Convergence accuracy of self-consistent charge density:  0.1000E-06
  Using elsi_restart infrastructure.
  Writing only converged density matrices to file.

  Reading configuration options for species C                   .
  | Found nuclear charge :   6.0000
  | Found atomic mass :    12.010700000000000      amu
  | Found l_max for Hartree potential  :   4
  | Found cutoff potl. onset [A], width [A], scale factor :    3.50000    1.50000    1.00000
  | Threshold for basis-dependent cutoff potential is   0.100000E-03
  | Found data for basic radial integration grid :    34 points, outermost radius =    5.000 A
  | Found multiplier for basic radial grid :   1
  | Found angular grid specification: user-specified.
  | Specified grid contains     5 separate shells.
  | Check grid settings after all constraints further below.
  | Found free-atom valence shell :  2 s   2.000
  | Found free-atom valence shell :  2 p   2.000
  | Found free-ion valence shell :  2 s   1.000
  | Found free-ion valence shell :  2 p   1.000
  | Found hydrogenic basis function :  2 p   1.700
  | Found hydrogenic basis function :  3 d   6.000
  | Found hydrogenic basis function :  2 s   4.900
 | Encountered keyword species, ending the description of species C                   .
  Species C                   : Missing cutoff potential type.
  Defaulting to exp(1/x)/(1-x)^2 type cutoff potential.
  Species C : No 'logarithmic' tag. Using default grid for free atom:
  | Default logarithmic grid data [bohr] : 0.1000E-03 0.1000E+03 0.1012E+01
  Species C : On-site basis accuracy parameter (for Gram-Schmidt orthonormalisation) not specified.
  Using default value basis_acc =  0.1000000E-03.
  Species C                   : Using default innermost maximum threshold i_radial=  2 for radial functions.
  Species C                   : Default cutoff onset for free atom density etc. : 0.35000000E+01 AA.
  Species C                   : Basic radial grid will be enhanced according to radial_multiplier =   1, to contain    34 grid points.

  Reading configuration options for species Fe                  .
  | Found nuclear charge :  26.0000
  | Found atomic mass :    55.844999999999999      amu
  | Found l_max for Hartree potential  :   4
  | Found cutoff potl. onset [A], width [A], scale factor :    3.50000    1.50000    1.00000
  | Threshold for basis-dependent cutoff potential is   0.100000E-03
  | Found data for basic radial integration grid :    51 points, outermost radius =    5.000 A
  | Found multiplier for basic radial grid :   1
  | Found angular grid specification: user-specified.
  | Specified grid contains     5 separate shells.
  | Check grid settings after all constraints further below.
  | Found free-atom valence shell :  4 s   2.000
  | Found free-atom valence shell :  3 p   6.000
  | Found free-atom valence shell :  3 d   6.000
  | Found free-ion valence shell :  4 s   1.000
  | Found free-ion valence shell :  3 p   6.000
  | Found free-ion valence shell :  3 d   5.000
  | Found hydrogenic basis function :  4 f   9.400
  | Found hydrogenic basis function :  2 p   2.200
  | Found hydrogenic basis function :  3 d   3.100
  | Found ionic basis function :  4 s , default cutoff radius.
 | Encountered keyword species, ending the description of species Fe                  .
  Species Fe                  : Missing cutoff potential type.
  Defaulting to exp(1/x)/(1-x)^2 type cutoff potential.
  Species Fe: No 'logarithmic' tag. Using default grid for free atom:
  | Default logarithmic grid data [bohr] : 0.1000E-03 0.1000E+03 0.1012E+01
  | Will include ionic basis functions of  2.0-fold positive Fe                   ion.
  Species Fe: On-site basis accuracy parameter (for Gram-Schmidt orthonormalisation) not specified.
  Using default value basis_acc =  0.1000000E-03.
  Species Fe                  : Using default innermost maximum threshold i_radial=  2 for radial functions.
  Species Fe                  : Default cutoff onset for free atom density etc. : 0.35000000E+01 AA.
  Species Fe                  : Basic radial grid will be enhanced according to radial_multiplier =   1, to contain    51 grid points.

  Reading configuration options for species H                   .
  | Found nuclear charge :   1.0000
  | Found atomic mass :    1.0079400000000001      amu
  | Found l_max for Hartree potential  :   4
  | Found cutoff potl. onset [A], width [A], scale factor :    3.50000    1.50000    1.00000
  | Threshold for basis-dependent cutoff potential is   0.100000E-03
  | Found data for basic radial integration grid :    24 points, outermost radius =    5.000 A
  | Found multiplier for basic radial grid :   1
  | Found angular grid specification: user-specified.
  | Specified grid contains     5 separate shells.
  | Check grid settings after all constraints further below.
  | Found free-atom valence shell :  1 s   1.000
  | Found free-ion valence shell :  1 s   0.500
  | Found hydrogenic basis function :  2 s   2.100
  | Found hydrogenic basis function :  2 p   3.500
 | Encountered keyword species, ending the description of species H                   .
  Species H                   : Missing cutoff potential type.
  Defaulting to exp(1/x)/(1-x)^2 type cutoff potential.
  Species H : No 'logarithmic' tag. Using default grid for free atom:
  | Default logarithmic grid data [bohr] : 0.1000E-03 0.1000E+03 0.1012E+01
  Species H : On-site basis accuracy parameter (for Gram-Schmidt orthonormalisation) not specified.
  Using default value basis_acc =  0.1000000E-03.
  Species H                   : Using default innermost maximum threshold i_radial=  2 for radial functions.
  Species H                   : Default cutoff onset for free atom density etc. : 0.35000000E+01 AA.
  Species H                   : Basic radial grid will be enhanced according to radial_multiplier =   1, to contain    24 grid points.

  Reading configuration options for species N                   .
  | Found nuclear charge :   7.0000
  | Found atomic mass :    14.006700000000000      amu
  | Found l_max for Hartree potential  :   4
  | Found cutoff potl. onset [A], width [A], scale factor :    3.50000    1.50000    1.00000
  | Threshold for basis-dependent cutoff potential is   0.100000E-03
  | Found data for basic radial integration grid :    35 points, outermost radius =    5.000 A
  | Found multiplier for basic radial grid :   1
  | Found angular grid specification: user-specified.
  | Specified grid contains     5 separate shells.
  | Check grid settings after all constraints further below.
  | Found free-atom valence shell :  2 s   2.000
  | Found free-atom valence shell :  2 p   3.000
  | Found free-ion valence shell :  2 s   1.000
  | Found free-ion valence shell :  2 p   2.000
  | Found hydrogenic basis function :  2 p   1.800
  | Found hydrogenic basis function :  3 d   6.800
  | Found hydrogenic basis function :  3 s   5.800
  Species N                   : Missing cutoff potential type.
  Defaulting to exp(1/x)/(1-x)^2 type cutoff potential.
  Species N : No 'logarithmic' tag. Using default grid for free atom:
  | Default logarithmic grid data [bohr] : 0.1000E-03 0.1000E+03 0.1012E+01
  Species N : On-site basis accuracy parameter (for Gram-Schmidt orthonormalisation) not specified.
  Using default value basis_acc =  0.1000000E-03.
  Species N                   : Using default innermost maximum threshold i_radial=  2 for radial functions.
  Species N                   : Default cutoff onset for free atom density etc. : 0.35000000E+01 AA.
  Species N                   : Basic radial grid will be enhanced according to radial_multiplier =   1, to contain    35 grid points.

  Finished reading input file 'control.in'.

------------------------------------------------------------


------------------------------------------------------------
          Reading geometry description geometry.in.
------------------------------------------------------------
 * Large trust radius value found - resetting to the current value of max_atomic_move,      0.20000000 A.
  Found keyword 'hessian_file', indicating that this is the continuation of a structure optimization.
  However, the control.in file does not request the geometry to be optimized.
  Ignoring the request for a file 'hessian.aims' to be present.
  | The smallest distance between any two atoms is         1.09009936 AA.
  | The first atom of this pair is atom number                     38 .
  | The second atom of this pair is atom number                    42 .
  Input structure read successfully.
  The structure contains       57 atoms,  and a total of        290.000 electrons.

  Input geometry:
  | No unit cell requested.
  | Atomic structure:
  |       Atom                x [A]            y [A]            z [A]
  |    1: Species Fe            0.67339708       -0.38554225        0.13063324
  |    2: Species N             3.91515779        0.57829404        0.13285567
  |    3: Species N             1.63723256       -3.62730234        0.13344621
  |    4: Species N            -0.24736428       -2.08555913        0.13091680
  |    5: Species N            -1.02661842        0.53521767        0.12857086
  |    6: Species N             1.59415799        1.31447394        0.13036445
  |    7: Species N             2.37341353       -1.30630279        0.13268165
  |    8: Species N            -0.29043799        2.85621823        0.12767637
  |    9: Species N            -2.56836336       -1.34938039        0.12855681
  |   10: Species C            -2.63914296        2.20943861        0.12625145
  |   11: Species C            -1.21718605        1.90893221        0.12754171
  |   12: Species C             1.00328231        2.56913642        0.12897950
  |   13: Species C             2.02980155        3.59781871        0.12918281
  |   14: Species C            -3.30996307        0.97085763        0.12652282
  |   15: Species C            -2.28128030       -0.05565965        0.12796413
  |   16: Species C            -0.61378836       -5.76581823        0.13328019
  |   17: Species C            -3.12897567       -4.40390142        0.13016187
  |   18: Species C            -1.81879306       -6.47009521        0.13282858
  |   19: Species C            -4.70687732        0.90164280        0.12550984
  |   20: Species C            -3.34495675        3.41682968        0.12495205
  |   21: Species C            -5.41115237        2.10664806        0.12420255
  |   22: Species C            -3.05962392       -5.79785964        0.13127603
  |   23: Species C            -1.62107832       -2.27612817        0.12991735
  |   24: Species C            -1.92158523       -3.69808563        0.13064830
  |   25: Species C             3.26838099        2.92699768        0.13082380
  |   26: Species C             2.96787185        1.50504132        0.13148599
  |   27: Species C            -4.73891501        3.34747896        0.12393149
  |   28: Species C             3.62807575       -0.71542659        0.13333975
  |   29: Species C             4.65675814       -1.74194496        0.13467094
  |   30: Species C             2.56398050       -2.68001644        0.13359109
  |   31: Species C             3.98593668       -2.98052535        0.13481601
  |   32: Species C            -0.68300428       -4.36890430        0.13215868
  |   33: Species C             0.34351229       -3.34022010        0.13225018
  |   34: Species C             1.96059052        4.99473315        0.12808375
  |   35: Species C             4.47577350        3.63280952        0.13148711
  |   36: Species C             3.16559734        5.69900659        0.12871282
  |   37: Species C             4.40642631        5.02676782        0.13040865
  |   38: Species C             6.05367250       -1.67273260        0.13566008
  |   39: Species C             4.69174810       -4.18791770        0.13594551
  |   40: Species C             6.75794555       -2.87773933        0.13679530
  |   41: Species C             6.08570648       -4.11856929        0.13693063
  |   42: Species H             6.56391596       -0.70942153        0.13551511
  |   43: Species H             4.16415263       -5.14191072        0.13603805
  |   44: Species H             6.67064324       -5.03946407        0.13780698
  |   45: Species H            -5.21711873       -0.06166934        0.12573525
  |   46: Species H            -2.81736335        4.37082382        0.12477190
  |   47: Species H            -5.32385323        4.26837270        0.12291378
  |   48: Species H            -6.50197496        2.09390909        0.12339234
  |   49: Species H             0.34952413       -6.27605765        0.13446586
  |   50: Species H            -4.08297014       -3.87630993        0.12897575
  |   51: Species H            -3.98051720       -6.38279938        0.13095645
  |   52: Species H            -1.80605362       -7.56091775        0.13367471
  |   53: Species H             0.99728018        5.50497643        0.12681161
  |   54: Species H             5.42976575        3.10521421        0.13276723
  |   55: Species H             5.32732129        5.61170478        0.13087587
  |   56: Species H             3.15286115        6.78982920        0.12790367
  |   57: Species H             7.84876817       -2.86500226        0.13756705

  Initial moments and charges:
  |  Atom   Moment         Charge        Species
  |     1   0.200000E+01   0.000000E+00   Fe
  |     2   0.000000E+00   0.000000E+00   N
  |     3   0.000000E+00   0.000000E+00   N
  |     4   0.000000E+00   0.000000E+00   N
  |     5   0.000000E+00   0.000000E+00   N
  |     6   0.000000E+00   0.000000E+00   N
  |     7   0.000000E+00   0.000000E+00   N
  |     8   0.000000E+00   0.000000E+00   N
  |     9   0.000000E+00   0.000000E+00   N
  |    10   0.000000E+00   0.000000E+00   C
  |    11   0.000000E+00   0.000000E+00   C
  |    12   0.000000E+00   0.000000E+00   C
  |    13   0.000000E+00   0.000000E+00   C
  |    14   0.000000E+00   0.000000E+00   C
  |    15   0.000000E+00   0.000000E+00   C
  |    16   0.000000E+00   0.000000E+00   C
  |    17   0.000000E+00   0.000000E+00   C
  |    18   0.000000E+00   0.000000E+00   C
  |    19   0.000000E+00   0.000000E+00   C
  |    20   0.000000E+00   0.000000E+00   C
  |    21   0.000000E+00   0.000000E+00   C
  |    22   0.000000E+00   0.000000E+00   C
  |    23   0.000000E+00   0.000000E+00   C
  |    24   0.000000E+00   0.000000E+00   C
  |    25   0.000000E+00   0.000000E+00   C
  |    26   0.000000E+00   0.000000E+00   C
  |    27   0.000000E+00   0.000000E+00   C
  |    28   0.000000E+00   0.000000E+00   C
  |    29   0.000000E+00   0.000000E+00   C
  |    30   0.000000E+00   0.000000E+00   C
  |    31   0.000000E+00   0.000000E+00   C
  |    32   0.000000E+00   0.000000E+00   C
  |    33   0.000000E+00   0.000000E+00   C
  |    34   0.000000E+00   0.000000E+00   C
  |    35   0.000000E+00   0.000000E+00   C
  |    36   0.000000E+00   0.000000E+00   C
  |    37   0.000000E+00   0.000000E+00   C
  |    38   0.000000E+00   0.000000E+00   C
  |    39   0.000000E+00   0.000000E+00   C
  |    40   0.000000E+00   0.000000E+00   C
  |    41   0.000000E+00   0.000000E+00   C
  |    42   0.000000E+00   0.000000E+00   H
  |    43   0.000000E+00   0.000000E+00   H
  |    44   0.000000E+00   0.000000E+00   H
  |    45   0.000000E+00   0.000000E+00   H
  |    46   0.000000E+00   0.000000E+00   H
  |    47   0.000000E+00   0.000000E+00   H
  |    48   0.000000E+00   0.000000E+00   H
  |    49   0.000000E+00   0.000000E+00   H
  |    50   0.000000E+00   0.000000E+00   H
  |    51   0.000000E+00   0.000000E+00   H
  |    52   0.000000E+00   0.000000E+00   H
  |    53   0.000000E+00   0.000000E+00   H
  |    54   0.000000E+00   0.000000E+00   H
  |    55   0.000000E+00   0.000000E+00   H
  |    56   0.000000E+00   0.000000E+00   H
  |    57   0.000000E+00   0.000000E+00   H

  Slab Identifier: This is not a periodic structure.

  Finished reading input file 'geometry.in'.



  Consistency checks for stacksize environment parameter are next.

  | Maximum stacksize for task 0: unlimited
  | Maximum stacksize for task 1: unlimited
  | Maximum stacksize for task 2: unlimited
  | Maximum stacksize for task 3: unlimited
  | Maximum stacksize for task 4: unlimited
  | Maximum stacksize for task 5: unlimited
  | Maximum stacksize for task 6: unlimited
  | Maximum stacksize for task 7: unlimited
  | Maximum stacksize for task 8: unlimited
  | Maximum stacksize for task 9: unlimited
  | Maximum stacksize for task 10: unlimited
  | Maximum stacksize for task 11: unlimited
  | Maximum stacksize for task 12: unlimited
  | Maximum stacksize for task 13: unlimited
  | Maximum stacksize for task 14: unlimited
  | Maximum stacksize for task 15: unlimited
  | Maximum stacksize for task 16: unlimited
  | Maximum stacksize for task 17: unlimited
  | Maximum stacksize for task 18: unlimited
  | Maximum stacksize for task 19: unlimited
  | Maximum stacksize for task 20: unlimited
  | Maximum stacksize for task 21: unlimited
  | Maximum stacksize for task 22: unlimited
  | Maximum stacksize for task 23: unlimited
  | Current stacksize for task 0: unlimited
  | Current stacksize for task 1: unlimited
  | Current stacksize for task 2: unlimited
  | Current stacksize for task 3: unlimited
  | Current stacksize for task 4: unlimited
  | Current stacksize for task 5: unlimited
  | Current stacksize for task 6: unlimited
  | Current stacksize for task 7: unlimited
  | Current stacksize for task 8: unlimited
  | Current stacksize for task 9: unlimited
  | Current stacksize for task 10: unlimited
  | Current stacksize for task 11: unlimited
  | Current stacksize for task 12: unlimited
  | Current stacksize for task 13: unlimited
  | Current stacksize for task 14: unlimited
  | Current stacksize for task 15: unlimited
  | Current stacksize for task 16: unlimited
  | Current stacksize for task 17: unlimited
  | Current stacksize for task 18: unlimited
  | Current stacksize for task 19: unlimited
  | Current stacksize for task 20: unlimited
  | Current stacksize for task 21: unlimited
  | Current stacksize for task 22: unlimited
  | Current stacksize for task 23: unlimited

  Consistency checks for the contents of control.in are next.

  MPI_IN_PLACE appears to work with this MPI implementation.
  | Keeping use_mpi_in_place .true. (see manual).
  Target number of points in a grid batch is not set. Defaulting to  100
  Method for grid partitioning is not set. Defaulting to parallel hash+maxmin partitioning.
  Batch size limit is not set. Defaulting to    200
  By default, will store active basis functions for each batch.
  If in need of memory, prune_basis_once .false. can be used to disable this option.
  communication_type for Hartree potential was not specified.
  Defaulting to calc_hartree .
  Defaulting to Pulay charge density mixer.
  Pulay mixer: Number of relevant iterations not set.
  Defaulting to    8 iterations.
  Pulay mixer: Number of initial linear mixing iterations not set.
  Defaulting to    0 iterations.
  Work space size for distributed Hartree potential not set.
  Defaulting to   0.200000E+03 MB.
  Mixing parameter for charge density mixing has not been set.
  Using default: charge_mix_param =     0.0500.
  The mixing parameter will be adjusted in iteration number     2 of each s.c.f. cycle (i.e., each geometry step).
  Mixing parameter for spin density mixing has not been set.
  Using charge_mix_param as default:     0.0500.
  Algorithm-dependent basis array size parameters:
  | n_max_pulay                         :        8
  Maximum number of self-consistency iterations not provided.
  Presetting  1000 iterations.
  Presetting      1001 iterations before the initial mixing cycle
  is restarted anyway using the sc_init_iter criterion / keyword.
  Presetting a factor      1.000 between actual scf density residual
  and density convergence criterion sc_accuracy_rho below which sc_init_iter
  takes no effect.
  No accuracy limit for integral partition fn. given. Defaulting to  0.1000E-14.
  No threshold value for u(r) in integrations given. Defaulting to  0.1000E-05.
  No occupation type (smearing scheme) given. Defaulting to Gaussian broadening, width =  0.1000E-01 eV.
  The width will be adjusted in iteration number     2 of each s.c.f. cycle (i.e., each geometry step).
  No accuracy for occupation numbers given. Defaulting to  0.1000E-12.
  No threshold value for occupation numbers given. Defaulting to  0.0000E+00.
  No accuracy for fermi level given. Defaulting to  0.1000E-19.
  Maximum # of iterations to find E_F not set. Defaulting to  200.
  Preferred method for the eigenvalue solver ('KS_method') not specified in 'control.in'.
  Calling BLACS routine to test compilation state
  Since ScaLAPACK support is enabled, defaulting to ELPA (via ELSI).
  Will not use alltoall communication since running on < 1024 CPUs.
  Threshold for basis singularities not set.
  Default threshold for basis singularities:  0.1000E-04
  partition_type (choice of integration weights) for integrals was not specified.
  | Using a version of the partition function of Stratmann and coworkers ('stratmann_sparse').
  | At each grid point, the set of atoms used to build the partition table is smoothly restricted to
  | only those atoms whose free-atom density would be non-zero at that grid point.
  Partitioning for Hartree potential was not defined. Using partition_type for integrals.
  | Adjusted default value of keyword multip_moments_threshold to:       0.10000000E-11
  | This value may affect high angular momentum components of the Hartree potential in periodic systems.
  No q(lm)/r^(l+1) cutoff set for long-range Hartree potential.
  | Using default value of  0.100000E-09 .
  | Verify using the multipole_threshold keyword.
  Defaulting to new monopole extrapolation.
  Density update method: automatic selection selected.
  Charge integration errors on the 3D integration grid will be compensated
  by explicit normalization and distribution of residual charges.
  Use the "compensate_multipole_errors" flag to change this behaviour.
  Set 'collect_eigenvectors' to be '.true.' for use_density_matrix .false.
  Found potential conflicts with setting 'use_local_index' for this calculation. Will not set it.

  Consistency checks for the contents of geometry.in are next.

  Number of empty states per atom not set in control.in - providing a guess from actual geometry.
  | Total number of empty states used during s.c.f. cycle:      150
  If you use a very high smearing, use empty_states (per atom!) in control.in to increase this value.

  Structure-dependent array size parameters: 
  | Number of distinct atom types in initial rho :        4
  | Maximum number of distinct radial functions  :       26
  | Maximum number of basis functions            :      671
  | Number of Kohn-Sham states (occupied + empty):      295
------------------------------------------------------------
  After read_input_data [GB]:    373.64

  Performing system and environment tests:
  | Environment variable OMP_NUM_THREADS correctly set to 1.
  | Checking for ScaLAPACK...
  | Testing pdtran()...
  | All pdtran() tests passed.
  After prepare_system [GB]:    373.56

------------------------------------------------------------
          Preparing all fixed parts of the calculation.
------------------------------------------------------------
  Determining machine precision:
     2.2250738585072014E-308
  Setting up grids for atomic and cluster calculations.

  Creating wave function, potential, and density for free atoms.
  Runtime choices for atomic solver:
  | atomic solver xc        : PBE
  | compute density gradient: 1
  | compute kinetic density : F

  Species: C

  List of occupied orbitals and eigenvalues:
    n    l              occ      energy [Ha]    energy [eV]
    1    0           2.0000       -10.046810      -273.3876
    2    0           2.0000        -0.503128       -13.6908
    2    1           2.0000        -0.191849        -5.2205


  Species: Fe

  List of occupied orbitals and eigenvalues:
    n    l              occ      energy [Ha]    energy [eV]
    1    0           2.0000      -259.347078     -7057.1931
    2    0           2.0000       -30.151288      -820.4583
    3    0           2.0000        -3.446299       -93.7786
    4    0           2.0000        -0.186616        -5.0781
    2    1           6.0000       -25.685596      -698.9406
    3    1           6.0000        -2.197354       -59.7930
    3    2           6.0000        -0.267356        -7.2751


  Species: H

  List of occupied orbitals and eigenvalues:
    n    l              occ      energy [Ha]    energy [eV]
    1    0           1.0000        -0.237593        -6.4652


  Species: N

  List of occupied orbitals and eigenvalues:
    n    l              occ      energy [Ha]    energy [eV]
    1    0           2.0000       -14.143973      -384.8771
    2    0           2.0000        -0.682008       -18.5584
    2    1           3.0000        -0.259605        -7.0642

  Spin-polarized or charged system:
  Charge density initialized according to selected moments and charges.

  Creating spin-polarized density from free atoms.

  Species: Fe
  Charge:   0.000000
  Moment:   2.000000

  List of occupied orbitals and eigenvalues:
    n    l      energy [Ha]    energy [eV]    occupation
  Spin-up
    1    0      -259.341241     -7057.0342     1.00000000
    2    0       -30.162043      -820.7510     1.00000000
    3    0        -3.480163       -94.7000     1.00000000
    4    0        -0.193155        -5.2560     1.00000000
    2    1       -25.692256      -699.1219     3.00000000
    3    1        -2.230590       -60.6974     3.00000000
    3    2        -0.297071        -8.0837     4.00000000
  Spin-down
    1    0      -259.341357     -7057.0374     1.00000000
    2    0       -30.127563      -819.8127     1.00000000
    3    0        -3.401374       -92.5561     1.00000000
    4    0        -0.178982        -4.8703     1.00000000
    2    1       -25.666133      -698.4110     3.00000000
    3    1        -2.153496       -58.5996     3.00000000
    3    2        -0.229218        -6.2374     2.00000000


  Species: N
  Charge:   0.000000
  Moment:   0.000000

  List of occupied orbitals and eigenvalues:
    n    l      energy [Ha]    energy [eV]    occupation
  Spin-up
    1    0       -14.143973      -384.8771     1.00000000
    2    0        -0.682008       -18.5584     1.00000000
    2    1        -0.259605        -7.0642     1.50000000
  Spin-down
    1    0       -14.143973      -384.8771     1.00000000
    2    0        -0.682008       -18.5584     1.00000000
    2    1        -0.259605        -7.0642     1.50000000


  Species: C
  Charge:   0.000000
  Moment:   0.000000

  List of occupied orbitals and eigenvalues:
    n    l      energy [Ha]    energy [eV]    occupation
  Spin-up
    1    0       -10.046810      -273.3876     1.00000000
    2    0        -0.503128       -13.6908     1.00000000
    2    1        -0.191849        -5.2205     1.00000000
  Spin-down
    1    0       -10.046810      -273.3876     1.00000000
    2    0        -0.503128       -13.6908     1.00000000
    2    1        -0.191849        -5.2205     1.00000000


  Species: H
  Charge:   0.000000
  Moment:   0.000000

  List of occupied orbitals and eigenvalues:
    n    l      energy [Ha]    energy [eV]    occupation
  Spin-up
    1    0        -0.237593        -6.4652     0.50000000
  Spin-down
    1    0        -0.237593        -6.4652     0.50000000


  Adding cutoff potential to free-atom effective potential.
  Creating fixed part of basis set: Ionic, confined, hydrogenic.

  C                    hydrogenic:

  List of hydrogenic basis orbitals: 
    n    l      effective z      eigenvalue [eV]  inner max. [A]     outer max. [A]     outer radius [A]   
    2    1         1.700000        -9.7616           1.230570           1.230570           4.607917
    3    2         6.000000       -54.4224           0.792453           0.792453           3.883070
    2    0         4.900000       -81.6679           0.082559           0.562749           3.078220


  Fe                   ion:

  List of free ionic orbitals and eigenvalues:
    n    l      energy [Ha]    energy [eV]
    1    0      -260.321188     -7083.6999
    2    0       -31.136355      -847.2633
    3    0        -4.393974      -119.5661
    4    0        -0.821894       -22.3649
    2    1       -26.668999      -725.7004
    3    1        -3.137384       -85.3726
    3    2        -1.170461       -31.8499


  List of ionic basis orbitals and eigenvalues:
    n    l      energy [Ha]    energy [eV]    outer radius [A]
    4    0        -0.821823       -22.3629       4.554938


  Fe                   hydrogenic:

  List of hydrogenic basis orbitals: 
    n    l      effective z      eigenvalue [eV]  inner max. [A]     outer max. [A]     outer radius [A]   
    4    3         9.400000       -75.1370           0.896093           0.896093           3.791786
    2    1         2.200000       -16.4552           0.964292           0.964292           4.554938
    3    2         3.100000       -14.4291           1.515830           1.515830           4.610964


  H                    hydrogenic:

  List of hydrogenic basis orbitals: 
    n    l      effective z      eigenvalue [eV]  inner max. [A]     outer max. [A]     outer radius [A]   
    2    0         2.100000       -14.9728           0.193243           1.317208           4.583499
    2    1         3.500000       -41.6669           0.602369           0.602369           3.723403


  N                    hydrogenic:

  List of hydrogenic basis orbitals: 
    n    l      effective z      eigenvalue [eV]  inner max. [A]     outer max. [A]     outer radius [A]   
    2    1         1.800000       -10.9749           1.177451           1.177451           4.573712
    3    2         6.800000       -69.9026           0.704619           0.704619           3.538137
    3    0         5.800000       -50.8545           0.067388           1.191934           4.250239

  Creating atomic-like basis functions for current effective potential.

  Species C                   :

  List of atomic basis orbitals and eigenvalues:
    n    l      energy [Ha]    energy [eV]    outer radius [A]
    1    0       -10.046810      -273.3876       1.934409
    2    0        -0.503128       -13.6908       4.496620
    2    1        -0.191849        -5.2205       4.551928


  Species Fe                  :

  List of atomic basis orbitals and eigenvalues:
    n    l      energy [Ha]    energy [eV]    outer radius [A]
    1    0      -259.347078     -7057.1931       0.409790
    2    0       -30.151288      -820.4583       1.216422
    3    0        -3.446299       -93.7786       3.438507
    4    0        -0.186616        -5.0781       4.610964
    2    1       -25.685596      -698.9406       1.277383
    3    1        -2.197354       -59.7930       3.981813
    3    2        -0.267356        -7.2751       4.499593


  Species H                   :

  List of atomic basis orbitals and eigenvalues:
    n    l      energy [Ha]    energy [eV]    outer radius [A]
    1    0        -0.237593        -6.4652       4.527807


  Species N                   :

  List of atomic basis orbitals and eigenvalues:
    n    l      energy [Ha]    energy [eV]    outer radius [A]
    1    0       -14.143973      -384.8771       1.637919
    2    0        -0.682008       -18.5584       4.463241
    2    1        -0.259605        -7.0642       4.518138

  Assembling full basis from fixed parts.
  | Species C :   atomic orbital   1 s accepted.
  | Species C :    hydro orbital   2 s accepted.
  | Species C :   atomic orbital   2 s accepted.
  | Species C :   atomic orbital   2 p accepted.
  | Species C :    hydro orbital   2 p accepted.
  | Species C :    hydro orbital   3 d accepted.
  | Species Fe :   atomic orbital   1 s accepted.
  | Species Fe :   atomic orbital   2 s accepted.
  | Species Fe :   atomic orbital   3 s accepted.
  | Species Fe :    ionic orbital   4 s accepted.
  | Species Fe :   atomic orbital   4 s accepted.
  | Species Fe :   atomic orbital   2 p accepted.
  | Species Fe :   atomic orbital   3 p accepted.
  | Species Fe :    hydro orbital   2 p accepted.
  | Species Fe :   atomic orbital   3 d accepted.
  | Species Fe :    hydro orbital   3 d accepted.
  | Species Fe :    hydro orbital   4 f accepted.
  | Species H :   atomic orbital   1 s accepted.
  | Species H :    hydro orbital   2 s accepted.
  | Species H :    hydro orbital   2 p accepted.
  | Species N :   atomic orbital   1 s accepted.
  | Species N :    hydro orbital   3 s accepted.
  | Species N :   atomic orbital   2 s accepted.
  | Species N :   atomic orbital   2 p accepted.
  | Species N :    hydro orbital   2 p accepted.
  | Species N :    hydro orbital   3 d accepted.

  Basis size parameters after reduction:
  | Total number of radial functions:       26
  | Total number of basis functions :      671

  Per-task memory consumption for arrays in subroutine allocate_ext:
  |           9.320108MB.
  Testing on-site integration grid accuracy.
  |  Species  Function  <phi|h_atom|phi> (log., in eV)  <phi|h_atom|phi> (rad., in eV)
           1        1               -273.3876219248               -273.3875919908
           1        2                -10.7204647119                -10.7200987605
           1        3                 17.5782951162                 17.5752355731
           1        4                 -5.2222267983                 -5.2237454471
           1        5                  8.6866956284                  8.6634852736
           1        6                 27.4984676161                 27.4985577266
           2        7              -7057.1930710306              -7057.1872777124
           2        8               -820.4582952878               -820.4582331439
           2        9                -93.7785623021                -93.7785610589
           2       10                 -4.2201457338                 -4.2209190008
           2       11                  6.4834568061                  6.3497174940 ***
           2       12               -698.9406259938               -698.9406257532
           2       13                -59.7930400084                -59.7930399016
           2       14                  2.2031040148                  2.1993518317
           2       15                 -7.2752599110                 -7.2754441096
           2       16                  7.3532119403                  7.3196728658 ***
           2       17                 40.5776732000                 40.5777100294
           3       18                 -6.4664147733                 -6.4652229287
           3       19                 13.7099062243                 13.7158503352
           3       20                 25.2661739479                 25.2663166526
           4       21               -384.8770852097               -384.8770238657
           4       22                 12.5754985572                 12.5755902269
           4       23                -15.7673946340                -15.7673131149
           4       24                 -7.0647024644                 -7.0651952861
           4       25                  8.8117910312                  8.7928686445
           4       26                 35.9641313274                 35.9643080893
 * Note: Onsite integrals marked "***" above are less accurate than
 * onsite_accuracy_threshold =    0.03000 eV. Usually, this is harmless.
 * When in doubt, tighten the "radial" and/or "radial_multiplier" flags to check.

  Preparing densities etc. for the partition functions (integrals / Hartree potential).

  Preparations completed.
  max(cpu_time)          :      0.638 s.
  Wall clock time (cpu1) :      0.638 s.
------------------------------------------------------------
  After prepare_scf [GB]:    372.27

  Initializing index lists of integration centers etc. from given atomic structure:
  | Number of centers in hartree potential         :        57
  | Number of centers in hartree multipole         :        57
  | Number of centers in electron density summation:        57
  | Number of centers in basis integrals           :        57
  | Number of centers in integrals                 :        57
  | Number of centers in hamiltonian               :        57
  After initialize_bc_dependent_lists [GB]:    372.27

------------------------------------------------------------
          Begin self-consistency loop: Initialization.

          Date     :  20260605, Time     :  102742.754
------------------------------------------------------------
  Available memory per node after initialize_hartree_non_periodic_ewald [GB]:    372.27
  Available memory per node after initialize_recip_hartree_potential [GB]:    372.27
  * Using 24 tasks for Scalapack Eigenvalue solver.
  Detailed listing of tasks and assigned k-points:
  (for non-periodic systems, the "k-point" denotes an internal label only)
   Task     0 k-point     1 on milan7.int.triton.aalto.fi
   Task     1 k-point     1 on milan7.int.triton.aalto.fi
   Task     2 k-point     1 on milan7.int.triton.aalto.fi
   Task     3 k-point     1 on milan7.int.triton.aalto.fi
   Task     4 k-point     1 on milan7.int.triton.aalto.fi
   Task     5 k-point     1 on milan7.int.triton.aalto.fi
   Task     6 k-point     1 on milan7.int.triton.aalto.fi
   Task     7 k-point     1 on milan7.int.triton.aalto.fi
   Task     8 k-point     1 on milan7.int.triton.aalto.fi
   Task     9 k-point     1 on milan7.int.triton.aalto.fi
   Task    10 k-point     1 on milan7.int.triton.aalto.fi
   Task    11 k-point     1 on milan7.int.triton.aalto.fi
   Task    12 k-point     1 on milan7.int.triton.aalto.fi
   Task    13 k-point     1 on milan7.int.triton.aalto.fi
   Task    14 k-point     1 on milan7.int.triton.aalto.fi
   Task    15 k-point     1 on milan7.int.triton.aalto.fi
   Task    16 k-point     1 on milan7.int.triton.aalto.fi
   Task    17 k-point     1 on milan7.int.triton.aalto.fi
   Task    18 k-point     1 on milan7.int.triton.aalto.fi
   Task    19 k-point     1 on milan7.int.triton.aalto.fi
   Task    20 k-point     1 on milan7.int.triton.aalto.fi
   Task    21 k-point     1 on milan7.int.triton.aalto.fi
   Task    22 k-point     1 on milan7.int.triton.aalto.fi
   Task    23 k-point     1 on milan7.int.triton.aalto.fi
  Tasks:    24 split into      6 X      4 BLACS grid
  Calculating block size based on n_basis =          671  max_nprow =            6  max_npcol =            4
  ScaLAPACK block size set to:           16
  Allocating        0.150 MB for ovlp
  Allocating        0.301 MB for ham
  Allocating        0.301 MB for eigenvec
  Required Scalapack workspace - INTEGER:            1  REAL:             1
  Available memory per node after initialize_scalapack [GB]:    372.27
  Available memory per node after aims_elsi_init_scf [GB]:    372.27
  Available memory per node after initialize_fixed_grids [GB]:    372.27
  Partitioning the integration grid into batches with parallel hashing+maxmin method.
  | Number of batches:     2975
  | Maximal batch size:     200
  | Minimal batch size:      37
  | Average batch size:     106.772
  | Standard deviation of batch sizes:      24.110

  Integration load balanced across    24 MPI tasks.
  Work distribution over tasks is as follows:
  Task     0 has      13258 integration points.
  Task     1 has      13167 integration points.
  Task     2 has      13282 integration points.
  Task     3 has      13191 integration points.
  Task     4 has      13327 integration points.
  Task     5 has      13166 integration points.
  Task     6 has      13185 integration points.
  Task     7 has      13296 integration points.
  Task     8 has      13155 integration points.
  Task     9 has      13306 integration points.
  Task    10 has      13306 integration points.
  Task    11 has      13178 integration points.
  Task    12 has      13252 integration points.
  Task    13 has      13334 integration points.
  Task    14 has      13324 integration points.
  Task    15 has      13292 integration points.
  Task    16 has      13182 integration points.
  Task    17 has      13157 integration points.
  Task    18 has      13230 integration points.
  Task    19 has      13177 integration points.
  Task    20 has      13264 integration points.
  Task    21 has      13157 integration points.
  Task    22 has      13158 integration points.
  Task    23 has      13302 integration points.
  Available memory per node after partition_grid [GB]:    372.25
  Initializing partition tables, free-atom densities, potentials, etc. across the integration grid (initialize_grid_storage).
  | initialize_grid_storage: Actual outermost partition radius vs. multipole_radius_free
  | (-- VB: in principle, multipole_radius_free should be larger, hence this output)
  | Species        1: Confinement radius =              4.999999999999999 AA, multipole_radius_free =              5.019602836301480 AA.
  | Species        1: outer_partition_radius set to              5.019602836301480 AA .
  | Species        2: Confinement radius =              4.999999999999999 AA, multipole_radius_free =              5.022921912105459 AA.
  | Species        2: outer_partition_radius set to              5.022921912105459 AA .
  | Species        3: Confinement radius =              4.999999999999999 AA, multipole_radius_free =              5.054417573612229 AA.
  | Species        3: outer_partition_radius set to              5.054417573612229 AA .
  | Species        4: Confinement radius =              4.999999999999999 AA, multipole_radius_free =              5.043624274424571 AA.
  | Species        4: outer_partition_radius set to              5.043624274424571 AA .
  | The sparse table of interatomic distances needs         32.10 kbyte instead of        25.99 kbyte of memory.
  | Using the partition_type stratmann_smoother will reduce your memory usage.
  | Net number of integration points:   317646
  | of which are non-zero points    :   271774
  Available memory per node after initialize_grid_storage_p1 [GB]:    372.23
  Renormalizing the initial density to the exact electron count on the 3D integration grid.
  | Initial density: Formal number of electrons (from input files) :     290.0000000000
  | Integrated number of electrons on 3D grid     :     289.9991770106
  | Charge integration error                      :      -0.0008229894
  | Normalization factor for density and gradient :       1.0000028379
  Renormalizing the free-atom superposition density to the exact electron count on the 3D integration grid.
  | Formal number of electrons (from input files) :     290.0000000000
  | Integrated number of electrons on 3D grid     :     289.9991770510
  | Charge integration error                      :      -0.0008229490
  | Normalization factor for density and gradient :       1.0000028378
  Obtaining max. number of non-zero basis functions in each batch (get_n_compute_maxes).
  | Maximal number of non-zero basis functions:      332 in task     0
  | Maximal number of non-zero basis functions:      332 in task     1
  | Maximal number of non-zero basis functions:      330 in task     2
  | Maximal number of non-zero basis functions:      332 in task     3
  | Maximal number of non-zero basis functions:      334 in task     4
  | Maximal number of non-zero basis functions:      344 in task     5
  | Maximal number of non-zero basis functions:      325 in task     6
  | Maximal number of non-zero basis functions:      322 in task     7
  | Maximal number of non-zero basis functions:      333 in task     8
  | Maximal number of non-zero basis functions:      323 in task     9
  | Maximal number of non-zero basis functions:      337 in task    10
  | Maximal number of non-zero basis functions:      332 in task    11
  | Maximal number of non-zero basis functions:      317 in task    12
  | Maximal number of non-zero basis functions:      335 in task    13
  | Maximal number of non-zero basis functions:      319 in task    14
  | Maximal number of non-zero basis functions:      332 in task    15
  | Maximal number of non-zero basis functions:      323 in task    16
  | Maximal number of non-zero basis functions:      331 in task    17
  | Maximal number of non-zero basis functions:      327 in task    18
  | Maximal number of non-zero basis functions:      327 in task    19
  | Maximal number of non-zero basis functions:      323 in task    20
  | Maximal number of non-zero basis functions:      331 in task    21
  | Maximal number of non-zero basis functions:      316 in task    22
  | Maximal number of non-zero basis functions:      341 in task    23
  Selecting the method for density update.
  Electron density will be updated via Kohn Sham orbitals; 
  first geometry step: forces will be updated via orbitals;
  second geometry step: forces will be updated via density matrix;
  finally, the fastest method will be selected
  Scalapack and automatic selection of force update requested:
  Switching to packed matrix format "index" by default.
  Available memory per node after get_n_compute_maxes_p1 [GB]:    372.22
  Initialize hartree_potential_storage
  Max. number of atoms included in rho_multipole:           57

  Evaluating partitioned Hartree potential by multipole expansion.
  | Original multipole sum: apparent total charge =   0.131308E-12
  | Sum of charges compensated after spline to logarithmic grids =  -0.157401E-05
  | Analytical far-field extrapolation by fixed multipoles:
  | Hartree multipole sum: apparent total charge =   0.131318E-12
  0.13E-12  Summing up the Hartree potential.
  Time summed over all CPUs for potential: real work        0.073 s, elapsed        0.078 s
  | RMS charge density error from multipole expansion :   0.124478E-03

  Hamiltonian matrix size:
  | Size of matrix non-packed:               225456
  | Size of matrix packed:          168241
  Allocating        3.020 MB for KS_eigenvector
  Available memory per node after allocate_matrices [GB]:    372.10
  Available memory per node after init_comm_sparse_local_matrix_scalapack [GB]:    372.10
  Integrating Hamiltonian matrix: batch-based integration.
  Time summed over all CPUs for integration: real work        4.980 s, elapsed        5.183 s
  Available memory per node after integrate hamiltonian matrix [GB]:    371.94
  Integrating overlap matrix.
  Time summed over all CPUs for integration: real work        1.886 s, elapsed        1.957 s
  Available memory per node after integrate ovlp matrix [GB]:    371.93
  Available memory per node after ASI_callbacks invoke [GB]:    371.93
  Deallocating overlap matrix.
  Available memory per node after save_overlap_scalapack [GB]:    371.93

  Updating Kohn-Sham eigenvalues and eigenvectors using ELSI and the ELPA eigensolver.

  Obtaining occupation numbers and electronic chemical potential using ELSI.
  | Note that, for insulating systems, the printed 'chemical potential' value is not uniquely defined.
  | It can be anywhere in the energy gap, as long as it correctly separates occupied and unoccupied states.
  | In systems with a gap, the physically relevant chemical potential is the VBM or HOMO.

  | Chemical potential (Fermi level):    -7.38954035 eV
  Available memory per node after advance_KS_solution [GB]:    371.93
  Writing Kohn-Sham eigenvalues.

  Spin-up eigenvalues:

  State    Occupation    Eigenvalue [Ha]    Eigenvalue [eV]
      1       1.00000        -259.353405        -7057.36523
      2       1.00000         -30.174789         -821.09778
      3       1.00000         -25.705016         -699.46909
      4       1.00000         -25.705016         -699.46909
      5       1.00000         -25.704604         -699.45785
      6       1.00000         -14.250392         -387.77289
      7       1.00000         -14.250391         -387.77288
      8       1.00000         -14.250391         -387.77288
      9       1.00000         -14.250391         -387.77288
     10       1.00000         -14.246539         -387.66805
     11       1.00000         -14.246539         -387.66805
     12       1.00000         -14.246539         -387.66805
     13       1.00000         -14.246539         -387.66805
     14       1.00000         -10.162303         -276.53034
     15       1.00000         -10.162303         -276.53034
     16       1.00000         -10.162303         -276.53034
     17       1.00000         -10.162303         -276.53034
     18       1.00000         -10.162291         -276.53001
     19       1.00000         -10.162291         -276.53001
     20       1.00000         -10.162291         -276.53001
     21       1.00000         -10.162291         -276.53001
     22       1.00000         -10.161028         -276.49563
     23       1.00000         -10.161028         -276.49563
     24       1.00000         -10.161028         -276.49563
     25       1.00000         -10.161028         -276.49563
     26       1.00000         -10.160689         -276.48641
     27       1.00000         -10.160689         -276.48641
     28       1.00000         -10.160689         -276.48641
     29       1.00000         -10.160689         -276.48641
     30       1.00000         -10.159748         -276.46081
     31       1.00000         -10.159748         -276.46081
     32       1.00000         -10.159748         -276.46081
     33       1.00000         -10.159748         -276.46081
     34       1.00000         -10.159395         -276.45119
     35       1.00000         -10.159395         -276.45119
     36       1.00000         -10.159395         -276.45119
     37       1.00000         -10.159395         -276.45119
     38       1.00000         -10.144866         -276.05585
     39       1.00000         -10.144866         -276.05584
     40       1.00000         -10.144866         -276.05584
     41       1.00000         -10.144866         -276.05584
     42       1.00000         -10.144843         -276.05523
     43       1.00000         -10.144843         -276.05522
     44       1.00000         -10.144843         -276.05522
     45       1.00000         -10.144843         -276.05522
     46       1.00000          -3.499447          -95.22480
     47       1.00000          -2.254860          -61.35785
     48       1.00000          -2.254860          -61.35785
     49       1.00000          -2.246168          -61.12135
     50       1.00000          -1.085776          -29.54548
     51       1.00000          -1.072852          -29.19379
     52       1.00000          -1.072852          -29.19379
     53       1.00000          -1.046797          -28.48480
     54       1.00000          -1.033442          -28.12139
     55       1.00000          -0.998223          -27.16302
     56       1.00000          -0.998223          -27.16302
     57       1.00000          -0.980551          -26.68214
     58       1.00000          -0.970454          -26.40741
     59       1.00000          -0.969148          -26.37187
     60       1.00000          -0.969148          -26.37187
     61       1.00000          -0.962439          -26.18931
     62       1.00000          -0.886210          -24.11501
     63       1.00000          -0.880080          -23.94819
     64       1.00000          -0.879083          -23.92106
     65       1.00000          -0.879083          -23.92106
     66       1.00000          -0.876506          -23.85095
     67       1.00000          -0.876506          -23.85095
     68       1.00000          -0.876027          -23.83792
     69       1.00000          -0.874649          -23.80042
     70       1.00000          -0.827533          -22.51833
     71       1.00000          -0.802200          -21.82898
     72       1.00000          -0.802200          -21.82898
     73       1.00000          -0.761596          -20.72408
     74       1.00000          -0.760683          -20.69923
     75       1.00000          -0.756098          -20.57448
     76       1.00000          -0.756098          -20.57448
     77       1.00000          -0.746470          -20.31247
     78       1.00000          -0.744225          -20.25141
     79       1.00000          -0.720464          -19.60482
     80       1.00000          -0.720464          -19.60482
     81       1.00000          -0.711400          -19.35817
     82       1.00000          -0.698028          -18.99431
     83       1.00000          -0.677795          -18.44373
     84       1.00000          -0.669204          -18.20998
     85       1.00000          -0.669204          -18.20998
     86       1.00000          -0.655169          -17.82805
     87       1.00000          -0.652928          -17.76707
     88       1.00000          -0.652928          -17.76707
     89       1.00000          -0.621881          -16.92225
     90       1.00000          -0.620120          -16.87431
     91       1.00000          -0.617754          -16.80995
     92       1.00000          -0.614209          -16.71347
     93       1.00000          -0.614209          -16.71347
     94       1.00000          -0.611042          -16.62729
     95       1.00000          -0.601598          -16.37031
     96       1.00000          -0.601598          -16.37031
     97       1.00000          -0.584978          -15.91805
     98       1.00000          -0.580252          -15.78947
     99       1.00000          -0.569207          -15.48891
    100       1.00000          -0.569207          -15.48891
    101       1.00000          -0.567013          -15.42920
    102       1.00000          -0.566886          -15.42575
    103       1.00000          -0.561999          -15.29276
    104       1.00000          -0.561999          -15.29276
    105       1.00000          -0.561641          -15.28304
    106       1.00000          -0.551276          -15.00099
    107       1.00000          -0.539500          -14.68054
    108       1.00000          -0.539500          -14.68054
    109       1.00000          -0.532456          -14.48887
    110       1.00000          -0.518016          -14.09592
    111       1.00000          -0.510414          -13.88907
    112       1.00000          -0.507812          -13.81828
    113       1.00000          -0.507812          -13.81828
    114       1.00000          -0.505735          -13.76176
    115       1.00000          -0.502364          -13.67003
    116       1.00000          -0.494559          -13.45764
    117       1.00000          -0.491527          -13.37512
    118       1.00000          -0.491527          -13.37512
    119       1.00000          -0.483935          -13.16853
    120       1.00000          -0.479985          -13.06106
    121       1.00000          -0.479985          -13.06106
    122       1.00000          -0.479505          -13.04799
    123       1.00000          -0.478967          -13.03335
    124       1.00000          -0.474535          -12.91275
    125       1.00000          -0.474535          -12.91275
    126       1.00000          -0.459911          -12.51482
    127       1.00000          -0.437511          -11.90529
    128       1.00000          -0.434157          -11.81402
    129       1.00000          -0.434157          -11.81402
    130       1.00000          -0.413773          -11.25933
    131       1.00000          -0.413773          -11.25933
    132       1.00000          -0.404121          -10.99670
    133       1.00000          -0.403480          -10.97925
    134       1.00000          -0.392189          -10.67202
    135       1.00000          -0.391472          -10.65249
    136       1.00000          -0.391472          -10.65249
    137       1.00000          -0.390587          -10.62842
    138       1.00000          -0.390587          -10.62842
    139       1.00000          -0.388457          -10.57044
    140       1.00000          -0.383457          -10.43441
    141       1.00000          -0.381167          -10.37209
    142       1.00000          -0.327927           -8.92335
    143       1.00000          -0.314764           -8.56517
    144       1.00000          -0.314764           -8.56517
    145       1.00000          -0.309109           -8.41128
    146       1.00000          -0.306298           -8.33480
    147       0.00000          -0.261776           -7.12330
    148       0.00000          -0.261776           -7.12330
    149       0.00000          -0.226206           -6.15538
    150       0.00000          -0.220019           -5.98703
    151       0.00000          -0.218743           -5.95230
    152       0.00000          -0.213615           -5.81275
    153       0.00000          -0.211653           -5.75936
    154       0.00000          -0.211653           -5.75936
    155       0.00000          -0.165577           -4.50558
    156       0.00000          -0.161348           -4.39051
    157       0.00000          -0.161348           -4.39051
    158       0.00000          -0.136142           -3.70461
    159       0.00000          -0.131864           -3.58821
    160       0.00000          -0.083337           -2.26772
    161       0.00000          -0.083337           -2.26772
    162       0.00000          -0.069884           -1.90164
    163       0.00000          -0.046390           -1.26233
    164       0.00000          -0.040181           -1.09338
    165       0.00000          -0.040181           -1.09338
    166       0.00000          -0.037009           -1.00707
    167       0.00000          -0.034524           -0.93945
    168       0.00000          -0.027311           -0.74318
    169       0.00000          -0.027311           -0.74318
    170       0.00000          -0.026057           -0.70905
    171       0.00000          -0.018239           -0.49632
    172       0.00000          -0.017095           -0.46519
    173       0.00000          -0.015695           -0.42707
    174       0.00000          -0.015695           -0.42707
    175       0.00000          -0.003544           -0.09643
    176       0.00000           0.000539            0.01465
    177       0.00000           0.000539            0.01466
    178       0.00000           0.007217            0.19638
    179       0.00000           0.009737            0.26495
    180       0.00000           0.020310            0.55266
    181       0.00000           0.020310            0.55266
    182       0.00000           0.022778            0.61982
    183       0.00000           0.025016            0.68073
    184       0.00000           0.043071            1.17202
    185       0.00000           0.043071            1.17202
    186       0.00000           0.043468            1.18282
    187       0.00000           0.044588            1.21331
    188       0.00000           0.044616            1.21407
    189       0.00000           0.047145            1.28288
    190       0.00000           0.047145            1.28288
    191       0.00000           0.054584            1.48530
    192       0.00000           0.056526            1.53815
    193       0.00000           0.070608            1.92133
    194       0.00000           0.071078            1.93412
    195       0.00000           0.071078            1.93412
    196       0.00000           0.075862            2.06432
    197       0.00000           0.076903            2.09264
    198       0.00000           0.085623            2.32992
    199       0.00000           0.085623            2.32992
    200       0.00000           0.091187            2.48132
    201       0.00000           0.093251            2.53748
    202       0.00000           0.105319            2.86587
    203       0.00000           0.105319            2.86587
    204       0.00000           0.121060            3.29421
    205       0.00000           0.125173            3.40612
    206       0.00000           0.125173            3.40613
    207       0.00000           0.137441            3.73997
    208       0.00000           0.142347            3.87345
    209       0.00000           0.143789            3.91270
    210       0.00000           0.145757            3.96625
    211       0.00000           0.145757            3.96625
    212       0.00000           0.153193            4.16859
    213       0.00000           0.159178            4.33147
    214       0.00000           0.163829            4.45801
    215       0.00000           0.163829            4.45801
    216       0.00000           0.169749            4.61911
    217       0.00000           0.169749            4.61911
    218       0.00000           0.170734            4.64592
    219       0.00000           0.173966            4.73384
    220       0.00000           0.179122            4.87416
    221       0.00000           0.182005            4.95261
    222       0.00000           0.186089            5.06373
    223       0.00000           0.189863            5.16645
    224       0.00000           0.189863            5.16645
    225       0.00000           0.195723            5.32588
    226       0.00000           0.195723            5.32588
    227       0.00000           0.197044            5.36184
    228       0.00000           0.212191            5.77401
    229       0.00000           0.212299            5.77695
    230       0.00000           0.212299            5.77695
    231       0.00000           0.212686            5.78747
    232       0.00000           0.217214            5.91070
    233       0.00000           0.226023            6.15039
    234       0.00000           0.226023            6.15039
    235       0.00000           0.230784            6.27996
    236       0.00000           0.239675            6.52189
    237       0.00000           0.242593            6.60129
    238       0.00000           0.243021            6.61294
    239       0.00000           0.243021            6.61294
    240       0.00000           0.250802            6.82467
    241       0.00000           0.250802            6.82467
    242       0.00000           0.261167            7.10673
    243       0.00000           0.262981            7.15607
    244       0.00000           0.262983            7.15614
    245       0.00000           0.262983            7.15614
    246       0.00000           0.263956            7.18261
    247       0.00000           0.268811            7.31472
    248       0.00000           0.269987            7.34672
    249       0.00000           0.269987            7.34672
    250       0.00000           0.271073            7.37627
    251       0.00000           0.277687            7.55625
    252       0.00000           0.281349            7.65588
    253       0.00000           0.281505            7.66013
    254       0.00000           0.281522            7.66061
    255       0.00000           0.281522            7.66061
    256       0.00000           0.290725            7.91104
    257       0.00000           0.292677            7.96414
    258       0.00000           0.292677            7.96414
    259       0.00000           0.300162            8.16782
    260       0.00000           0.302777            8.23899
    261       0.00000           0.313767            8.53803
    262       0.00000           0.313767            8.53803
    263       0.00000           0.314152            8.54852
    264       0.00000           0.320410            8.71879
    265       0.00000           0.327364            8.90802
    266       0.00000           0.330192            8.98497
    267       0.00000           0.330192            8.98497
    268       0.00000           0.352750            9.59882
    269       0.00000           0.352750            9.59882
    270       0.00000           0.355779            9.68124
    271       0.00000           0.360912            9.82092
    272       0.00000           0.360912            9.82092
    273       0.00000           0.365464            9.94478
    274       0.00000           0.371806           10.11735
    275       0.00000           0.375620           10.22115
    276       0.00000           0.387356           10.54050
    277       0.00000           0.390822           10.63481
    278       0.00000           0.390822           10.63481
    279       0.00000           0.399270           10.86469
    280       0.00000           0.399488           10.87061
    281       0.00000           0.403857           10.98951
    282       0.00000           0.403857           10.98951
    283       0.00000           0.407962           11.10121
    284       0.00000           0.420677           11.44722
    285       0.00000           0.420883           11.45280
    286       0.00000           0.420883           11.45281
    287       0.00000           0.439242           11.95237
    288       0.00000           0.446651           12.15398
    289       0.00000           0.448960           12.21681
    290       0.00000           0.448960           12.21682
    291       0.00000           0.466595           12.69670
    292       0.00000           0.466595           12.69671
    293       0.00000           0.467202           12.71322
    294       0.00000           0.485716           13.21701
    295       0.00000           0.492819           13.41030

  Spin-down eigenvalues:

  State    Occupation    Eigenvalue [Ha]    Eigenvalue [eV]
      1       1.00000        -259.353520        -7057.36835
      2       1.00000         -30.140336         -820.16026
      3       1.00000         -25.678922         -698.75902
      4       1.00000         -25.678922         -698.75902
      5       1.00000         -25.678509         -698.74779
      6       1.00000         -14.250391         -387.77288
      7       1.00000         -14.250391         -387.77287
      8       1.00000         -14.250391         -387.77287
      9       1.00000         -14.250391         -387.77286
     10       1.00000         -14.246540         -387.66807
     11       1.00000         -14.246539         -387.66806
     12       1.00000         -14.246539         -387.66806
     13       1.00000         -14.246539         -387.66806
     14       1.00000         -10.162303         -276.53034
     15       1.00000         -10.162303         -276.53034
     16       1.00000         -10.162303         -276.53034
     17       1.00000         -10.162303         -276.53034
     18       1.00000         -10.162291         -276.53001
     19       1.00000         -10.162291         -276.53001
     20       1.00000         -10.162291         -276.53001
     21       1.00000         -10.162291         -276.53001
     22       1.00000         -10.161028         -276.49563
     23       1.00000         -10.161028         -276.49563
     24       1.00000         -10.161028         -276.49563
     25       1.00000         -10.161028         -276.49563
     26       1.00000         -10.160689         -276.48641
     27       1.00000         -10.160689         -276.48641
     28       1.00000         -10.160689         -276.48641
     29       1.00000         -10.160689         -276.48641
     30       1.00000         -10.159748         -276.46081
     31       1.00000         -10.159748         -276.46081
     32       1.00000         -10.159748         -276.46081
     33       1.00000         -10.159748         -276.46081
     34       1.00000         -10.159395         -276.45119
     35       1.00000         -10.159395         -276.45119
     36       1.00000         -10.159395         -276.45119
     37       1.00000         -10.159395         -276.45119
     38       1.00000         -10.144868         -276.05591
     39       1.00000         -10.144868         -276.05591
     40       1.00000         -10.144868         -276.05591
     41       1.00000         -10.144868         -276.05591
     42       1.00000         -10.144846         -276.05529
     43       1.00000         -10.144846         -276.05529
     44       1.00000         -10.144845         -276.05529
     45       1.00000         -10.144845         -276.05529
     46       1.00000          -3.420965          -93.08920
     47       1.00000          -2.178304          -59.27467
     48       1.00000          -2.178304          -59.27467
     49       1.00000          -2.169285          -59.02926
     50       1.00000          -1.085682          -29.54290
     51       1.00000          -1.072810          -29.19265
     52       1.00000          -1.072810          -29.19265
     53       1.00000          -1.046720          -28.48269
     54       1.00000          -1.033457          -28.12179
     55       1.00000          -0.998227          -27.16314
     56       1.00000          -0.998227          -27.16314
     57       1.00000          -0.980555          -26.68227
     58       1.00000          -0.970407          -26.40612
     59       1.00000          -0.969108          -26.37078
     60       1.00000          -0.969108          -26.37078
     61       1.00000          -0.962292          -26.18529
     62       1.00000          -0.886213          -24.11507
     63       1.00000          -0.879879          -23.94272
     64       1.00000          -0.879067          -23.92063
     65       1.00000          -0.879067          -23.92063
     66       1.00000          -0.876428          -23.84883
     67       1.00000          -0.876428          -23.84883
     68       1.00000          -0.876028          -23.83792
     69       1.00000          -0.874489          -23.79605
     70       1.00000          -0.827545          -22.51866
     71       1.00000          -0.802192          -21.82876
     72       1.00000          -0.802192          -21.82876
     73       1.00000          -0.761338          -20.71705
     74       1.00000          -0.760321          -20.68939
     75       1.00000          -0.755985          -20.57141
     76       1.00000          -0.755985          -20.57141
     77       1.00000          -0.746471          -20.31251
     78       1.00000          -0.744193          -20.25052
     79       1.00000          -0.720462          -19.60478
     80       1.00000          -0.720462          -19.60478
     81       1.00000          -0.711407          -19.35838
     82       1.00000          -0.697667          -18.98450
     83       1.00000          -0.677350          -18.43163
     84       1.00000          -0.669159          -18.20874
     85       1.00000          -0.669159          -18.20874
     86       1.00000          -0.654629          -17.81337
     87       1.00000          -0.652819          -17.76411
     88       1.00000          -0.652819          -17.76411
     89       1.00000          -0.621755          -16.91882
     90       1.00000          -0.620150          -16.87515
     91       1.00000          -0.617387          -16.79996
     92       1.00000          -0.614188          -16.71292
     93       1.00000          -0.614188          -16.71292
     94       1.00000          -0.610836          -16.62170
     95       1.00000          -0.601570          -16.36956
     96       1.00000          -0.601570          -16.36956
     97       1.00000          -0.583973          -15.89072
     98       1.00000          -0.580258          -15.78962
     99       1.00000          -0.569128          -15.48676
    100       1.00000          -0.569128          -15.48676
    101       1.00000          -0.567009          -15.42910
    102       1.00000          -0.564726          -15.36698
    103       1.00000          -0.561874          -15.28938
    104       1.00000          -0.561874          -15.28938
    105       1.00000          -0.561643          -15.28309
    106       1.00000          -0.551239          -14.99998
    107       1.00000          -0.539219          -14.67290
    108       1.00000          -0.539219          -14.67290
    109       1.00000          -0.527444          -14.35247
    110       1.00000          -0.518029          -14.09628
    111       1.00000          -0.510383          -13.88824
    112       1.00000          -0.507808          -13.81815
    113       1.00000          -0.507808          -13.81815
    114       1.00000          -0.502367          -13.67010
    115       1.00000          -0.497388          -13.53461
    116       1.00000          -0.494555          -13.45754
    117       1.00000          -0.491138          -13.36454
    118       1.00000          -0.491138          -13.36454
    119       1.00000          -0.483955          -13.16909
    120       1.00000          -0.479777          -13.05539
    121       1.00000          -0.479777          -13.05539
    122       1.00000          -0.479475          -13.04717
    123       1.00000          -0.474909          -12.92293
    124       1.00000          -0.472742          -12.86396
    125       1.00000          -0.472742          -12.86396
    126       1.00000          -0.459925          -12.51519
    127       1.00000          -0.437412          -11.90258
    128       1.00000          -0.433186          -11.78759
    129       1.00000          -0.433186          -11.78759
    130       1.00000          -0.413704          -11.25746
    131       1.00000          -0.413704          -11.25746
    132       1.00000          -0.404123          -10.99674
    133       1.00000          -0.401645          -10.92930
    134       1.00000          -0.392190          -10.67205
    135       1.00000          -0.391136          -10.64335
    136       1.00000          -0.391136          -10.64335
    137       1.00000          -0.388365          -10.56794
    138       1.00000          -0.387375          -10.54101
    139       1.00000          -0.387375          -10.54101
    140       1.00000          -0.383182          -10.42691
    141       1.00000          -0.381167          -10.37208
    142       1.00000          -0.309126           -8.41174
    143       1.00000          -0.277214           -7.54337
    144       1.00000          -0.277214           -7.54337
    145       0.00000          -0.265908           -7.23571
    146       0.00000          -0.244126           -6.64301
    147       0.00000          -0.241334           -6.56703
    148       0.00000          -0.241334           -6.56703
    149       0.00000          -0.226209           -6.15546
    150       0.00000          -0.220006           -5.98667
    151       0.00000          -0.213509           -5.80987
    152       0.00000          -0.208537           -5.67458
    153       0.00000          -0.208537           -5.67458
    154       0.00000          -0.165584           -4.50578
    155       0.00000          -0.162797           -4.42992
    156       0.00000          -0.160623           -4.37077
    157       0.00000          -0.160623           -4.37077
    158       0.00000          -0.136116           -3.70389
    159       0.00000          -0.131876           -3.58852
    160       0.00000          -0.082022           -2.23193
    161       0.00000          -0.082022           -2.23193
    162       0.00000          -0.068244           -1.85700
    163       0.00000          -0.046235           -1.25811
    164       0.00000          -0.040175           -1.09323
    165       0.00000          -0.040175           -1.09323
    166       0.00000          -0.037014           -1.00721
    167       0.00000          -0.034414           -0.93644
    168       0.00000          -0.027304           -0.74299
    169       0.00000          -0.027304           -0.74299
    170       0.00000          -0.026067           -0.70932
    171       0.00000          -0.017429           -0.47427
    172       0.00000          -0.015481           -0.42126
    173       0.00000          -0.015481           -0.42126
    174       0.00000          -0.008030           -0.21851
    175       0.00000          -0.003544           -0.09643
    176       0.00000           0.000579            0.01576
    177       0.00000           0.000579            0.01576
    178       0.00000           0.008229            0.22392
    179       0.00000           0.010784            0.29344
    180       0.00000           0.020503            0.55791
    181       0.00000           0.020503            0.55791
    182       0.00000           0.022787            0.62006
    183       0.00000           0.025519            0.69442
    184       0.00000           0.043162            1.17450
    185       0.00000           0.043162            1.17450
    186       0.00000           0.043468            1.18282
    187       0.00000           0.044802            1.21912
    188       0.00000           0.045934            1.24992
    189       0.00000           0.047196            1.28427
    190       0.00000           0.047196            1.28428
    191       0.00000           0.056528            1.53821
    192       0.00000           0.064461            1.75407
    193       0.00000           0.070987            1.93167
    194       0.00000           0.071093            1.93453
    195       0.00000           0.071093            1.93453
    196       0.00000           0.075862            2.06430
    197       0.00000           0.079087            2.15208
    198       0.00000           0.085842            2.33588
    199       0.00000           0.085842            2.33588
    200       0.00000           0.091187            2.48132
    201       0.00000           0.095317            2.59371
    202       0.00000           0.105430            2.86890
    203       0.00000           0.105430            2.86890
    204       0.00000           0.121430            3.30428
    205       0.00000           0.125243            3.40804
    206       0.00000           0.125243            3.40804
    207       0.00000           0.138031            3.75601
    208       0.00000           0.142393            3.87470
    209       0.00000           0.144937            3.94395
    210       0.00000           0.146339            3.98208
    211       0.00000           0.146339            3.98208
    212       0.00000           0.153196            4.16867
    213       0.00000           0.159983            4.35337
    214       0.00000           0.164364            4.47257
    215       0.00000           0.164364            4.47257
    216       0.00000           0.170371            4.63604
    217       0.00000           0.170371            4.63604
    218       0.00000           0.170734            4.64591
    219       0.00000           0.174746            4.75508
    220       0.00000           0.179248            4.87759
    221       0.00000           0.184579            5.02265
    222       0.00000           0.186087            5.06369
    223       0.00000           0.190301            5.17837
    224       0.00000           0.190301            5.17837
    225       0.00000           0.195863            5.32971
    226       0.00000           0.195863            5.32971
    227       0.00000           0.198165            5.39235
    228       0.00000           0.212183            5.77378
    229       0.00000           0.212821            5.79116
    230       0.00000           0.213881            5.81999
    231       0.00000           0.213881            5.81999
    232       0.00000           0.217210            5.91059
    233       0.00000           0.226501            6.16341
    234       0.00000           0.226501            6.16341
    235       0.00000           0.235407            6.40575
    236       0.00000           0.241056            6.55948
    237       0.00000           0.242651            6.60287
    238       0.00000           0.243037            6.61336
    239       0.00000           0.243037            6.61336
    240       0.00000           0.251986            6.85687
    241       0.00000           0.251986            6.85688
    242       0.00000           0.261167            7.10671
    243       0.00000           0.262980            7.15606
    244       0.00000           0.263107            7.15950
    245       0.00000           0.263107            7.15950
    246       0.00000           0.264075            7.18585
    247       0.00000           0.268798            7.31437
    248       0.00000           0.270083            7.34934
    249       0.00000           0.270083            7.34934
    250       0.00000           0.276832            7.53297
    251       0.00000           0.277686            7.55623
    252       0.00000           0.281494            7.65985
    253       0.00000           0.281978            7.67301
    254       0.00000           0.281978            7.67302
    255       0.00000           0.282597            7.68985
    256       0.00000           0.290724            7.91099
    257       0.00000           0.296042            8.05570
    258       0.00000           0.296042            8.05570
    259       0.00000           0.300260            8.17049
    260       0.00000           0.305019            8.29998
    261       0.00000           0.314014            8.54476
    262       0.00000           0.314014            8.54476
    263       0.00000           0.314160            8.54873
    264       0.00000           0.322061            8.76372
    265       0.00000           0.327362            8.90796
    266       0.00000           0.331493            9.02039
    267       0.00000           0.331493            9.02039
    268       0.00000           0.352780            9.59963
    269       0.00000           0.352780            9.59963
    270       0.00000           0.355797            9.68174
    271       0.00000           0.361574            9.83893
    272       0.00000           0.361574            9.83893
    273       0.00000           0.368608           10.03034
    274       0.00000           0.373825           10.17231
    275       0.00000           0.375618           10.22108
    276       0.00000           0.387576           10.54649
    277       0.00000           0.391165           10.64414
    278       0.00000           0.391165           10.64414
    279       0.00000           0.399274           10.86481
    280       0.00000           0.399447           10.86950
    281       0.00000           0.404217           10.99931
    282       0.00000           0.404217           10.99931
    283       0.00000           0.408316           11.11084
    284       0.00000           0.420907           11.45346
    285       0.00000           0.424062           11.53932
    286       0.00000           0.424062           11.53932
    287       0.00000           0.439239           11.95231
    288       0.00000           0.446650           12.15397
    289       0.00000           0.449366           12.22787
    290       0.00000           0.449366           12.22787
    291       0.00000           0.473324           12.87980
    292       0.00000           0.473534           12.88553
    293       0.00000           0.473534           12.88553
    294       0.00000           0.485821           13.21987
    295       0.00000           0.492940           13.41357

  Current spin moment of the entire structure :
  | N = N_up - N_down :    2.00
  | S                 :    1.00
  | J                 :    3.00

  Highest occupied state (VBM) at     -7.54336609 eV
  | Occupation number:      1.00000000
  | Spin channel:        2

  Lowest unoccupied state (CBM) at    -7.23571462 eV
  | Occupation number:      0.00000000
  | Spin channel:        2

  Overall HOMO-LUMO gap:      0.30765147 eV.
  Calculating total energy contributions from superposition of free atom densities.

  Total energy components:
  | Sum of eigenvalues            :       -1752.89129889 Ha      -47698.59912087 eV
  | XC energy correction          :        -285.77838949 Ha       -7776.42563817 eV
  | XC potential correction       :         367.86836761 Ha       10010.20759647 eV
  | Free-atom electrostatic energy:       -1274.87097841 Ha      -34691.00438131 eV
  | Hartree energy correction     :          -0.10849712 Ha          -2.95235684 eV
  | vdW energy correction         :           0.00000000 Ha           0.00000000 eV
  | Entropy correction            :          -0.00000000 Ha          -0.00000000 eV
  | ---------------------------
  | Total energy                  :       -2945.78079630 Ha      -80158.77390072 eV
  | Total energy, T -> 0          :       -2945.78079630 Ha      -80158.77390072 eV  <-- do not rely on this value for anything but (periodic) metals
  | Electronic free energy        :       -2945.78079630 Ha      -80158.77390072 eV

  Derived energy quantities:
  | Kinetic energy                :        2949.68820665 Ha       80265.09994614 eV
  | Electrostatic energy          :       -5609.69061345 Ha     -152647.44820869 eV
  | Energy correction for multipole
  | error in Hartree potential    :          -0.00014810 Ha          -0.00403003 eV
  | Sum of eigenvalues per atom                           :        -836.81752844 eV
  | Total energy (T->0) per atom                          :       -1406.29427896 eV  <-- do not rely on this value for anything but (periodic) metals
  | Electronic free energy per atom                       :       -1406.29427896 eV

  End scf initialization - timings             :  max(cpu_time)    wall_clock(cpu1)
  | Time for scf. initialization                :        0.931 s           0.953 s
  | Boundary condition initialization           :        0.003 s           0.002 s
  | Integration                                 :        0.321 s           0.326 s
  | Solution of K.-S. eqns.                     :        0.165 s           0.173 s
  | Grid partitioning                           :        0.169 s           0.171 s
  | Preloading free-atom quantities on grid     :        0.244 s           0.252 s
  | Free-atom superposition energy              :        0.025 s           0.025 s
  | Total energy evaluation                     :        0.000 s           0.000 s

  Partial memory accounting:
  | Current value for overall tracked memory usage:
  |   Minimum:        6.908 MB (on task 22)
  |   Maximum:        6.983 MB (on task  0)
  |   Average:        6.947 MB
  | Peak value for overall tracked memory usage:
  |   Minimum:       11.372 MB (on task 22 after allocating wave)
  |   Maximum:       11.797 MB (on task  5 after allocating wave)
  |   Average:       11.575 MB
  | Largest tracked array allocation so far:
  |   Minimum:        3.020 MB (KS_eigenvector on task  0)
  |   Maximum:        3.020 MB (KS_eigenvector on task  0)
  |   Average:        3.020 MB
  Note:  These values currently only include a subset of arrays which are explicitly tracked.
  The "true" memory usage will be greater.
------------------------------------------------------------
  Available memory after initialize_scf [GB]:    371.93
  Time for density update prior                :  max(cpu_time)    wall_clock(cpu1)
  | self-consistency iterative process          :        0.315 s           0.317 s
------------------------------------------------------------
Convergence:    q app. |  density,  spin     | eigen (eV) | Etot (eV) |             . |       CPU time |     Clock time
  SCF    1 : -0.34E-12 |  0.12E+01  0.41E+00 |   0.79E+02 |  0.62E+01 |             . |        0.781 s |        0.789 s
  SCF    2 :  0.28E-13 |  0.11E+01  0.24E+00 |   0.11E+03 |  0.39E+01 |             . |        0.744 s |        0.745 s
  SCF    3 :  0.31E-12 |  0.10E+01  0.23E+00 |   0.12E+04 |  0.19E+02 |             . |        0.749 s |        0.754 s
  SCF    4 : -0.28E-12 |  0.53E+00  0.21E+00 |  -0.27E+01 |  0.27E+00 |             . |        0.743 s |        0.746 s
  SCF    5 : -0.18E-12 |  0.45E+00  0.10E+00 |  -0.28E+02 | -0.19E+01 |             . |        0.759 s |        0.762 s
  SCF    6 : -0.12E-12 |  0.85E+00  0.58E+00 |   0.17E+02 |  0.99E+00 |             . |        0.751 s |        0.752 s
  SCF    7 : -0.12E-12 |  0.80E+00  0.57E+00 |   0.80E+02 |  0.24E+01 |             . |        0.746 s |        0.746 s
  SCF    8 : -0.19E-12 |  0.22E+00  0.83E-01 |   0.12E+03 | -0.25E+00 |             . |        0.749 s |        0.753 s
  SCF    9 :  0.33E-13 |  0.14E+00  0.46E-01 |  -0.75E+02 |  0.27E+00 |             . |        0.757 s |        0.763 s
  SCF   10 : -0.37E-12 |  0.12E+00  0.57E-01 |  -0.66E+02 |  0.15E+00 |             . |        0.771 s |        0.776 s
  SCF   11 :  0.37E-13 |  0.65E-01  0.44E-01 |  -0.51E+02 |  0.68E-01 |             . |        0.784 s |        0.786 s
  SCF   12 : -0.15E-12 |  0.58E-01  0.40E-01 |   0.24E+02 |  0.16E-01 |             . |        0.750 s |        0.751 s
  SCF   13 : -0.15E-12 |  0.42E-01  0.35E-01 |   0.55E+00 | -0.32E-02 |             . |        0.754 s |        0.754 s
  SCF   14 :  0.18E-12 |  0.44E-01  0.36E-01 |   0.61E+01 |  0.13E-01 |             . |        0.767 s |        0.770 s
  SCF   15 :  0.40E-13 |  0.31E-01  0.27E-01 |   0.31E+01 |  0.37E-02 |             . |        0.764 s |        0.769 s
  SCF   16 : -0.33E-12 |  0.23E-01  0.25E-01 |  -0.16E+01 |  0.55E-03 |             . |        0.738 s |        0.739 s
  SCF   17 : -0.91E-13 |  0.19E-01  0.21E-01 |   0.18E+00 |  0.18E-03 |             . |        0.768 s |        0.770 s
  SCF   18 : -0.22E-12 |  0.19E-01  0.21E-01 |  -0.18E-01 |  0.12E-02 |             . |        0.748 s |        0.753 s
  SCF   19 : -0.31E-12 |  0.77E-02  0.69E-02 |   0.49E+00 |  0.16E-02 |             . |        0.754 s |        0.754 s
  SCF   20 : -0.17E-12 |  0.47E-02  0.17E-02 |  -0.16E+01 |  0.92E-03 |             . |        0.749 s |        0.752 s
  SCF   21 : -0.39E-14 |  0.41E-02  0.14E-02 |   0.18E-02 | -0.26E-04 |             . |        0.744 s |        0.747 s
  SCF   22 :  0.24E-13 |  0.40E-02  0.13E-02 |   0.31E+01 | -0.11E-02 |             . |        0.792 s |        0.793 s
  SCF   23 : -0.32E-12 |  0.33E-02  0.94E-03 |   0.45E+00 | -0.47E-03 |             . |        0.752 s |        0.754 s
  SCF   24 : -0.16E-12 |  0.30E-02  0.86E-03 |   0.26E+00 | -0.59E-03 |             . |        0.745 s |        0.748 s
  SCF   25 : -0.35E-12 |  0.25E-02  0.83E-03 |   0.22E-01 | -0.42E-04 |             . |        0.765 s |        0.765 s
  SCF   26 :  0.31E-13 |  0.23E-02  0.86E-03 |  -0.97E-01 |  0.15E-03 |             . |        0.740 s |        0.739 s
  SCF   27 : -0.43E-12 |  0.18E-02  0.73E-03 |  -0.15E+00 | -0.28E-04 |             . |        0.747 s |        0.752 s
  SCF   28 : -0.65E-13 |  0.17E-02  0.59E-03 |  -0.36E+00 | -0.91E-04 |             . |        0.767 s |        0.767 s
  SCF   29 : -0.12E-12 |  0.14E-02  0.49E-03 |  -0.11E+00 |  0.58E-04 |             . |        0.765 s |        0.765 s
  SCF   30 : -0.12E-12 |  0.13E-02  0.51E-03 |   0.15E-01 |  0.17E-04 |             . |        0.759 s |        0.761 s
  SCF   31 : -0.25E-12 |  0.69E-03  0.45E-03 |  -0.29E-02 | -0.38E-05 |             . |        0.762 s |        0.767 s
  SCF   32 : -0.39E-12 |  0.68E-03  0.46E-03 |  -0.80E-03 |  0.14E-04 |             . |        0.751 s |        0.752 s
  SCF   33 : -0.36E-12 |  0.69E-03  0.43E-03 |  -0.25E+00 |  0.12E-03 |             . |        0.796 s |        0.798 s
  SCF   34 :  0.64E-14 |  0.68E-03  0.42E-03 |  -0.32E-01 |  0.15E-04 |             . |        0.759 s |        0.764 s
  SCF   35 :  0.12E-12 |  0.67E-03  0.42E-03 |  -0.16E-01 |  0.78E-06 |             . |        0.751 s |        0.753 s
  SCF   36 : -0.38E-12 |  0.67E-03  0.42E-03 |  -0.66E-02 | -0.23E-04 |             . |        0.767 s |        0.770 s
  SCF   37 : -0.33E-12 |  0.66E-03  0.42E-03 |  -0.51E-01 | -0.65E-04 |             . |        0.741 s |        0.744 s
  SCF   38 :  0.28E-13 |  0.64E-03  0.43E-03 |  -0.43E-02 | -0.13E-05 |             . |        0.739 s |        0.744 s
  SCF   39 : -0.28E-12 |  0.64E-03  0.42E-03 |  -0.21E+00 |  0.14E-04 |             . |        0.767 s |        0.769 s
  SCF   40 :  0.41E-13 |  0.58E-03  0.37E-03 |   0.13E+00 | -0.62E-04 |             . |        0.780 s |        0.784 s
  SCF   41 : -0.56E-12 |  0.44E-03  0.32E-03 |   0.58E-02 | -0.44E-05 |             . |        0.755 s |        0.759 s
  SCF   42 :  0.36E-13 |  0.43E-03  0.31E-03 |   0.31E-01 | -0.61E-04 |             . |        0.751 s |        0.753 s
  SCF   43 : -0.29E-12 |  0.29E-03  0.31E-03 |   0.35E-02 | -0.28E-05 |             . |        0.753 s |        0.755 s
  SCF   44 : -0.29E-12 |  0.29E-03  0.31E-03 |  -0.77E-02 |  0.23E-05 |             . |        0.771 s |        0.773 s
  SCF   45 : -0.15E-12 |  0.29E-03  0.31E-03 |   0.78E-02 |  0.18E-05 |             . |        0.740 s |        0.742 s
  SCF   46 : -0.48E-12 |  0.29E-03  0.31E-03 |   0.51E-02 | -0.67E-05 |             . |        0.741 s |        0.744 s
  SCF   47 : -0.94E-13 |  0.29E-03  0.31E-03 |  -0.19E-02 |  0.32E-05 |             . |        0.740 s |        0.741 s
  SCF   48 : -0.66E-13 |  0.29E-03  0.31E-03 |   0.10E-02 |  0.38E-05 |             . |        0.750 s |        0.749 s
  SCF   49 :  0.76E-13 |  0.29E-03  0.31E-03 |   0.33E-02 | -0.20E-05 |             . |        0.744 s |        0.746 s
  SCF   50 : -0.16E-12 |  0.29E-03  0.31E-03 |   0.44E-02 |  0.49E-05 |             . |        0.744 s |        0.747 s
  SCF   51 : -0.26E-12 |  0.29E-03  0.31E-03 |  -0.42E-03 |  0.29E-05 |             . |        0.742 s |        0.742 s
  SCF   52 : -0.12E-12 |  0.29E-03  0.31E-03 |  -0.37E-03 |  0.32E-06 |             . |        0.760 s |        0.760 s
  SCF   53 : -0.12E-12 |  0.29E-03  0.31E-03 |  -0.42E-04 | -0.11E-05 |             . |        0.764 s |        0.765 s
  SCF   54 : -0.58E-12 |  0.29E-03  0.31E-03 |  -0.47E-02 |  0.20E-05 |             . |        0.745 s |        0.747 s
  SCF   55 : -0.23E-12 |  0.29E-03  0.31E-03 |   0.36E-02 | -0.32E-06 |             . |        0.757 s |        0.757 s
  SCF   56 : -0.38E-12 |  0.29E-03  0.31E-03 |   0.59E-02 | -0.14E-05 |             . |        0.755 s |        0.755 s
  SCF   57 :  0.16E-12 |  0.29E-03  0.31E-03 |  -0.27E-02 |  0.70E-05 |             . |        0.742 s |        0.743 s
  SCF   58 : -0.29E-12 |  0.29E-03  0.31E-03 |   0.16E-02 | -0.15E-05 |             . |        0.754 s |        0.753 s
  SCF   59 : -0.14E-12 |  0.29E-03  0.31E-03 |  -0.37E-02 |  0.23E-05 |             . |        0.741 s |        0.742 s
  SCF   60 : -0.16E-12 |  0.29E-03  0.31E-03 |   0.52E-03 | -0.16E-05 |             . |        0.743 s |        0.744 s
  SCF   61 : -0.11E-13 |  0.29E-03  0.31E-03 |   0.33E-02 |  0.24E-05 |             . |        0.743 s |        0.742 s
  SCF   62 :  0.12E-12 |  0.29E-03  0.31E-03 |   0.57E-05 |  0.11E-05 |             . |        0.742 s |        0.743 s
  SCF   63 : -0.33E-12 |  0.29E-03  0.31E-03 |   0.95E-04 | -0.50E-06 |             . |        0.751 s |        0.753 s
  SCF   64 : -0.23E-12 |  0.29E-03  0.31E-03 |  -0.20E-02 |  0.17E-05 |             . |        0.770 s |        0.772 s
  SCF   65 : -0.10E-12 |  0.29E-03  0.31E-03 |   0.14E-02 | -0.44E-06 |             . |        0.745 s |        0.747 s
  SCF   66 : -0.24E-12 |  0.29E-03  0.31E-03 |   0.38E-02 | -0.74E-06 |             . |        0.774 s |        0.776 s
  SCF   67 : -0.97E-13 |  0.29E-03  0.31E-03 |  -0.49E-02 |  0.57E-06 |             . |        0.766 s |        0.768 s
  SCF   68 : -0.14E-12 |  0.29E-03  0.31E-03 |  -0.87E-02 | -0.48E-04 |             . |        0.743 s |        0.747 s
  SCF   69 : -0.34E-12 |  0.29E-03  0.30E-03 |   0.26E-02 | -0.38E-05 |             . |        0.770 s |        0.772 s
  SCF   70 :  0.14E-12 |  0.29E-03  0.30E-03 |   0.33E-01 | -0.58E-05 |             . |        0.738 s |        0.738 s
  SCF   71 : -0.64E-13 |  0.29E-03  0.29E-03 |   0.26E-01 | -0.13E-05 |             . |        0.773 s |        0.772 s
  SCF   72 : -0.14E-13 |  0.29E-03  0.29E-03 |   0.28E-01 | -0.24E-05 |             . |        0.743 s |        0.744 s
  SCF   73 : -0.48E-13 |  0.29E-03  0.27E-03 |   0.15E-01 | -0.22E-05 |             . |        0.752 s |        0.754 s
  SCF   74 : -0.12E-12 |  0.29E-03  0.27E-03 |   0.95E-02 | -0.46E-05 |             . |        0.778 s |        0.783 s
  SCF   75 : -0.69E-13 |  0.29E-03  0.26E-03 |   0.24E-01 | -0.23E-04 |             . |        0.748 s |        0.749 s
  SCF   76 : -0.18E-12 |  0.27E-03  0.26E-03 |   0.22E-01 | -0.86E-05 |             . |        0.747 s |        0.749 s
  SCF   77 :  0.31E-13 |  0.27E-03  0.25E-03 |   0.37E-01 | -0.12E-04 |             . |        0.773 s |        0.776 s
  SCF   78 : -0.32E-12 |  0.27E-03  0.25E-03 |   0.41E-01 | -0.58E-05 |             . |        0.773 s |        0.773 s
  SCF   79 : -0.17E-12 |  0.25E-03  0.24E-03 |  -0.69E-02 |  0.24E-05 |             . |        0.735 s |        0.736 s
  SCF   80 : -0.34E-12 |  0.25E-03  0.24E-03 |  -0.22E-01 |  0.59E-05 |             . |        0.769 s |        0.772 s
  SCF   81 :  0.56E-13 |  0.24E-03  0.24E-03 |   0.12E-01 | -0.13E-05 |             . |        0.744 s |        0.747 s
  SCF   82 : -0.27E-12 |  0.24E-03  0.24E-03 |  -0.95E-03 |  0.14E-06 |             . |        0.782 s |        0.781 s
  SCF   83 : -0.44E-12 |  0.24E-03  0.24E-03 |   0.46E-02 | -0.18E-05 |             . |        0.740 s |        0.743 s
  SCF   84 : -0.72E-13 |  0.25E-03  0.24E-03 |   0.26E-02 | -0.22E-05 |             . |        0.756 s |        0.761 s
  SCF   85 : -0.42E-12 |  0.24E-03  0.24E-03 |   0.29E-02 | -0.39E-05 |             . |        0.781 s |        0.783 s
  SCF   86 : -0.22E-12 |  0.24E-03  0.24E-03 |   0.53E-02 | -0.23E-05 |             . |        0.746 s |        0.747 s
  SCF   87 :  0.68E-13 |  0.24E-03  0.24E-03 |  -0.71E-03 |  0.22E-06 |             . |        0.759 s |        0.762 s
  SCF   88 : -0.43E-12 |  0.24E-03  0.24E-03 |  -0.40E-02 |  0.46E-06 |             . |        0.778 s |        0.779 s
  SCF   89 :  0.21E-12 |  0.24E-03  0.24E-03 |  -0.35E-02 |  0.13E-05 |             . |        0.769 s |        0.770 s
  SCF   90 : -0.35E-12 |  0.24E-03  0.24E-03 |   0.21E-02 | -0.31E-06 |             . |        0.734 s |        0.734 s
  SCF   91 :  0.80E-13 |  0.24E-03  0.24E-03 |   0.12E-02 |  0.48E-06 |             . |        0.760 s |        0.761 s
  SCF   92 : -0.33E-12 |  0.24E-03  0.24E-03 |  -0.21E-02 |  0.98E-06 |             . |        0.742 s |        0.743 s
  SCF   93 : -0.26E-12 |  0.24E-03  0.24E-03 |  -0.13E-01 |  0.36E-05 |             . |        0.769 s |        0.770 s
  SCF   94 : -0.14E-12 |  0.24E-03  0.24E-03 |   0.43E-02 | -0.21E-05 |             . |        0.737 s |        0.739 s
  SCF   95 : -0.40E-12 |  0.24E-03  0.24E-03 |  -0.83E-02 |  0.59E-05 |             . |        0.773 s |        0.774 s
  SCF   96 : -0.25E-12 |  0.24E-03  0.24E-03 |   0.24E-02 | -0.52E-06 |             . |        0.764 s |        0.764 s
  SCF   97 : -0.24E-12 |  0.24E-03  0.24E-03 |  -0.70E-02 |  0.85E-06 |             . |        0.749 s |        0.750 s
  SCF   98 : -0.27E-12 |  0.24E-03  0.24E-03 |  -0.28E-02 | -0.52E-06 |             . |        0.747 s |        0.745 s
  SCF   99 :  0.43E-14 |  0.24E-03  0.24E-03 |  -0.15E-02 |  0.27E-06 |             . |        0.771 s |        0.773 s
  SCF  100 : -0.20E-13 |  0.24E-03  0.24E-03 |  -0.16E-02 |  0.22E-06 |             . |        0.739 s |        0.738 s
  SCF  101 :  0.47E-14 |  0.24E-03  0.24E-03 |   0.27E-02 |  0.65E-06 |             . |        0.753 s |        0.753 s
  SCF  102 :  0.48E-14 |  0.24E-03  0.24E-03 |  -0.89E-03 |  0.42E-06 |             . |        0.754 s |        0.753 s
  SCF  103 :  0.57E-13 |  0.24E-03  0.24E-03 |   0.54E-03 | -0.11E-06 |             . |        0.750 s |        0.750 s
  SCF  104 : -0.22E-12 |  0.24E-03  0.24E-03 |   0.28E-02 | -0.12E-05 |             . |        0.748 s |        0.748 s
  SCF  105 : -0.17E-12 |  0.24E-03  0.24E-03 |  -0.38E-02 |  0.30E-05 |             . |        0.760 s |        0.761 s
  SCF  106 :  0.38E-14 |  0.24E-03  0.24E-03 |  -0.11E-01 |  0.19E-05 |             . |        0.741 s |        0.744 s
  SCF  107 :  0.56E-13 |  0.24E-03  0.24E-03 |  -0.51E-02 |  0.11E-06 |             . |        0.770 s |        0.773 s
  SCF  108 : -0.41E-12 |  0.24E-03  0.24E-03 |  -0.13E-01 | -0.84E-05 |             . |        0.756 s |        0.759 s
  SCF  109 : -0.55E-13 |  0.23E-03  0.24E-03 |  -0.14E-02 |  0.68E-06 |             . |        0.750 s |        0.751 s
  SCF  110 :  0.11E-13 |  0.23E-03  0.24E-03 |   0.27E-01 | -0.92E-05 |             . |        0.762 s |        0.761 s
  SCF  111 : -0.15E-12 |  0.23E-03  0.24E-03 |  -0.17E-02 | -0.40E-06 |             . |        0.746 s |        0.747 s
  SCF  112 : -0.19E-12 |  0.23E-03  0.24E-03 |  -0.14E-01 |  0.29E-05 |             . |        0.741 s |        0.741 s
  SCF  113 : -0.78E-13 |  0.23E-03  0.23E-03 |   0.15E-01 | -0.50E-05 |             . |        0.748 s |        0.748 s
  SCF  114 : -0.22E-12 |  0.23E-03  0.23E-03 |   0.78E-02 | -0.51E-05 |             . |        0.743 s |        0.746 s
  SCF  115 :  0.10E-12 |  0.23E-03  0.23E-03 |   0.41E-02 | -0.49E-05 |             . |        0.747 s |        0.746 s
  SCF  116 : -0.25E-12 |  0.23E-03  0.23E-03 |   0.12E-01 | -0.31E-05 |             . |        0.755 s |        0.754 s
  SCF  117 :  0.14E-12 |  0.23E-03  0.23E-03 |   0.11E-02 | -0.13E-06 |             . |        0.759 s |        0.763 s
  SCF  118 : -0.36E-12 |  0.23E-03  0.23E-03 |   0.44E-02 |  0.56E-06 |             . |        0.759 s |        0.759 s
  SCF  119 : -0.17E-12 |  0.23E-03  0.23E-03 |   0.11E-02 | -0.41E-06 |             . |        0.747 s |        0.749 s
  SCF  120 : -0.14E-12 |  0.23E-03  0.23E-03 |  -0.59E-02 |  0.20E-05 |             . |        0.761 s |        0.762 s
  SCF  121 : -0.24E-12 |  0.23E-03  0.23E-03 |   0.15E-01 | -0.70E-06 |             . |        0.740 s |        0.742 s
  SCF  122 : -0.48E-12 |  0.23E-03  0.22E-03 |  -0.19E-02 |  0.14E-05 |             . |        0.735 s |        0.737 s
  SCF  123 : -0.39E-12 |  0.23E-03  0.22E-03 |  -0.22E-01 |  0.11E-04 |             . |        0.767 s |        0.766 s
  SCF  124 : -0.13E-12 |  0.23E-03  0.21E-03 |   0.61E-02 | -0.18E-05 |             . |        0.779 s |        0.782 s
  SCF  125 : -0.15E-12 |  0.23E-03  0.21E-03 |  -0.52E-04 |  0.15E-05 |             . |        0.740 s |        0.740 s
  SCF  126 : -0.33E-12 |  0.23E-03  0.21E-03 |  -0.11E+00 |  0.33E-04 |             . |        0.768 s |        0.769 s
  SCF  127 : -0.12E-12 |  0.22E-03  0.19E-03 |  -0.65E-02 |  0.11E-05 |             . |        0.743 s |        0.747 s
  SCF  128 : -0.10E-12 |  0.21E-03  0.19E-03 |  -0.61E-01 |  0.16E-05 |             . |        0.785 s |        0.787 s
  SCF  129 :  0.80E-13 |  0.16E-03  0.13E-03 |   0.21E-01 | -0.54E-06 |             . |        0.759 s |        0.761 s
  SCF  130 : -0.36E-12 |  0.14E-03  0.11E-03 |   0.54E-01 | -0.89E-05 |             . |        0.764 s |        0.765 s
  SCF  131 :  0.35E-13 |  0.13E-03  0.93E-04 |   0.10E-01 |  0.52E-05 |             . |        0.764 s |        0.767 s
  SCF  132 : -0.75E-13 |  0.12E-03  0.76E-04 |  -0.43E-02 |  0.38E-05 |             . |        0.743 s |        0.745 s
  SCF  133 : -0.22E-12 |  0.11E-03  0.62E-04 |  -0.96E-02 |  0.38E-05 |             . |        0.742 s |        0.746 s
  SCF  134 : -0.22E-12 |  0.91E-04  0.56E-04 |  -0.35E-01 |  0.91E-05 |             . |        0.778 s |        0.778 s
  SCF  135 : -0.35E-12 |  0.73E-04  0.56E-04 |   0.22E-02 | -0.32E-05 |             . |        0.758 s |        0.759 s
  SCF  136 : -0.23E-12 |  0.70E-04  0.55E-04 |   0.26E-01 | -0.10E-04 |             . |        0.739 s |        0.742 s
  SCF  137 : -0.61E-13 |  0.64E-04  0.51E-04 |  -0.12E-02 | -0.48E-06 |             . |        0.765 s |        0.768 s
  SCF  138 : -0.14E-12 |  0.63E-04  0.49E-04 |  -0.87E-02 | -0.50E-06 |             . |        0.734 s |        0.736 s
  SCF  139 : -0.71E-12 |  0.60E-04  0.47E-04 |  -0.13E-01 |  0.83E-06 |             . |        0.779 s |        0.782 s
  SCF  140 : -0.27E-12 |  0.52E-04  0.49E-04 |  -0.31E-02 |  0.31E-06 |             . |        0.751 s |        0.754 s
  SCF  141 :  0.55E-14 |  0.52E-04  0.49E-04 |  -0.63E-03 | -0.40E-05 |             . |        0.765 s |        0.766 s
  SCF  142 : -0.25E-12 |  0.50E-04  0.45E-04 |   0.11E-02 | -0.93E-06 |             . |        0.772 s |        0.773 s
  SCF  143 :  0.38E-14 |  0.50E-04  0.44E-04 |   0.81E-02 | -0.40E-05 |             . |        0.736 s |        0.737 s
  SCF  144 : -0.19E-12 |  0.43E-04  0.30E-04 |   0.23E-02 | -0.13E-06 |             . |        0.740 s |        0.742 s
  SCF  145 :  0.22E-13 |  0.42E-04  0.28E-04 |  -0.78E-02 |  0.97E-05 |             . |        0.775 s |        0.778 s
  SCF  146 : -0.46E-12 |  0.32E-04  0.19E-04 |  -0.91E-02 |  0.37E-05 |             . |        0.771 s |        0.772 s
  SCF  147 :  0.26E-13 |  0.29E-04  0.18E-04 |   0.46E-02 |  0.17E-06 |             . |        0.752 s |        0.753 s
  SCF  148 : -0.26E-12 |  0.24E-04  0.15E-04 |   0.48E-03 | -0.74E-07 |             . |        0.759 s |        0.764 s
  SCF  149 : -0.16E-12 |  0.23E-04  0.15E-04 |  -0.35E-02 | -0.12E-05 |             . |        0.744 s |        0.743 s
  SCF  150 : -0.22E-12 |  0.15E-04  0.12E-04 |  -0.21E-05 | -0.12E-06 |             . |        0.780 s |        0.780 s
  SCF  151 :  0.11E-12 |  0.15E-04  0.12E-04 |  -0.34E-02 |  0.60E-06 |             . |        0.753 s |        0.753 s
  SCF  152 : -0.89E-13 |  0.14E-04  0.13E-04 |  -0.29E-03 | -0.21E-07 |             . |        0.746 s |        0.747 s
  SCF  153 : -0.54E-12 |  0.13E-04  0.13E-04 |  -0.12E-02 | -0.40E-06 |             . |        0.763 s |        0.762 s
  SCF  154 :  0.48E-13 |  0.13E-04  0.13E-04 |   0.68E-04 | -0.62E-08 |             . |        0.763 s |        0.766 s
  SCF  155 : -0.41E-12 |  0.13E-04  0.13E-04 |   0.21E-03 | -0.12E-06 |             . |        0.762 s |        0.761 s
  SCF  156 : -0.24E-12 |  0.13E-04  0.13E-04 |   0.38E-04 | -0.26E-07 |             . |        0.745 s |        0.749 s
  SCF  157 : -0.33E-12 |  0.13E-04  0.13E-04 |   0.11E-04 |  0.11E-06 |             . |        0.748 s |        0.748 s
  SCF  158 : -0.26E-13 |  0.13E-04  0.13E-04 |  -0.12E-04 | -0.34E-07 |             . |        0.749 s |        0.752 s
  SCF  159 : -0.93E-13 |  0.13E-04  0.13E-04 |  -0.63E-04 | -0.39E-08 |             . |        0.748 s |        0.751 s
  SCF  160 : -0.28E-12 |  0.13E-04  0.13E-04 |   0.11E-03 |  0.34E-07 |             . |        0.764 s |        0.764 s
  SCF  161 : -0.29E-12 |  0.13E-04  0.13E-04 |  -0.41E-03 |  0.64E-07 |             . |        0.744 s |        0.746 s
  SCF  162 : -0.16E-12 |  0.13E-04  0.13E-04 |   0.51E-03 | -0.19E-06 |             . |        0.743 s |        0.747 s
  SCF  163 : -0.30E-12 |  0.13E-04  0.13E-04 |  -0.71E-03 | -0.30E-06 |             . |        0.763 s |        0.764 s
  SCF  164 : -0.14E-12 |  0.13E-04  0.13E-04 |   0.55E-04 |  0.13E-07 |             . |        0.740 s |        0.740 s
  SCF  165 : -0.19E-12 |  0.13E-04  0.13E-04 |   0.14E-03 | -0.81E-07 |             . |        0.756 s |        0.755 s
  SCF  166 : -0.21E-12 |  0.13E-04  0.13E-04 |  -0.16E-03 |  0.83E-07 |             . |        0.745 s |        0.747 s
  SCF  167 : -0.51E-12 |  0.13E-04  0.13E-04 |   0.30E-05 |  0.14E-06 |             . |        0.747 s |        0.748 s
  SCF  168 :  0.75E-13 |  0.13E-04  0.13E-04 |  -0.45E-05 |  0.28E-08 |             . |        0.763 s |        0.765 s
  SCF  169 : -0.22E-12 |  0.13E-04  0.13E-04 |  -0.99E-04 |  0.17E-08 |             . |        0.747 s |        0.748 s
  SCF  170 : -0.33E-12 |  0.13E-04  0.13E-04 |   0.18E-03 |  0.36E-07 |             . |        0.755 s |        0.755 s
  SCF  171 : -0.29E-12 |  0.13E-04  0.13E-04 |  -0.34E-03 |  0.75E-07 |             . |        0.747 s |        0.752 s
  SCF  172 :  0.15E-12 |  0.13E-04  0.13E-04 |   0.58E-03 | -0.14E-06 |             . |        0.761 s |        0.764 s
  SCF  173 : -0.17E-12 |  0.13E-04  0.13E-04 |  -0.56E-03 |  0.89E-06 |             . |        0.758 s |        0.759 s
  SCF  174 : -0.11E-12 |  0.13E-04  0.12E-04 |   0.42E-04 | -0.19E-09 |             . |        0.780 s |        0.783 s
  SCF  175 : -0.25E-12 |  0.13E-04  0.12E-04 |   0.21E-03 | -0.62E-07 |             . |        0.745 s |        0.749 s
  SCF  176 : -0.27E-12 |  0.13E-04  0.12E-04 |   0.26E-03 | -0.23E-06 |             . |        0.762 s |        0.763 s
  SCF  177 :  0.16E-12 |  0.13E-04  0.12E-04 |   0.28E-04 |  0.43E-07 |             . |        0.766 s |        0.770 s
  SCF  178 : -0.35E-12 |  0.13E-04  0.12E-04 |   0.31E-04 | -0.22E-07 |             . |        0.738 s |        0.743 s
  SCF  179 : -0.22E-13 |  0.13E-04  0.12E-04 |  -0.15E-03 |  0.81E-08 |             . |        0.747 s |        0.749 s
  SCF  180 : -0.76E-13 |  0.13E-04  0.12E-04 |   0.81E-04 |  0.27E-07 |             . |        0.772 s |        0.777 s
  SCF  181 : -0.25E-12 |  0.13E-04  0.12E-04 |  -0.37E-03 |  0.97E-07 |             . |        0.774 s |        0.776 s
  SCF  182 : -0.33E-12 |  0.13E-04  0.12E-04 |   0.14E-03 | -0.75E-07 |             . |        0.750 s |        0.755 s
  SCF  183 :  0.93E-13 |  0.13E-04  0.12E-04 |   0.46E-03 | -0.16E-06 |             . |        0.765 s |        0.767 s
  SCF  184 : -0.17E-12 |  0.13E-04  0.12E-04 |  -0.14E-03 | -0.43E-07 |             . |        0.739 s |        0.740 s
  SCF  185 : -0.79E-13 |  0.13E-04  0.12E-04 |   0.18E-03 |  0.23E-07 |             . |        0.774 s |        0.774 s
  SCF  186 : -0.34E-12 |  0.13E-04  0.12E-04 |   0.18E-03 |  0.28E-07 |             . |        0.743 s |        0.743 s
  SCF  187 : -0.25E-12 |  0.13E-04  0.12E-04 |   0.15E-03 | -0.93E-09 |             . |        0.750 s |        0.751 s
  SCF  188 : -0.26E-12 |  0.13E-04  0.12E-04 |   0.75E-04 | -0.36E-06 |             . |        0.778 s |        0.784 s
  SCF  189 :  0.14E-12 |  0.13E-04  0.12E-04 |  -0.10E-03 | -0.58E-07 |             . |        0.750 s |        0.753 s
  SCF  190 : -0.24E-12 |  0.13E-04  0.12E-04 |   0.85E-05 | -0.98E-08 |             . |        0.746 s |        0.746 s
  SCF  191 : -0.32E-13 |  0.13E-04  0.12E-04 |  -0.88E-04 |  0.17E-07 |             . |        0.763 s |        0.766 s
  SCF  192 : -0.16E-12 |  0.13E-04  0.12E-04 |   0.22E-03 | -0.64E-07 |             . |        0.756 s |        0.758 s
  SCF  193 : -0.18E-12 |  0.13E-04  0.12E-04 |   0.11E-05 |  0.29E-06 |             . |        0.742 s |        0.743 s
  SCF  194 : -0.22E-12 |  0.12E-04  0.12E-04 |  -0.19E-03 | -0.34E-06 |             . |        0.769 s |        0.771 s
  SCF  195 : -0.44E-12 |  0.12E-04  0.12E-04 |   0.92E-04 |  0.10E-06 |             . |        0.751 s |        0.751 s
  SCF  196 :  0.66E-13 |  0.12E-04  0.12E-04 |  -0.26E-03 | -0.45E-07 |             . |        0.744 s |        0.746 s
  SCF  197 :  0.93E-13 |  0.12E-04  0.12E-04 |   0.16E-03 |  0.52E-07 |             . |        0.744 s |        0.747 s
  SCF  198 : -0.26E-12 |  0.12E-04  0.12E-04 |   0.17E-03 |  0.11E-06 |             . |        0.746 s |        0.747 s
  SCF  199 : -0.67E-13 |  0.12E-04  0.12E-04 |   0.36E-03 | -0.25E-06 |             . |        0.789 s |        0.789 s
  SCF  200 :  0.62E-13 |  0.12E-04  0.12E-04 |  -0.15E-03 | -0.72E-07 |             . |        0.759 s |        0.760 s
  SCF  201 :  0.17E-13 |  0.12E-04  0.12E-04 |  -0.24E-03 |  0.77E-07 |             . |        0.756 s |        0.761 s
  SCF  202 :  0.38E-13 |  0.12E-04  0.12E-04 |   0.20E-03 | -0.74E-07 |             . |        0.769 s |        0.773 s
  SCF  203 : -0.22E-12 |  0.12E-04  0.12E-04 |   0.17E-03 | -0.22E-07 |             . |        0.754 s |        0.757 s
  SCF  204 : -0.41E-12 |  0.12E-04  0.12E-04 |   0.61E-03 |  0.32E-06 |             . |        0.746 s |        0.748 s
  SCF  205 :  0.86E-13 |  0.12E-04  0.12E-04 |   0.24E-04 |  0.56E-08 |             . |        0.776 s |        0.777 s
  SCF  206 : -0.13E-12 |  0.12E-04  0.12E-04 |   0.28E-04 | -0.40E-07 |             . |        0.756 s |        0.756 s
  SCF  207 :  0.42E-13 |  0.12E-04  0.12E-04 |  -0.85E-04 | -0.30E-07 |             . |        0.769 s |        0.774 s
  SCF  208 : -0.27E-13 |  0.12E-04  0.12E-04 |  -0.14E-02 | -0.67E-06 |             . |        0.745 s |        0.750 s
  SCF  209 :  0.90E-13 |  0.11E-04  0.12E-04 |   0.12E-03 | -0.10E-06 |             . |        0.760 s |        0.762 s
  SCF  210 : -0.14E-12 |  0.11E-04  0.12E-04 |  -0.11E-03 | -0.50E-06 |             . |        0.765 s |        0.764 s
  SCF  211 : -0.28E-12 |  0.11E-04  0.11E-04 |  -0.16E-02 |  0.57E-06 |             . |        0.752 s |        0.754 s
  SCF  212 :  0.84E-13 |  0.11E-04  0.11E-04 |   0.62E-04 | -0.18E-07 |             . |        0.772 s |        0.771 s
  SCF  213 : -0.48E-12 |  0.11E-04  0.11E-04 |  -0.18E-02 | -0.35E-06 |             . |        0.753 s |        0.754 s
  SCF  214 : -0.10E-12 |  0.10E-04  0.11E-04 |  -0.26E-03 | -0.80E-07 |             . |        0.750 s |        0.755 s
  SCF  215 :  0.62E-13 |  0.10E-04  0.11E-04 |  -0.10E-03 | -0.91E-08 |             . |        0.756 s |        0.760 s
  SCF  216 :  0.46E-13 |  0.10E-04  0.11E-04 |   0.19E-03 |  0.24E-06 |             . |        0.747 s |        0.747 s
  SCF  217 : -0.22E-12 |  0.99E-05  0.11E-04 |  -0.27E-04 |  0.20E-07 |             . |        0.752 s |        0.753 s
  SCF  218 : -0.18E-12 |  0.99E-05  0.11E-04 |  -0.77E-04 |  0.41E-08 |             . |        0.743 s |        0.746 s
  SCF  219 :  0.27E-12 |  0.99E-05  0.11E-04 |   0.22E-03 | -0.29E-08 |             . |        0.760 s |        0.763 s
  SCF  220 : -0.51E-12 |  0.99E-05  0.11E-04 |  -0.55E-05 | -0.18E-07 |             . |        0.761 s |        0.762 s
  SCF  221 : -0.40E-12 |  0.99E-05  0.11E-04 |  -0.17E-03 | -0.69E-07 |             . |        0.754 s |        0.755 s
  SCF  222 : -0.36E-13 |  0.99E-05  0.11E-04 |   0.10E-03 | -0.93E-07 |             . |        0.760 s |        0.761 s
  SCF  223 : -0.11E-12 |  0.99E-05  0.11E-04 |  -0.51E-05 | -0.11E-06 |             . |        0.757 s |        0.759 s
  SCF  224 : -0.18E-12 |  0.99E-05  0.11E-04 |  -0.43E-03 | -0.14E-06 |             . |        0.747 s |        0.748 s
  SCF  225 :  0.21E-12 |  0.98E-05  0.11E-04 |   0.42E-04 | -0.17E-08 |             . |        0.749 s |        0.751 s
  SCF  226 :  0.18E-12 |  0.98E-05  0.11E-04 |  -0.13E-02 |  0.50E-06 |             . |        0.740 s |        0.742 s
  SCF  227 : -0.32E-12 |  0.95E-05  0.11E-04 |  -0.26E-03 |  0.71E-07 |             . |        0.749 s |        0.752 s
  SCF  228 : -0.16E-12 |  0.94E-05  0.11E-04 |  -0.95E-03 |  0.14E-06 |             . |        0.760 s |        0.760 s
  SCF  229 : -0.14E-12 |  0.92E-05  0.11E-04 |  -0.16E-03 |  0.21E-07 |             . |        0.741 s |        0.744 s
  SCF  230 : -0.10E-12 |  0.92E-05  0.11E-04 |  -0.20E-03 | -0.86E-08 |             . |        0.773 s |        0.774 s
  SCF  231 : -0.78E-13 |  0.92E-05  0.11E-04 |  -0.27E-03 | -0.75E-07 |             . |        0.745 s |        0.745 s
  SCF  232 : -0.28E-12 |  0.91E-05  0.11E-04 |  -0.40E-04 |  0.83E-07 |             . |        0.745 s |        0.746 s
  SCF  233 : -0.42E-12 |  0.91E-05  0.11E-04 |   0.31E-04 |  0.54E-07 |             . |        0.769 s |        0.771 s
  SCF  234 : -0.13E-12 |  0.91E-05  0.11E-04 |   0.76E-04 |  0.45E-08 |             . |        0.778 s |        0.777 s
  SCF  235 : -0.11E-12 |  0.91E-05  0.11E-04 |   0.52E-04 | -0.15E-07 |             . |        0.744 s |        0.746 s
  SCF  236 : -0.39E-12 |  0.90E-05  0.11E-04 |   0.53E-04 | -0.24E-07 |             . |        0.756 s |        0.759 s
  SCF  237 :  0.45E-13 |  0.91E-05  0.11E-04 |  -0.24E-03 |  0.79E-07 |             . |        0.740 s |        0.739 s
  SCF  238 :  0.17E-13 |  0.90E-05  0.11E-04 |   0.30E-03 | -0.51E-07 |             . |        0.785 s |        0.789 s
  SCF  239 : -0.37E-12 |  0.91E-05  0.11E-04 |   0.70E-04 | -0.83E-08 |             . |        0.748 s |        0.753 s
  SCF  240 : -0.23E-12 |  0.91E-05  0.11E-04 |   0.71E-05 |  0.90E-09 |             . |        0.759 s |        0.760 s
  SCF  241 : -0.36E-13 |  0.90E-05  0.11E-04 |  -0.11E-04 | -0.11E-07 |             . |        0.771 s |        0.771 s
  SCF  242 : -0.23E-12 |  0.91E-05  0.11E-04 |   0.16E-04 |  0.40E-07 |             . |        0.738 s |        0.741 s
  SCF  243 : -0.12E-12 |  0.91E-05  0.11E-04 |  -0.50E-05 | -0.56E-08 |             . |        0.754 s |        0.754 s
  SCF  244 : -0.21E-13 |  0.91E-05  0.11E-04 |  -0.28E-04 | -0.27E-08 |             . |        0.762 s |        0.763 s
  SCF  245 : -0.14E-13 |  0.91E-05  0.11E-04 |   0.50E-04 | -0.19E-07 |             . |        0.763 s |        0.765 s
  SCF  246 : -0.26E-12 |  0.91E-05  0.11E-04 |  -0.82E-05 |  0.13E-07 |             . |        0.740 s |        0.742 s
  SCF  247 : -0.36E-12 |  0.90E-05  0.11E-04 |   0.40E-03 | -0.12E-06 |             . |        0.770 s |        0.775 s
  SCF  248 :  0.53E-13 |  0.90E-05  0.11E-04 |   0.55E-03 | -0.15E-06 |             . |        0.745 s |        0.746 s
  SCF  249 : -0.17E-12 |  0.91E-05  0.11E-04 |   0.12E-02 | -0.31E-06 |             . |        0.756 s |        0.755 s
  SCF  250 :  0.11E-12 |  0.91E-05  0.10E-04 |  -0.23E-04 |  0.11E-07 |             . |        0.736 s |        0.739 s
  SCF  251 : -0.26E-12 |  0.91E-05  0.10E-04 |  -0.97E-05 |  0.73E-08 |             . |        0.750 s |        0.751 s
  SCF  252 : -0.11E-12 |  0.91E-05  0.10E-04 |  -0.69E-04 | -0.76E-08 |             . |        0.790 s |        0.791 s
  SCF  253 : -0.13E-12 |  0.91E-05  0.10E-04 |   0.36E-04 |  0.74E-07 |             . |        0.756 s |        0.762 s
  SCF  254 : -0.20E-12 |  0.91E-05  0.10E-04 |  -0.46E-04 |  0.28E-08 |             . |        0.745 s |        0.746 s
  SCF  255 :  0.15E-12 |  0.91E-05  0.10E-04 |   0.74E-04 | -0.27E-07 |             . |        0.762 s |        0.767 s
  SCF  256 : -0.21E-12 |  0.91E-05  0.10E-04 |   0.33E-04 | -0.25E-08 |             . |        0.744 s |        0.748 s
  SCF  257 : -0.37E-12 |  0.91E-05  0.10E-04 |  -0.18E-05 |  0.75E-08 |             . |        0.737 s |        0.738 s
  SCF  258 : -0.23E-12 |  0.91E-05  0.10E-04 |  -0.27E-04 | -0.61E-08 |             . |        0.759 s |        0.763 s
  SCF  259 : -0.16E-12 |  0.91E-05  0.10E-04 |  -0.13E-02 |  0.28E-06 |             . |        0.764 s |        0.767 s
  SCF  260 :  0.76E-13 |  0.89E-05  0.10E-04 |  -0.12E-03 |  0.16E-08 |             . |        0.734 s |        0.735 s
  SCF  261 :  0.69E-13 |  0.89E-05  0.11E-04 |   0.47E-04 | -0.33E-08 |             . |        0.752 s |        0.752 s
  SCF  262 :  0.27E-12 |  0.89E-05  0.11E-04 |  -0.93E-04 |  0.15E-08 |             . |        0.735 s |        0.737 s
  SCF  263 : -0.33E-12 |  0.89E-05  0.11E-04 |   0.11E-03 |  0.44E-07 |             . |        0.790 s |        0.794 s
  SCF  264 : -0.94E-13 |  0.89E-05  0.11E-04 |  -0.60E-04 |  0.26E-07 |             . |        0.745 s |        0.744 s
  SCF  265 :  0.12E-12 |  0.89E-05  0.11E-04 |   0.86E-04 | -0.33E-07 |             . |        0.743 s |        0.743 s
  SCF  266 :  0.15E-12 |  0.89E-05  0.11E-04 |   0.12E-04 |  0.51E-08 |             . |        0.767 s |        0.770 s
  SCF  267 :  0.11E-12 |  0.89E-05  0.11E-04 |  -0.28E-04 | -0.58E-08 |             . |        0.752 s |        0.753 s
  SCF  268 : -0.29E-12 |  0.89E-05  0.11E-04 |   0.49E-04 | -0.75E-08 |             . |        0.757 s |        0.760 s
  SCF  269 : -0.28E-12 |  0.89E-05  0.11E-04 |   0.54E-03 | -0.69E-08 |             . |        0.754 s |        0.756 s
  SCF  270 : -0.18E-12 |  0.90E-05  0.10E-04 |   0.35E-03 | -0.19E-06 |             . |        0.749 s |        0.749 s
  SCF  271 : -0.28E-12 |  0.90E-05  0.10E-04 |   0.13E-04 |  0.75E-08 |             . |        0.760 s |        0.763 s
  SCF  272 : -0.23E-12 |  0.90E-05  0.10E-04 |   0.13E-03 | -0.15E-06 |             . |        0.739 s |        0.744 s
  SCF  273 :  0.14E-12 |  0.89E-05  0.10E-04 |  -0.30E-04 |  0.38E-08 |             . |        0.758 s |        0.757 s
  SCF  274 : -0.40E-12 |  0.89E-05  0.10E-04 |   0.19E-04 |  0.76E-07 |             . |        0.752 s |        0.753 s
  SCF  275 : -0.39E-12 |  0.89E-05  0.10E-04 |   0.55E-04 | -0.19E-07 |             . |        0.753 s |        0.753 s
  SCF  276 : -0.14E-13 |  0.89E-05  0.10E-04 |   0.78E-05 |  0.80E-08 |             . |        0.757 s |        0.762 s
  SCF  277 : -0.32E-12 |  0.89E-05  0.10E-04 |  -0.38E-04 | -0.77E-08 |             . |        0.755 s |        0.761 s
  SCF  278 : -0.34E-12 |  0.89E-05  0.10E-04 |   0.27E-04 | -0.70E-08 |             . |        0.748 s |        0.753 s
  SCF  279 : -0.27E-12 |  0.89E-05  0.10E-04 |   0.15E-03 |  0.20E-06 |             . |        0.758 s |        0.764 s
  SCF  280 : -0.13E-13 |  0.90E-05  0.10E-04 |  -0.11E-03 |  0.15E-07 |             . |        0.750 s |        0.752 s
  SCF  281 :  0.71E-13 |  0.89E-05  0.10E-04 |   0.11E-02 | -0.30E-06 |             . |        0.752 s |        0.754 s
  SCF  282 :  0.83E-14 |  0.91E-05  0.10E-04 |   0.32E-03 | -0.31E-06 |             . |        0.742 s |        0.745 s
  SCF  283 :  0.98E-13 |  0.89E-05  0.10E-04 |   0.28E-04 |  0.38E-07 |             . |        0.753 s |        0.758 s
  SCF  284 :  0.54E-13 |  0.89E-05  0.10E-04 |  -0.18E-03 |  0.44E-06 |             . |        0.774 s |        0.780 s
  SCF  285 : -0.17E-12 |  0.90E-05  0.10E-04 |  -0.89E-04 |  0.30E-07 |             . |        0.749 s |        0.753 s
  SCF  286 : -0.25E-12 |  0.90E-05  0.10E-04 |  -0.65E-03 |  0.20E-06 |             . |        0.769 s |        0.774 s
  SCF  287 : -0.49E-12 |  0.90E-05  0.10E-04 |  -0.14E-03 |  0.76E-07 |             . |        0.755 s |        0.756 s
  SCF  288 : -0.11E-13 |  0.90E-05  0.10E-04 |  -0.94E-04 |  0.76E-07 |             . |        0.749 s |        0.752 s
  SCF  289 : -0.56E-12 |  0.89E-05  0.10E-04 |  -0.20E-04 |  0.70E-08 |             . |        0.762 s |        0.763 s
  SCF  290 : -0.64E-13 |  0.89E-05  0.10E-04 |   0.11E-03 |  0.24E-07 |             . |        0.771 s |        0.777 s
  SCF  291 : -0.21E-12 |  0.90E-05  0.10E-04 |  -0.36E-04 |  0.38E-07 |             . |        0.735 s |        0.736 s
  SCF  292 : -0.37E-12 |  0.90E-05  0.10E-04 |  -0.16E-03 |  0.63E-07 |             . |        0.766 s |        0.771 s
  SCF  293 :  0.68E-13 |  0.89E-05  0.10E-04 |   0.88E-04 | -0.12E-06 |             . |        0.744 s |        0.744 s
  SCF  294 :  0.12E-12 |  0.89E-05  0.10E-04 |  -0.97E-04 |  0.13E-06 |             . |        0.753 s |        0.755 s
  SCF  295 : -0.22E-12 |  0.90E-05  0.10E-04 |   0.27E-03 | -0.10E-06 |             . |        0.739 s |        0.742 s
  SCF  296 :  0.13E-12 |  0.89E-05  0.10E-04 |  -0.79E-04 |  0.25E-07 |             . |        0.746 s |        0.745 s
  SCF  297 : -0.40E-12 |  0.89E-05  0.10E-04 |   0.79E-04 | -0.24E-07 |             . |        0.790 s |        0.795 s
  SCF  298 : -0.28E-12 |  0.89E-05  0.10E-04 |  -0.14E-03 |  0.54E-07 |             . |        0.758 s |        0.760 s
  SCF  299 :  0.42E-13 |  0.89E-05  0.10E-04 |  -0.33E-04 |  0.62E-07 |             . |        0.748 s |        0.751 s
  SCF  300 : -0.23E-12 |  0.88E-05  0.10E-04 |   0.88E-05 |  0.15E-06 |             . |        0.776 s |        0.781 s
  SCF  301 :  0.15E-12 |  0.88E-05  0.10E-04 |  -0.20E-03 |  0.83E-07 |             . |        0.736 s |        0.737 s
  SCF  302 : -0.15E-12 |  0.88E-05  0.10E-04 |  -0.24E-03 |  0.79E-07 |             . |        0.741 s |        0.741 s
  SCF  303 : -0.12E-12 |  0.88E-05  0.10E-04 |   0.68E-04 | -0.11E-06 |             . |        0.761 s |        0.766 s
  SCF  304 : -0.38E-13 |  0.88E-05  0.10E-04 |  -0.88E-04 |  0.12E-06 |             . |        0.760 s |        0.766 s
  SCF  305 : -0.41E-12 |  0.88E-05  0.10E-04 |   0.26E-03 | -0.10E-06 |             . |        0.744 s |        0.749 s
  SCF  306 : -0.12E-13 |  0.88E-05  0.10E-04 |  -0.58E-04 |  0.17E-07 |             . |        0.777 s |        0.782 s
  SCF  307 : -0.13E-12 |  0.88E-05  0.10E-04 |   0.55E-04 | -0.10E-07 |             . |        0.754 s |        0.757 s
  SCF  308 : -0.11E-13 |  0.88E-05  0.10E-04 |  -0.47E-03 |  0.18E-06 |             . |        0.750 s |        0.751 s
  SCF  309 : -0.15E-12 |  0.87E-05  0.10E-04 |  -0.11E-03 |  0.77E-07 |             . |        0.752 s |        0.755 s
  SCF  310 : -0.24E-12 |  0.88E-05  0.10E-04 |  -0.73E-04 |  0.84E-07 |             . |        0.749 s |        0.754 s
  SCF  311 : -0.29E-12 |  0.88E-05  0.10E-04 |  -0.14E-03 |  0.44E-07 |             . |        0.789 s |        0.794 s
  SCF  312 : -0.72E-13 |  0.88E-05  0.10E-04 |   0.14E-03 | -0.46E-07 |             . |        0.751 s |        0.756 s
  SCF  313 : -0.39E-13 |  0.88E-05  0.10E-04 |   0.56E-04 | -0.18E-06 |             . |        0.760 s |        0.765 s
  SCF  314 :  0.30E-13 |  0.87E-05  0.10E-04 |  -0.19E-04 |  0.47E-07 |             . |        0.769 s |        0.771 s
  SCF  315 : -0.19E-12 |  0.88E-05  0.10E-04 |   0.24E-03 | -0.11E-06 |             . |        0.750 s |        0.756 s
  SCF  316 : -0.93E-13 |  0.87E-05  0.10E-04 |   0.29E-03 | -0.12E-06 |             . |        0.747 s |        0.748 s
  SCF  317 : -0.21E-12 |  0.87E-05  0.10E-04 |   0.40E-04 | -0.33E-07 |             . |        0.776 s |        0.781 s
  SCF  318 : -0.51E-13 |  0.86E-05  0.10E-04 |  -0.10E-02 | -0.17E-06 |             . |        0.775 s |        0.781 s
  SCF  319 : -0.19E-12 |  0.86E-05  0.96E-05 |  -0.39E-04 | -0.52E-07 |             . |        0.740 s |        0.744 s
  SCF  320 : -0.43E-12 |  0.86E-05  0.95E-05 |  -0.41E-03 |  0.26E-06 |             . |        0.761 s |        0.762 s
  SCF  321 :  0.83E-13 |  0.86E-05  0.92E-05 |  -0.80E-03 |  0.24E-06 |             . |        0.741 s |        0.743 s
  SCF  322 :  0.51E-13 |  0.85E-05  0.91E-05 |  -0.15E-02 |  0.55E-06 |             . |        0.761 s |        0.763 s
  SCF  323 : -0.51E-12 |  0.84E-05  0.91E-05 |  -0.75E-04 |  0.37E-06 |             . |        0.755 s |        0.756 s
  SCF  324 :  0.80E-13 |  0.86E-05  0.89E-05 |  -0.11E-03 |  0.31E-06 |             . |        0.831 s |        0.838 s
  SCF  325 : -0.36E-12 |  0.87E-05  0.87E-05 |  -0.16E-03 |  0.66E-07 |             . |        0.743 s |        0.747 s
  SCF  326 : -0.96E-14 |  0.87E-05  0.86E-05 |  -0.20E-03 | -0.10E-06 |             . |        0.760 s |        0.761 s
  SCF  327 : -0.25E-12 |  0.88E-05  0.77E-05 |   0.25E-04 | -0.76E-08 |             . |        0.754 s |        0.755 s
  SCF  328 : -0.29E-12 |  0.88E-05  0.76E-05 |   0.50E-03 |  0.33E-06 |             . |        0.750 s |        0.750 s
  SCF  329 :  0.46E-13 |  0.80E-05  0.66E-05 |  -0.63E-04 |  0.50E-07 |             . |        0.751 s |        0.751 s
  SCF  330 : -0.22E-12 |  0.80E-05  0.66E-05 |   0.78E-04 |  0.74E-08 |             . |        0.755 s |        0.756 s
  SCF  331 : -0.25E-12 |  0.75E-05  0.68E-05 |  -0.93E-04 |  0.22E-07 |             . |        0.742 s |        0.744 s
  SCF  332 : -0.95E-13 |  0.75E-05  0.68E-05 |   0.77E-03 | -0.26E-06 |             . |        0.742 s |        0.742 s
  SCF  333 : -0.15E-12 |  0.75E-05  0.66E-05 |   0.11E-03 | -0.14E-06 |             . |        0.746 s |        0.747 s
  SCF  334 : -0.21E-13 |  0.75E-05  0.66E-05 |   0.10E-03 | -0.33E-07 |             . |        0.743 s |        0.745 s
  SCF  335 : -0.10E-12 |  0.75E-05  0.66E-05 |   0.10E-03 |  0.17E-08 |             . |        0.745 s |        0.751 s
  SCF  336 : -0.94E-13 |  0.75E-05  0.66E-05 |  -0.61E-05 | -0.99E-08 |             . |        0.751 s |        0.751 s
  SCF  337 : -0.29E-12 |  0.75E-05  0.66E-05 |  -0.99E-05 | -0.11E-08 |             . |        0.749 s |        0.750 s
  SCF  338 : -0.27E-12 |  0.75E-05  0.66E-05 |   0.31E-04 | -0.16E-07 |             . |        0.746 s |        0.747 s
  SCF  339 : -0.14E-12 |  0.75E-05  0.66E-05 |  -0.21E-04 |  0.26E-07 |             . |        0.760 s |        0.761 s
  SCF  340 : -0.49E-13 |  0.75E-05  0.66E-05 |  -0.42E-05 |  0.83E-08 |             . |        0.762 s |        0.761 s
  SCF  341 : -0.61E-12 |  0.75E-05  0.66E-05 |   0.86E-05 | -0.11E-08 |             . |        0.739 s |        0.744 s
  SCF  342 : -0.37E-13 |  0.75E-05  0.66E-05 |  -0.67E-04 |  0.20E-07 |             . |        0.762 s |        0.765 s
  SCF  343 : -0.38E-12 |  0.75E-05  0.67E-05 |   0.11E-03 | -0.62E-07 |             . |        0.750 s |        0.755 s
  SCF  344 : -0.39E-13 |  0.75E-05  0.67E-05 |   0.51E-05 | -0.27E-07 |             . |        0.747 s |        0.752 s
  SCF  345 : -0.66E-13 |  0.74E-05  0.67E-05 |   0.20E-03 |  0.12E-07 |             . |        0.783 s |        0.786 s
  SCF  346 : -0.35E-13 |  0.74E-05  0.67E-05 |  -0.37E-04 | -0.14E-07 |             . |        0.763 s |        0.768 s
  SCF  347 : -0.23E-12 |  0.75E-05  0.66E-05 |   0.46E-04 | -0.17E-08 |             . |        0.745 s |        0.750 s
  SCF  348 : -0.29E-12 |  0.75E-05  0.67E-05 |   0.21E-04 | -0.89E-08 |             . |        0.762 s |        0.764 s
  SCF  349 : -0.19E-13 |  0.74E-05  0.67E-05 |   0.60E-05 | -0.63E-08 |             . |        0.740 s |        0.742 s
  SCF  350 : -0.44E-12 |  0.74E-05  0.67E-05 |  -0.24E-04 |  0.42E-07 |             . |        0.772 s |        0.774 s
  SCF  351 : -0.68E-13 |  0.74E-05  0.67E-05 |   0.24E-04 | -0.49E-08 |             . |        0.741 s |        0.741 s
  SCF  352 : -0.54E-12 |  0.74E-05  0.67E-05 |  -0.33E-04 |  0.73E-08 |             . |        0.757 s |        0.757 s
  SCF  353 : -0.50E-13 |  0.74E-05  0.67E-05 |   0.74E-04 | -0.47E-07 |             . |        0.784 s |        0.784 s
  SCF  354 :  0.10E-12 |  0.74E-05  0.67E-05 |   0.14E-04 | -0.57E-07 |             . |        0.753 s |        0.754 s
  SCF  355 : -0.20E-12 |  0.74E-05  0.67E-05 |   0.12E-03 |  0.12E-07 |             . |        0.753 s |        0.754 s
  SCF  356 : -0.52E-12 |  0.74E-05  0.67E-05 |  -0.16E-04 | -0.11E-07 |             . |        0.761 s |        0.761 s
  SCF  357 :  0.47E-13 |  0.74E-05  0.67E-05 |   0.16E-04 |  0.37E-08 |             . |        0.749 s |        0.754 s
  SCF  358 :  0.17E-12 |  0.74E-05  0.67E-05 |   0.54E-04 | -0.25E-07 |             . |        0.744 s |        0.747 s
  SCF  359 : -0.37E-12 |  0.74E-05  0.67E-05 |   0.14E-04 | -0.94E-08 |             . |        0.778 s |        0.778 s
  SCF  360 : -0.21E-12 |  0.74E-05  0.67E-05 |  -0.20E-04 |  0.16E-07 |             . |        0.775 s |        0.779 s
  SCF  361 : -0.36E-12 |  0.74E-05  0.67E-05 |   0.15E-04 |  0.29E-07 |             . |        0.734 s |        0.736 s
  SCF  362 : -0.18E-12 |  0.74E-05  0.67E-05 |  -0.70E-04 |  0.36E-07 |             . |        0.764 s |        0.769 s
  SCF  363 :  0.23E-12 |  0.74E-05  0.67E-05 |  -0.15E-03 |  0.11E-06 |             . |        0.736 s |        0.736 s
  SCF  364 : -0.46E-13 |  0.73E-05  0.67E-05 |   0.14E-04 | -0.57E-07 |             . |        0.762 s |        0.764 s
  SCF  365 : -0.20E-12 |  0.73E-05  0.67E-05 |   0.26E-03 |  0.14E-06 |             . |        0.738 s |        0.740 s
  SCF  366 :  0.64E-13 |  0.73E-05  0.67E-05 |   0.81E-05 |  0.21E-07 |             . |        0.747 s |        0.753 s
  SCF  367 : -0.35E-12 |  0.73E-05  0.67E-05 |   0.84E-04 | -0.27E-08 |             . |        0.793 s |        0.793 s
  SCF  368 : -0.20E-13 |  0.72E-05  0.67E-05 |   0.14E-03 | -0.78E-07 |             . |        0.764 s |        0.765 s
  SCF  369 : -0.64E-13 |  0.71E-05  0.68E-05 |   0.45E-04 | -0.44E-07 |             . |        0.761 s |        0.764 s
  SCF  370 : -0.29E-12 |  0.71E-05  0.68E-05 |   0.65E-04 | -0.13E-06 |             . |        0.763 s |        0.768 s
  SCF  371 : -0.31E-12 |  0.71E-05  0.68E-05 |  -0.94E-04 | -0.71E-08 |             . |        0.747 s |        0.750 s
  SCF  372 : -0.11E-12 |  0.70E-05  0.68E-05 |  -0.15E-04 |  0.12E-07 |             . |        0.736 s |        0.741 s
  SCF  373 : -0.30E-12 |  0.70E-05  0.68E-05 |   0.19E-03 | -0.13E-06 |             . |        0.763 s |        0.766 s
  SCF  374 : -0.38E-12 |  0.70E-05  0.68E-05 |   0.16E-04 | -0.45E-07 |             . |        0.764 s |        0.768 s
  SCF  375 : -0.12E-12 |  0.70E-05  0.68E-05 |  -0.79E-04 | -0.38E-07 |             . |        0.742 s |        0.744 s
  SCF  376 : -0.40E-13 |  0.70E-05  0.68E-05 |  -0.70E-05 |  0.11E-07 |             . |        0.747 s |        0.752 s
  SCF  377 :  0.46E-13 |  0.70E-05  0.69E-05 |  -0.25E-04 | -0.62E-09 |             . |        0.756 s |        0.762 s
  SCF  378 : -0.32E-12 |  0.70E-05  0.68E-05 |   0.18E-03 | -0.78E-07 |             . |        0.755 s |        0.757 s
  SCF  379 :  0.11E-13 |  0.69E-05  0.69E-05 |  -0.60E-04 |  0.27E-07 |             . |        0.762 s |        0.766 s
  SCF  380 :  0.15E-12 |  0.70E-05  0.69E-05 |   0.17E-03 | -0.88E-07 |             . |        0.760 s |        0.765 s
  SCF  381 :  0.18E-12 |  0.69E-05  0.69E-05 |   0.11E-03 |  0.11E-08 |             . |        0.745 s |        0.746 s
  SCF  382 : -0.16E-12 |  0.69E-05  0.68E-05 |   0.28E-05 |  0.89E-08 |             . |        0.758 s |        0.760 s
  SCF  383 : -0.12E-13 |  0.69E-05  0.68E-05 |  -0.42E-04 |  0.27E-07 |             . |        0.750 s |        0.750 s
  SCF  384 : -0.41E-12 |  0.69E-05  0.68E-05 |   0.17E-04 | -0.44E-07 |             . |        0.750 s |        0.753 s
  SCF  385 : -0.17E-12 |  0.69E-05  0.69E-05 |   0.59E-04 |  0.55E-07 |             . |        0.740 s |        0.741 s
  SCF  386 :  0.11E-12 |  0.69E-05  0.68E-05 |  -0.13E-05 |  0.11E-07 |             . |        0.752 s |        0.756 s
  SCF  387 : -0.33E-12 |  0.69E-05  0.68E-05 |   0.38E-04 |  0.69E-08 |             . |        0.751 s |        0.752 s
  SCF  388 : -0.21E-12 |  0.69E-05  0.68E-05 |   0.12E-03 | -0.45E-07 |             . |        0.747 s |        0.752 s
  SCF  389 : -0.27E-12 |  0.69E-05  0.69E-05 |   0.30E-04 | -0.15E-07 |             . |        0.749 s |        0.754 s
  SCF  390 : -0.10E-12 |  0.69E-05  0.69E-05 |  -0.89E-05 | -0.16E-07 |             . |        0.745 s |        0.747 s
  SCF  391 :  0.15E-12 |  0.68E-05  0.69E-05 |  -0.66E-03 |  0.13E-06 |             . |        0.745 s |        0.744 s
  SCF  392 : -0.87E-13 |  0.68E-05  0.69E-05 |   0.89E-05 |  0.17E-08 |             . |        0.741 s |        0.741 s
  SCF  393 : -0.11E-12 |  0.68E-05  0.69E-05 |   0.25E-03 | -0.16E-06 |             . |        0.744 s |        0.744 s
  SCF  394 : -0.15E-12 |  0.67E-05  0.69E-05 |  -0.13E-04 |  0.42E-07 |             . |        0.746 s |        0.746 s
  SCF  395 : -0.71E-13 |  0.68E-05  0.69E-05 |  -0.93E-04 | -0.53E-07 |             . |        0.757 s |        0.760 s
  SCF  396 : -0.22E-12 |  0.67E-05  0.69E-05 |   0.11E-05 | -0.17E-07 |             . |        0.751 s |        0.755 s
  SCF  397 : -0.33E-12 |  0.67E-05  0.69E-05 |  -0.11E-04 | -0.35E-08 |             . |        0.744 s |        0.745 s
  SCF  398 : -0.32E-12 |  0.68E-05  0.69E-05 |   0.61E-04 | -0.25E-07 |             . |        0.738 s |        0.737 s
  SCF  399 :  0.13E-12 |  0.67E-05  0.69E-05 |  -0.26E-06 | -0.32E-09 |             . |        0.753 s |        0.756 s
  SCF  400 : -0.28E-13 |  0.67E-05  0.69E-05 |   0.71E-06 |  0.20E-08 |             . |        0.747 s |        0.752 s
  SCF  401 : -0.46E-13 |  0.67E-05  0.69E-05 |  -0.71E-04 |  0.14E-07 |             . |        0.774 s |        0.776 s
  SCF  402 : -0.11E-12 |  0.67E-05  0.69E-05 |   0.71E-04 | -0.14E-07 |             . |        0.747 s |        0.747 s
  SCF  403 : -0.12E-12 |  0.67E-05  0.69E-05 |   0.79E-04 | -0.39E-07 |             . |        0.758 s |        0.760 s
  SCF  404 :  0.20E-13 |  0.67E-05  0.69E-05 |   0.41E-04 | -0.66E-07 |             . |        0.783 s |        0.788 s
  SCF  405 :  0.16E-12 |  0.67E-05  0.69E-05 |  -0.81E-04 | -0.19E-07 |             . |        0.754 s |        0.759 s
  SCF  406 :  0.40E-13 |  0.67E-05  0.69E-05 |  -0.36E-04 | -0.25E-07 |             . |        0.752 s |        0.752 s
  SCF  407 : -0.43E-14 |  0.67E-05  0.69E-05 |   0.17E-05 |  0.37E-09 |             . |        0.761 s |        0.764 s
  SCF  408 : -0.57E-13 |  0.67E-05  0.69E-05 |   0.37E-04 | -0.16E-07 |             . |        0.747 s |        0.749 s
  SCF  409 : -0.12E-12 |  0.67E-05  0.69E-05 |   0.69E-04 |  0.65E-07 |             . |        0.746 s |        0.751 s
  SCF  410 : -0.17E-12 |  0.67E-05  0.69E-05 |   0.15E-04 |  0.10E-07 |             . |        0.764 s |        0.769 s
  SCF  411 : -0.23E-12 |  0.67E-05  0.69E-05 |   0.73E-04 |  0.49E-07 |             . |        0.778 s |        0.780 s
  SCF  412 : -0.92E-13 |  0.68E-05  0.68E-05 |   0.13E-04 | -0.16E-08 |             . |        0.740 s |        0.741 s
  SCF  413 : -0.57E-13 |  0.68E-05  0.68E-05 |  -0.11E-03 |  0.39E-07 |             . |        0.762 s |        0.765 s
  SCF  414 : -0.36E-12 |  0.68E-05  0.68E-05 |   0.55E-04 | -0.65E-07 |             . |        0.744 s |        0.749 s
  SCF  415 : -0.81E-13 |  0.67E-05  0.68E-05 |   0.65E-04 |  0.38E-07 |             . |        0.758 s |        0.763 s
  SCF  416 : -0.27E-12 |  0.68E-05  0.68E-05 |   0.11E-03 |  0.40E-07 |             . |        0.739 s |        0.742 s
  SCF  417 : -0.42E-12 |  0.68E-05  0.67E-05 |  -0.11E-04 |  0.42E-07 |             . |        0.745 s |        0.744 s
  SCF  418 : -0.12E-12 |  0.68E-05  0.67E-05 |  -0.28E-03 |  0.11E-06 |             . |        0.796 s |        0.798 s
  SCF  419 : -0.27E-13 |  0.68E-05  0.67E-05 |  -0.11E-03 | -0.15E-07 |             . |        0.756 s |        0.760 s
  SCF  420 :  0.22E-12 |  0.68E-05  0.67E-05 |  -0.28E-04 |  0.17E-08 |             . |        0.754 s |        0.759 s
  SCF  421 : -0.12E-12 |  0.68E-05  0.67E-05 |  -0.92E-04 |  0.28E-07 |             . |        0.769 s |        0.769 s
  SCF  422 : -0.14E-12 |  0.67E-05  0.67E-05 |   0.12E-03 | -0.12E-06 |             . |        0.739 s |        0.740 s
  SCF  423 : -0.46E-12 |  0.67E-05  0.67E-05 |  -0.61E-04 |  0.30E-07 |             . |        0.740 s |        0.744 s
  SCF  424 : -0.42E-13 |  0.67E-05  0.68E-05 |  -0.47E-04 |  0.12E-07 |             . |        0.774 s |        0.775 s
  SCF  425 : -0.16E-12 |  0.67E-05  0.68E-05 |   0.17E-03 | -0.73E-07 |             . |        0.766 s |        0.766 s
  SCF  426 :  0.78E-13 |  0.67E-05  0.68E-05 |   0.33E-05 | -0.39E-08 |             . |        0.740 s |        0.744 s
  SCF  427 : -0.24E-12 |  0.67E-05  0.68E-05 |  -0.23E-04 | -0.51E-07 |             . |        0.769 s |        0.769 s
  SCF  428 :  0.17E-12 |  0.67E-05  0.68E-05 |  -0.43E-04 |  0.54E-07 |             . |        0.761 s |        0.764 s
  SCF  429 : -0.40E-12 |  0.67E-05  0.68E-05 |  -0.25E-03 |  0.34E-07 |             . |        0.755 s |        0.761 s
  SCF  430 : -0.21E-12 |  0.67E-05  0.68E-05 |  -0.48E-04 |  0.56E-07 |             . |        0.745 s |        0.748 s
  SCF  431 : -0.13E-12 |  0.66E-05  0.68E-05 |   0.15E-04 | -0.53E-08 |             . |        0.757 s |        0.758 s
  SCF  432 : -0.18E-12 |  0.66E-05  0.68E-05 |  -0.30E-03 |  0.89E-07 |             . |        0.772 s |        0.772 s
  SCF  433 :  0.20E-13 |  0.65E-05  0.69E-05 |  -0.55E-03 |  0.37E-06 |             . |        0.747 s |        0.748 s
  SCF  434 :  0.15E-13 |  0.65E-05  0.67E-05 |  -0.29E-03 |  0.77E-07 |             . |        0.733 s |        0.733 s
  SCF  435 : -0.36E-12 |  0.65E-05  0.67E-05 |   0.20E-03 | -0.54E-07 |             . |        0.758 s |        0.763 s
  SCF  436 :  0.78E-13 |  0.65E-05  0.67E-05 |   0.21E-03 | -0.12E-06 |             . |        0.754 s |        0.754 s
  SCF  437 : -0.12E-12 |  0.66E-05  0.65E-05 |  -0.81E-05 |  0.17E-07 |             . |        0.761 s |        0.766 s
  SCF  438 : -0.32E-12 |  0.66E-05  0.64E-05 |  -0.23E-03 |  0.12E-06 |             . |        0.759 s |        0.762 s
  SCF  439 : -0.44E-13 |  0.67E-05  0.63E-05 |  -0.76E-03 | -0.40E-07 |             . |        0.760 s |        0.763 s
  SCF  440 : -0.19E-12 |  0.67E-05  0.61E-05 |   0.57E-04 | -0.55E-06 |             . |        0.757 s |        0.762 s
  SCF  441 :  0.19E-12 |  0.63E-05  0.58E-05 |  -0.37E-03 | -0.55E-07 |             . |        0.743 s |        0.748 s
  SCF  442 : -0.49E-13 |  0.61E-05  0.59E-05 |  -0.48E-03 | -0.43E-07 |             . |        0.757 s |        0.758 s
  SCF  443 :  0.90E-13 |  0.57E-05  0.59E-05 |   0.68E-03 | -0.11E-05 |             . |        0.751 s |        0.751 s
  SCF  444 : -0.18E-12 |  0.48E-05  0.53E-05 |   0.18E-02 | -0.26E-07 |             . |        0.740 s |        0.743 s
  SCF  445 : -0.11E-12 |  0.46E-05  0.48E-05 |  -0.11E-03 |  0.24E-07 |             . |        0.747 s |        0.748 s
  SCF  446 : -0.15E-12 |  0.46E-05  0.49E-05 |   0.12E-02 | -0.34E-06 |             . |        0.743 s |        0.745 s
  SCF  447 :  0.54E-13 |  0.44E-05  0.47E-05 |  -0.56E-03 |  0.23E-06 |             . |        0.748 s |        0.750 s
  SCF  448 : -0.18E-12 |  0.39E-05  0.47E-05 |   0.30E-04 | -0.15E-07 |             . |        0.753 s |        0.758 s
  SCF  449 : -0.32E-12 |  0.39E-05  0.47E-05 |  -0.26E-03 |  0.17E-06 |             . |        0.746 s |        0.746 s
  SCF  450 : -0.40E-13 |  0.38E-05  0.39E-05 |   0.36E-03 |  0.72E-07 |             . |        0.747 s |        0.750 s
  SCF  451 :  0.52E-13 |  0.32E-05  0.33E-05 |  -0.75E-04 |  0.68E-07 |             . |        0.768 s |        0.768 s
  SCF  452 :  0.27E-12 |  0.31E-05  0.32E-05 |  -0.14E-02 |  0.61E-06 |             . |        0.747 s |        0.751 s
  SCF  453 : -0.81E-13 |  0.25E-05  0.24E-05 |  -0.13E-02 |  0.54E-07 |             . |        0.762 s |        0.763 s
  SCF  454 : -0.18E-12 |  0.21E-05  0.22E-05 |   0.32E-03 |  0.62E-07 |             . |        0.748 s |        0.749 s
  SCF  455 : -0.11E-12 |  0.19E-05  0.21E-05 |  -0.12E-03 |  0.44E-07 |             . |        0.749 s |        0.749 s
  SCF  456 :  0.17E-12 |  0.19E-05  0.21E-05 |  -0.17E-03 |  0.43E-07 |             . |        0.775 s |        0.776 s
  SCF  457 :  0.30E-12 |  0.19E-05  0.21E-05 |  -0.13E-05 |  0.80E-08 |             . |        0.758 s |        0.759 s
  SCF  458 : -0.88E-13 |  0.19E-05  0.21E-05 |   0.21E-05 | -0.33E-08 |             . |        0.736 s |        0.741 s
  SCF  459 :  0.10E-12 |  0.19E-05  0.21E-05 |   0.43E-05 | -0.28E-08 |             . |        0.757 s |        0.762 s
  SCF  460 :  0.12E-12 |  0.19E-05  0.21E-05 |   0.16E-04 | -0.71E-08 |             . |        0.748 s |        0.749 s
  SCF  461 : -0.18E-12 |  0.19E-05  0.21E-05 |   0.30E-04 | -0.14E-07 |             . |        0.781 s |        0.782 s
  SCF  462 : -0.89E-13 |  0.19E-05  0.21E-05 |  -0.85E-04 |  0.35E-07 |             . |        0.741 s |        0.741 s
  SCF  463 : -0.40E-12 |  0.19E-05  0.20E-05 |  -0.15E-03 |  0.31E-07 |             . |        0.761 s |        0.762 s
  SCF  464 : -0.35E-12 |  0.19E-05  0.20E-05 |   0.17E-03 |  0.16E-08 |             . |        0.786 s |        0.792 s
  SCF  465 : -0.25E-14 |  0.19E-05  0.20E-05 |   0.49E-04 | -0.18E-07 |             . |        0.755 s |        0.754 s
  SCF  466 : -0.12E-13 |  0.19E-05  0.20E-05 |   0.66E-04 | -0.15E-07 |             . |        0.745 s |        0.749 s
  SCF  467 : -0.10E-12 |  0.19E-05  0.20E-05 |   0.21E-03 |  0.10E-06 |             . |        0.763 s |        0.766 s
  SCF  468 : -0.19E-12 |  0.15E-05  0.16E-05 |  -0.11E-03 |  0.30E-07 |             . |        0.740 s |        0.745 s
  SCF  469 :  0.11E-12 |  0.15E-05  0.16E-05 |  -0.18E-03 |  0.47E-07 |             . |        0.738 s |        0.740 s
  SCF  470 : -0.19E-12 |  0.14E-05  0.16E-05 |  -0.14E-03 |  0.32E-07 |             . |        0.778 s |        0.784 s
  SCF  471 : -0.29E-12 |  0.14E-05  0.15E-05 |  -0.52E-03 |  0.14E-06 |             . |        0.775 s |        0.776 s
  SCF  472 : -0.46E-12 |  0.12E-05  0.13E-05 |  -0.11E-03 |  0.26E-07 |             . |        0.747 s |        0.750 s
  SCF  473 :  0.19E-12 |  0.12E-05  0.12E-05 |   0.25E-04 | -0.91E-07 |             . |        0.766 s |        0.770 s
  SCF  474 :  0.14E-12 |  0.88E-06  0.69E-06 |   0.66E-03 | -0.16E-06 |             . |        0.752 s |        0.757 s
  SCF  475 : -0.37E-12 |  0.68E-06  0.59E-06 |  -0.47E-04 | -0.11E-07 |             . |        0.764 s |        0.768 s
  SCF  476 :  0.11E-12 |  0.64E-06  0.55E-06 |  -0.61E-04 | -0.12E-07 |             . |        0.736 s |        0.741 s
  SCF  477 : -0.76E-13 |  0.61E-06  0.52E-06 |   0.27E-03 | -0.19E-06 |             . |        0.742 s |        0.742 s
  SCF  478 : -0.28E-12 |  0.45E-06  0.43E-06 |   0.30E-04 | -0.11E-07 |             . |        0.788 s |        0.788 s
  SCF  479 :  0.70E-13 |  0.44E-06  0.43E-06 |   0.44E-04 | -0.15E-07 |             . |        0.753 s |        0.759 s
  SCF  480 : -0.55E-13 |  0.43E-06  0.44E-06 |   0.26E-04 | -0.86E-08 |             . |        0.756 s |        0.762 s
  SCF  481 : -0.56E-12 |  0.43E-06  0.43E-06 |   0.59E-04 | -0.27E-07 |             . |        0.772 s |        0.778 s
  SCF  482 : -0.43E-12 |  0.38E-06  0.44E-06 |   0.22E-05 | -0.20E-08 |             . |        0.747 s |        0.752 s
  SCF  483 : -0.22E-12 |  0.38E-06  0.44E-06 |  -0.19E-04 |  0.74E-08 |             . |        0.739 s |        0.744 s
  SCF  484 : -0.38E-13 |  0.37E-06  0.45E-06 |   0.72E-04 | -0.28E-07 |             . |        0.767 s |        0.767 s
  SCF  485 : -0.36E-13 |  0.37E-06  0.42E-06 |   0.82E-05 | -0.78E-09 |             . |        0.763 s |        0.763 s
  SCF  486 : -0.58E-13 |  0.37E-06  0.42E-06 |   0.45E-05 | -0.32E-08 |             . |        0.739 s |        0.739 s
  SCF  487 : -0.11E-12 |  0.37E-06  0.42E-06 |  -0.55E-04 |  0.17E-07 |             . |        0.752 s |        0.756 s
  SCF  488 : -0.20E-12 |  0.37E-06  0.42E-06 |   0.31E-04 | -0.25E-07 |             . |        0.744 s |        0.747 s
  SCF  489 : -0.13E-12 |  0.32E-06  0.40E-06 |  -0.86E-05 |  0.30E-08 |             . |        0.749 s |        0.753 s
  SCF  490 : -0.11E-12 |  0.32E-06  0.39E-06 |  -0.73E-05 |  0.24E-08 |             . |        0.761 s |        0.765 s
  SCF  491 : -0.13E-12 |  0.32E-06  0.39E-06 |   0.61E-05 |  0.25E-08 |             . |        0.744 s |        0.745 s
  SCF  492 :  0.29E-12 |  0.31E-06  0.38E-06 |   0.71E-05 | -0.12E-08 |             . |        0.741 s |        0.746 s
  SCF  493 : -0.12E-12 |  0.31E-06  0.38E-06 |   0.19E-04 | -0.72E-08 |             . |        0.751 s |        0.752 s
  SCF  494 : -0.28E-12 |  0.31E-06  0.38E-06 |   0.44E-04 | -0.19E-07 |             . |        0.752 s |        0.754 s
  SCF  495 : -0.82E-13 |  0.31E-06  0.37E-06 |  -0.42E-05 |  0.68E-09 |             . |        0.752 s |        0.755 s
  SCF  496 :  0.83E-13 |  0.31E-06  0.37E-06 |   0.15E-05 | -0.69E-09 |             . |        0.737 s |        0.737 s
  SCF  497 :  0.10E-12 |  0.31E-06  0.37E-06 |  -0.55E-05 |  0.17E-08 |             . |        0.751 s |        0.752 s
  SCF  498 : -0.36E-13 |  0.31E-06  0.37E-06 |   0.64E-05 | -0.12E-09 |             . |        0.743 s |        0.744 s
  SCF  499 : -0.14E-12 |  0.31E-06  0.38E-06 |  -0.29E-05 |  0.36E-08 |             . |        0.738 s |        0.738 s
  SCF  500 : -0.38E-12 |  0.30E-06  0.38E-06 |   0.35E-06 | -0.43E-09 |             . |        0.749 s |        0.754 s
  SCF  501 : -0.40E-12 |  0.30E-06  0.38E-06 |   0.40E-05 |  0.28E-09 |             . |        0.745 s |        0.748 s
  SCF  502 :  0.79E-13 |  0.31E-06  0.37E-06 |  -0.39E-05 |  0.90E-09 |             . |        0.743 s |        0.748 s
  SCF  503 : -0.22E-12 |  0.31E-06  0.38E-06 |   0.63E-05 | -0.28E-08 |             . |        0.745 s |        0.748 s
  SCF  504 : -0.16E-12 |  0.31E-06  0.38E-06 |  -0.20E-04 |  0.14E-07 |             . |        0.756 s |        0.755 s
  SCF  505 : -0.21E-12 |  0.30E-06  0.38E-06 |   0.35E-04 | -0.68E-08 |             . |        0.734 s |        0.738 s
  SCF  506 : -0.14E-12 |  0.30E-06  0.37E-06 |  -0.71E-05 |  0.25E-08 |             . |        0.770 s |        0.775 s
  SCF  507 : -0.13E-12 |  0.30E-06  0.37E-06 |  -0.36E-04 |  0.91E-08 |             . |        0.741 s |        0.741 s
  SCF  508 : -0.26E-12 |  0.29E-06  0.37E-06 |   0.14E-04 | -0.11E-07 |             . |        0.772 s |        0.774 s
  SCF  509 : -0.29E-12 |  0.28E-06  0.37E-06 |  -0.57E-05 |  0.48E-08 |             . |        0.744 s |        0.747 s
  SCF  510 : -0.35E-12 |  0.28E-06  0.36E-06 |  -0.33E-06 |  0.32E-09 |             . |        0.765 s |        0.767 s
  SCF  511 : -0.15E-12 |  0.28E-06  0.36E-06 |   0.46E-05 |  0.22E-08 |             . |        0.738 s |        0.738 s
  SCF  512 : -0.24E-12 |  0.29E-06  0.35E-06 |   0.15E-05 |  0.45E-09 |             . |        0.754 s |        0.756 s
  SCF  513 : -0.34E-12 |  0.29E-06  0.35E-06 |   0.22E-05 |  0.49E-10 |             . |        0.789 s |        0.791 s
  SCF  514 :  0.98E-13 |  0.29E-06  0.35E-06 |  -0.25E-06 | -0.59E-09 |             . |        0.754 s |        0.759 s
  SCF  515 : -0.13E-12 |  0.29E-06  0.35E-06 |  -0.57E-05 |  0.48E-08 |             . |        0.754 s |        0.755 s
  SCF  516 :  0.96E-13 |  0.29E-06  0.35E-06 |  -0.19E-04 |  0.60E-08 |             . |        0.761 s |        0.762 s
  SCF  517 : -0.16E-12 |  0.28E-06  0.35E-06 |   0.29E-05 | -0.69E-09 |             . |        0.749 s |        0.751 s
  SCF  518 : -0.44E-13 |  0.28E-06  0.35E-06 |   0.36E-04 | -0.16E-07 |             . |        0.745 s |        0.745 s
  SCF  519 :  0.13E-12 |  0.28E-06  0.34E-06 |   0.50E-05 | -0.18E-08 |             . |        0.781 s |        0.783 s
  SCF  520 : -0.17E-12 |  0.29E-06  0.34E-06 |   0.25E-06 | -0.32E-09 |             . |        0.753 s |        0.757 s
  SCF  521 : -0.74E-13 |  0.29E-06  0.34E-06 |   0.31E-05 | -0.27E-08 |             . |        0.748 s |        0.753 s
  SCF  522 :  0.24E-12 |  0.29E-06  0.33E-06 |  -0.77E-07 |  0.49E-10 |             . |        0.756 s |        0.757 s
  SCF  523 :  0.16E-12 |  0.29E-06  0.33E-06 |   0.11E-05 | -0.19E-09 |             . |        0.743 s |        0.748 s
  SCF  524 :  0.28E-12 |  0.29E-06  0.33E-06 |  -0.10E-04 |  0.19E-09 |             . |        0.783 s |        0.782 s
  SCF  525 : -0.41E-13 |  0.29E-06  0.33E-06 |   0.18E-05 |  0.11E-09 |             . |        0.752 s |        0.757 s
  SCF  526 :  0.81E-13 |  0.29E-06  0.33E-06 |   0.12E-06 | -0.28E-08 |             . |        0.748 s |        0.752 s
  SCF  527 : -0.44E-13 |  0.29E-06  0.33E-06 |   0.10E-04 | -0.32E-08 |             . |        0.761 s |        0.765 s
  SCF  528 : -0.47E-12 |  0.29E-06  0.33E-06 |   0.12E-04 | -0.42E-08 |             . |        0.742 s |        0.747 s
  SCF  529 : -0.38E-12 |  0.29E-06  0.33E-06 |   0.18E-04 | -0.75E-08 |             . |        0.743 s |        0.748 s
  SCF  530 :  0.84E-13 |  0.30E-06  0.31E-06 |   0.31E-06 | -0.49E-09 |             . |        0.771 s |        0.775 s
  SCF  531 :  0.28E-13 |  0.30E-06  0.31E-06 |   0.38E-06 | -0.13E-08 |             . |        0.771 s |        0.776 s
  SCF  532 : -0.11E-12 |  0.30E-06  0.30E-06 |   0.27E-05 | -0.12E-08 |             . |        0.747 s |        0.752 s
  SCF  533 : -0.16E-12 |  0.30E-06  0.30E-06 |   0.13E-04 | -0.22E-08 |             . |        0.786 s |        0.787 s
  SCF  534 : -0.41E-12 |  0.30E-06  0.30E-06 |   0.18E-04 | -0.38E-08 |             . |        0.745 s |        0.751 s
  SCF  535 :  0.15E-12 |  0.30E-06  0.30E-06 |   0.39E-05 | -0.52E-08 |             . |        0.788 s |        0.793 s
  SCF  536 : -0.14E-12 |  0.30E-06  0.29E-06 |  -0.33E-06 | -0.24E-07 |             . |        0.761 s |        0.767 s
  SCF  537 : -0.57E-13 |  0.30E-06  0.29E-06 |   0.17E-06 | -0.74E-10 |             . |        0.767 s |        0.768 s
  SCF  538 : -0.18E-12 |  0.30E-06  0.29E-06 |  -0.82E-05 |  0.30E-08 |             . |        0.771 s |        0.776 s
  SCF  539 : -0.68E-13 |  0.30E-06  0.29E-06 |   0.14E-04 | -0.49E-08 |             . |        0.757 s |        0.763 s
  SCF  540 : -0.13E-13 |  0.30E-06  0.28E-06 |  -0.16E-04 |  0.15E-09 |             . |        0.754 s |        0.755 s
  SCF  541 : -0.18E-12 |  0.25E-06  0.26E-06 |  -0.36E-06 | -0.49E-09 |             . |        0.762 s |        0.767 s
  SCF  542 : -0.98E-13 |  0.24E-06  0.25E-06 |  -0.53E-04 |  0.25E-07 |             . |        0.747 s |        0.747 s
  SCF  543 : -0.13E-12 |  0.21E-06  0.21E-06 |  -0.40E-04 |  0.76E-08 |             . |        0.767 s |        0.768 s
  SCF  544 : -0.48E-13 |  0.20E-06  0.21E-06 |  -0.70E-04 |  0.16E-07 |             . |        0.786 s |        0.787 s
  SCF  545 : -0.28E-12 |  0.20E-06  0.19E-06 |  -0.23E-05 |  0.34E-08 |             . |        0.957 s |        0.960 s
  SCF  546 : -0.93E-13 |  0.19E-06  0.19E-06 |  -0.13E-04 |  0.35E-07 |             . |        0.742 s |        0.747 s
  SCF  547 :  0.13E-12 |  0.17E-06  0.18E-06 |  -0.49E-06 | -0.25E-09 |             . |        0.748 s |        0.752 s
  SCF  548 :  0.15E-13 |  0.17E-06  0.18E-06 |  -0.22E-04 |  0.75E-08 |             . |        0.763 s |        0.764 s
  SCF  549 : -0.24E-12 |  0.17E-06  0.18E-06 |  -0.55E-05 |  0.23E-08 |             . |        0.741 s |        0.745 s
  SCF  550 : -0.36E-12 |  0.17E-06  0.18E-06 |   0.47E-04 | -0.63E-08 |             . |        0.749 s |        0.753 s
  SCF  551 : -0.37E-12 |  0.16E-06  0.16E-06 |   0.33E-06 | -0.36E-09 |             . |        0.750 s |        0.750 s
  SCF  552 : -0.52E-12 |  0.16E-06  0.16E-06 |   0.43E-05 | -0.51E-08 |             . |        0.747 s |        0.749 s
  SCF  553 :  0.42E-13 |  0.15E-06  0.16E-06 |   0.14E-04 | -0.27E-08 |             . |        0.754 s |        0.755 s
  SCF  554 :  0.24E-13 |  0.15E-06  0.16E-06 |   0.58E-05 | -0.15E-08 |             . |        0.761 s |        0.763 s
  SCF  555 : -0.41E-13 |  0.15E-06  0.16E-06 |  -0.11E-05 | -0.31E-08 |             . |        0.750 s |        0.754 s
  SCF  556 : -0.43E-12 |  0.15E-06  0.15E-06 |  -0.31E-05 | -0.58E-08 |             . |        0.744 s |        0.747 s
  SCF  557 :  0.33E-12 |  0.15E-06  0.15E-06 |  -0.41E-05 |  0.25E-08 |             . |        0.747 s |        0.752 s
  SCF  558 : -0.15E-12 |  0.15E-06  0.15E-06 |   0.29E-05 | -0.12E-08 |             . |        0.753 s |        0.755 s
  SCF  559 : -0.39E-12 |  0.15E-06  0.15E-06 |   0.47E-05 | -0.25E-08 |             . |        0.739 s |        0.740 s
  SCF  560 :  0.13E-13 |  0.15E-06  0.15E-06 |  -0.44E-05 |  0.87E-09 |             . |        0.744 s |        0.745 s
  SCF  561 : -0.11E-12 |  0.15E-06  0.15E-06 |   0.60E-06 |  0.15E-09 |             . |        0.759 s |        0.764 s
  SCF  562 :  0.51E-13 |  0.15E-06  0.15E-06 |   0.85E-06 |  0.74E-10 |             . |        0.752 s |        0.755 s
  SCF  563 : -0.16E-13 |  0.15E-06  0.15E-06 |   0.26E-05 | -0.31E-09 |             . |        0.769 s |        0.770 s
  SCF  564 :  0.12E-13 |  0.15E-06  0.15E-06 |  -0.13E-05 |  0.38E-09 |             . |        0.741 s |        0.747 s
  SCF  565 : -0.45E-12 |  0.15E-06  0.15E-06 |  -0.91E-06 | -0.78E-09 |             . |        0.765 s |        0.765 s
  SCF  566 : -0.70E-13 |  0.15E-06  0.15E-06 |  -0.11E-05 | -0.14E-08 |             . |        0.739 s |        0.740 s
  SCF  567 :  0.26E-13 |  0.15E-06  0.15E-06 |   0.19E-05 | -0.12E-08 |             . |        0.755 s |        0.756 s
  SCF  568 : -0.26E-12 |  0.15E-06  0.15E-06 |   0.29E-06 | -0.74E-10 |             . |        0.781 s |        0.785 s
  SCF  569 : -0.33E-12 |  0.15E-06  0.15E-06 |  -0.79E-06 |  0.43E-09 |             . |        0.749 s |        0.755 s
  SCF  570 :  0.32E-13 |  0.15E-06  0.15E-06 |  -0.19E-06 |  0.17E-09 |             . |        0.742 s |        0.745 s
  SCF  571 : -0.27E-12 |  0.15E-06  0.15E-06 |  -0.37E-05 |  0.14E-08 |             . |        0.770 s |        0.776 s
  SCF  572 : -0.10E-12 |  0.15E-06  0.15E-06 |   0.11E-05 | -0.48E-09 |             . |        0.754 s |        0.757 s
  SCF  573 : -0.17E-12 |  0.15E-06  0.15E-06 |   0.13E-05 |  0.46E-09 |             . |        0.745 s |        0.747 s
  SCF  574 : -0.59E-13 |  0.15E-06  0.15E-06 |   0.34E-05 | -0.47E-09 |             . |        0.784 s |        0.786 s
  SCF  575 : -0.58E-12 |  0.15E-06  0.15E-06 |  -0.18E-05 |  0.17E-09 |             . |        0.750 s |        0.752 s
  SCF  576 : -0.26E-12 |  0.15E-06  0.15E-06 |   0.10E-04 | -0.42E-08 |             . |        0.751 s |        0.756 s
  SCF  577 : -0.37E-13 |  0.15E-06  0.15E-06 |   0.34E-05 | -0.46E-08 |             . |        0.742 s |        0.742 s
  SCF  578 : -0.93E-13 |  0.15E-06  0.15E-06 |  -0.60E-05 |  0.12E-08 |             . |        0.739 s |        0.742 s
  SCF  579 :  0.50E-12 |  0.15E-06  0.15E-06 |  -0.26E-05 |  0.11E-08 |             . |        0.795 s |        0.795 s
  SCF  580 : -0.22E-12 |  0.15E-06  0.15E-06 |  -0.16E-04 |  0.87E-08 |             . |        0.751 s |        0.756 s
  SCF  581 : -0.20E-12 |  0.15E-06  0.14E-06 |  -0.63E-05 |  0.24E-08 |             . |        0.749 s |        0.750 s
  SCF  582 : -0.23E-12 |  0.15E-06  0.14E-06 |   0.19E-04 |  0.52E-09 |             . |        0.759 s |        0.762 s
  SCF  583 : -0.17E-12 |  0.14E-06  0.12E-06 |   0.19E-04 | -0.17E-08 |             . |        0.743 s |        0.745 s
  SCF  584 :  0.15E-12 |  0.13E-06  0.12E-06 |   0.34E-04 | -0.65E-08 |             . |        0.743 s |        0.748 s
  SCF  585 :  0.16E-13 |  0.11E-06  0.11E-06 |  -0.68E-06 | -0.33E-09 |             . |        0.775 s |        0.777 s
  SCF  586 : -0.32E-12 |  0.11E-06  0.11E-06 |  -0.20E-04 | -0.30E-08 |             . |        0.766 s |        0.765 s
  SCF  587 : -0.11E-12 |  0.11E-06  0.11E-06 |   0.61E-05 | -0.68E-08 |             . |        0.735 s |        0.740 s
  SCF  588 : -0.40E-12 |  0.10E-06  0.10E-06 |   0.11E-05 | -0.38E-09 |             . |        0.759 s |        0.759 s
  SCF  589 :  0.68E-13 |  0.10E-06  0.10E-06 |  -0.28E-05 |  0.18E-08 |             . |        0.739 s |        0.742 s
  SCF  590 :  0.12E-12 |  0.10E-06  0.10E-06 |   0.11E-05 | -0.93E-09 |             . |        0.775 s |        0.776 s
  SCF  591 : -0.23E-13 |  0.10E-06  0.10E-06 |  -0.55E-05 |  0.22E-08 |             . |        0.739 s |        0.741 s
  SCF  592 : -0.11E-12 |  0.10E-06  0.10E-06 |  -0.22E-05 |  0.11E-09 |             . |        0.765 s |        0.767 s
  SCF  593 :  0.11E-12 |  0.10E-06  0.10E-06 |   0.17E-04 | -0.26E-08 |             . |        0.770 s |        0.770 s
  SCF  594 : -0.35E-13 |  0.10E-06  0.10E-06 |  -0.28E-06 |  0.00E+00 |             . |        0.743 s |        0.746 s
  SCF  595 : -0.65E-13 |  0.10E-06  0.10E-06 |  -0.10E-05 |  0.20E-09 |             . |        0.735 s |        0.740 s
  SCF  596 :  0.18E-12 |  0.10E-06  0.10E-06 |   0.25E-05 | -0.24E-09 |             . |        0.783 s |        0.785 s
  SCF  597 : -0.32E-12 |  0.10E-06  0.10E-06 |  -0.86E-06 |  0.30E-08 |             . |        0.737 s |        0.737 s
  SCF  598 :  0.44E-13 |  0.10E-06  0.10E-06 |  -0.50E-05 |  0.62E-08 |             . |        0.754 s |        0.759 s
  SCF  599 :  0.19E-12 |  0.99E-07  0.10E-06 |   0.30E-06 | -0.64E-09 |             . |        0.755 s |        0.758 s
  SCF  600 : -0.12E-12 |  0.99E-07  0.10E-06 |  -0.26E-05 |  0.18E-08 |             . |        0.756 s |        0.761 s
  SCF  601 :  0.20E-12 |  0.99E-07  0.10E-06 |   0.75E-05 | -0.30E-08 |             . |        0.756 s |        0.761 s
  SCF  602 : -0.65E-13 |  0.99E-07  0.10E-06 |  -0.48E-05 |  0.22E-08 |             . |        0.770 s |        0.775 s
  SCF  603 : -0.19E-12 |  0.99E-07  0.10E-06 |   0.48E-05 | -0.52E-09 |             . |        0.746 s |        0.750 s
  SCF  604 :  0.15E-12 |  0.98E-07  0.10E-06 |  -0.29E-07 | -0.17E-09 |             . |        0.757 s |        0.757 s
  SCF  605 :  0.13E-12 |  0.98E-07  0.10E-06 |  -0.11E-05 |  0.49E-10 |             . |        0.750 s |        0.751 s
  SCF  606 :  0.26E-13 |  0.98E-07  0.10E-06 |   0.57E-06 | -0.12E-10 |             . |        0.758 s |        0.762 s
  SCF  607 : -0.88E-13 |  0.98E-07  0.10E-06 |  -0.14E-05 |  0.22E-08 |             . |        0.757 s |        0.759 s
  SCF  608 : -0.25E-12 |  0.95E-07  0.10E-06 |  -0.62E-05 |  0.54E-08 |             . |        0.744 s |        0.744 s
  SCF  609 : -0.10E-12 |  0.92E-07  0.10E-06 |   0.35E-06 | -0.49E-09 |             . |        0.750 s |        0.755 s
  SCF  610 :  0.30E-12 |  0.92E-07  0.10E-06 |  -0.37E-05 |  0.32E-08 |             . |        0.743 s |        0.745 s
  SCF  611 :  0.69E-13 |  0.93E-07  0.10E-06 |   0.35E-05 | -0.15E-08 |             . |        0.753 s |        0.755 s
  SCF  612 :  0.65E-13 |  0.93E-07  0.10E-06 |  -0.49E-05 |  0.19E-08 |             . |        0.747 s |        0.749 s
  SCF  613 : -0.97E-13 |  0.93E-07  0.99E-07 |   0.26E-05 | -0.19E-09 |             . |        0.436 s |        0.439 s

  Total energy components:
  | Sum of eigenvalues            :       -1702.12241581 Ha      -46317.10752266 eV
  | XC energy correction          :        -289.22494157 Ha       -7870.21109193 eV
  | XC potential correction       :         372.33123727 Ha       10131.64845863 eV
  | Free-atom electrostatic energy:       -1274.87097841 Ha      -34691.00438131 eV
  | Hartree energy correction     :         -50.74244839 Ha       -1380.77227360 eV
  | vdW energy correction         :           0.00000000 Ha           0.00000000 eV
  | Entropy correction            :          -0.00051898 Ha          -0.01412217 eV
  | ---------------------------
  | Total energy                  :       -2944.62954690 Ha      -80127.44681087 eV
  | Total energy, T -> 0          :       -2944.63006588 Ha      -80127.46093304 eV  <-- do not rely on this value for anything but (periodic) metals
  | Electronic free energy        :       -2944.63058486 Ha      -80127.47505521 eV

  Derived energy quantities:
  | Kinetic energy                :        2955.39323481 Ha       80420.34166121 eV
  | Electrostatic energy          :       -5610.79784015 Ha     -152677.57738015 eV
  | Energy correction for multipole
  | error in Hartree potential    :           0.53192616 Ha          14.47444714 eV
  | Sum of eigenvalues per atom                           :        -812.58083373 eV
  | Total energy (T->0) per atom                          :       -1405.74492865 eV  <-- do not rely on this value for anything but (periodic) metals
  | Electronic free energy per atom                       :       -1405.74517641 eV
  Current spin moment of the entire structure :
  | N = N_up - N_down :    2.00
  | S                 :    1.00
  | J                 :    3.00

  Highest occupied state (VBM) at     -4.57287605 eV
  | Occupation number:      0.50013240
  | Spin channel:        2

  Lowest unoccupied state (CBM) at    -4.11519085 eV
  | Occupation number:      0.00000000
  | Spin channel:        2

  This system has fractional occupation numbers. Thus, it is a degenerate system
  within the approximate finite broadening function (occupation_type)
  applied to determine the occupation numbers.
  This may not be harmful. However, for some systems (free atoms), a different, non-degenerate
  ground state might exist by using a smaller broadening (see keyword occupation_type).
  Overall HOMO-LUMO gap:      0.00000000 eV.

  | Chemical Potential                          :    -4.57286432 eV
  | Note that, for insulating systems, the printed 'chemical potential' value is not uniquely defined.
  | It can be anywhere in the energy gap, as long as it correctly separates occupied and unoccupied states.
  | In systems with a gap, the physically relevant chemical potential is the VBM or HOMO.

  Self-consistency cycle converged.

  Finished writing density matrices to file
  | Time :      0.313 s

  Finished writing density matrices to file
  | Time :      0.063 s



  Total energy components:
  | Sum of eigenvalues            :       -1702.12241581 Ha      -46317.10752266 eV
  | XC energy correction          :        -289.22494157 Ha       -7870.21109193 eV
  | XC potential correction       :         372.33123727 Ha       10131.64845863 eV
  | Free-atom electrostatic energy:       -1274.87097841 Ha      -34691.00438131 eV
  | Hartree energy correction     :         -50.74244839 Ha       -1380.77227360 eV
  | vdW energy correction         :          -0.04142217 Ha          -1.12715459 eV
  | Entropy correction            :          -0.00051898 Ha          -0.01412217 eV
  | ---------------------------
  | Total energy                  :       -2944.67096907 Ha      -80128.57396545 eV
  | Total energy, T -> 0          :       -2944.67148805 Ha      -80128.58808763 eV  <-- do not rely on this value for anything but (periodic) metals
  | Electronic free energy        :       -2944.67200703 Ha      -80128.60220980 eV

  Derived energy quantities:
  | Kinetic energy                :        2955.39323481 Ha       80420.34166121 eV
  | Electrostatic energy          :       -5610.79784015 Ha     -152677.57738015 eV
  | Energy correction for multipole
  | error in Hartree potential    :           0.53192616 Ha          14.47444714 eV
  | Sum of eigenvalues per atom                           :        -812.58083373 eV
  | Total energy (T->0) per atom                          :       -1405.76470329 eV  <-- do not rely on this value for anything but (periodic) metals
  | Electronic free energy per atom                       :       -1405.76495105 eV

  Energy and forces in a compact form:
  | Total energy uncorrected      :         -0.801285739654539E+05 eV
  | Total energy corrected        :         -0.801285880876265E+05 eV  <-- do not rely on this value for anything but (periodic) metals
  | Electronic free energy        :         -0.801286022097990E+05 eV


------------------------------------------------------------------------------
  Final output of selected total energy values:

  The following output summarizes some interesting total energy values
  at the end of a run (AFTER all relaxation, molecular dynamics, etc.).

  | Total energy of the DFT / Hartree-Fock s.c.f. calculation      :         -80128.573965454 eV
  | Final zero-broadening corrected energy (caution - metals only) :         -80128.588087626 eV
  | For reference only, the value of 1 Hartree used in FHI-aims is :             27.211384500 eV

  Before relying on these values, please be sure to understand exactly which
  total energy value is referred to by a given number. Different objects may
  all carry the same name 'total energy'. Definitions:

  Total energy of the DFT / Hartree-Fock s.c.f. calculation:
  | Note that this energy does not include ANY quantities calculated after the
  | s.c.f. cycle, in particular not ANY RPA, MP2, etc. many-body perturbation terms.

  Final zero-broadening corrected energy:
  | For metallic systems only, a broadening of the occupation numbers at the Fermi
  | level can be extrapolated back to zero broadening by an electron-gas inspired
  | formula. For all systems that are not real metals, this value can be
  | meaningless and should be avoided.

------------------------------------------------------------------------------
  Methods described in the following list of references were used in this FHI-aims run.
  If you publish the results, please make sure to cite these reference if they apply.
  FHI-aims is an academic code, and for our developers (often, Ph.D. students
  and postdocs), scientific credit in the community is essential.
  Thank you for helping us!

  For any use of FHI-aims, please cite:

    Volker Blum, Ralf Gehrke, Felix Hanke, Paula Havu, Ville Havu,
    Xinguo Ren, Karsten Reuter, and Matthias Scheffler
    'Ab initio molecular simulations with numeric atom-centered orbitals'
    Computer Physics Communications 180, 2175-2196 (2009)
    http://doi.org/10.1016/j.cpc.2009.06.022


  The ELSI infrastructure was used in your run to solve the Kohn-Sham electronic structure.
  Please check out https://wordpress.elsi-interchange.org to learn more.
  If scalability is important for your project, please acknowledge ELSI by citing:

    V. W-z. Yu, F. Corsetti, A. Garcia, W. P. Huhn, M. Jacquelin, W. Jia,
    B. Lange, L. Lin, J. Lu, W. Mi, A. Seifitokaldani, A. Vazquez-Mayagoitia,
    C. Yang, H. Yang, and V. Blum
    'ELSI: A unified software interface for Kohn-Sham electronic structure solvers'
    Computer Physics Communications 222, 267-285 (2018).
    http://doi.org/10.1016/j.cpc.2017.09.007


  For the real-space grid partitioning and parallelization used in this calculation, please cite:

    Ville Havu, Volker Blum, Paula Havu, and Matthias Scheffler,
    'Efficient O(N) integration for all-electron electronic structure calculation'
    'using numerically tabulated basis functions'
    Journal of Computational Physics 228, 8367-8379 (2009).
    http://doi.org/10.1016/j.jcp.2009.08.008

  Of course, there are many other important community references, e.g., those cited in the
  above references. Our list is limited to references that describe implementations in the
  FHI-aims code. The reason is purely practical (length of this list) - please credit others as well.
------------------------------------------------------------
Warnings summary:

At least    0 warnings were raised during execution.
** WARNING:
 * A warning was issued further up regarding the speed of the s.c.f. convergence.
   One or more s.c.f. cycles took more than 50 s.c.f. iterations.
   It might be worth adjusting your convergence settings. For example,
   metals need a larger broadening and a smaller "charge_mix_param" value than semiconduct
ors.
** END OF WARNING

------------------------------------------------------------
          Leaving FHI-aims.
          Date     :  20260605, Time     :  103531.665

          Computational steps:
          | Number of self-consistency cycles          :          613
          | Number of SCF (re)initializations          :            1

          Detailed time accounting                     :  max(cpu_time)    wall_clock(cpu1)
          | Total time                                  :      464.686 s         469.638 s
          | Preparation time                            :        0.638 s           0.638 s
          | Boundary condition initalization            :        0.003 s           0.002 s
          | Grid partitioning                           :        0.169 s           0.171 s
          | Preloading free-atom quantities on grid     :        0.244 s           0.252 s
          | Free-atom superposition energy              :        0.025 s           0.025 s
          | Total time for integrations                 :      139.641 s         140.526 s
          | Total time for solution of K.-S. equations  :       43.347 s          43.620 s
          | Total time for density update               :      194.017 s         195.261 s
          | Total time for mixing                       :        9.510 s           7.734 s
          | Total time for Hartree multipole update     :        4.265 s           4.366 s
          | Total time for Hartree multipole sum        :       71.694 s          72.148 s
          | Total time for total energy evaluation      :        0.056 s           0.090 s
          | Total time for scaled ZORA corrections      :        0.000 s           0.000 s
          | Total time for vdW-like corrections         :        0.080 s           0.080 s
          | Total time for matrix I/O                   :        0.376 s           0.388 s

          Partial memory accounting:
          | Residual value for overall tracked memory usage across tasks:     0.000000 MB (should be 0.000000 MB)
          | Peak values for overall tracked memory usage:
          |   Minimum:       24.748 MB (on task 22 after allocating wave)
          |   Maximum:       25.254 MB (on task 13 after allocating wave)
          |   Average:       25.037 MB
          | Largest tracked array allocation:
          |   Minimum:        4.818 MB (previous_rho_gradient_diff on task  8)
          |   Maximum:        4.883 MB (previous_rho_gradient_diff on task 13)
          |   Average:        4.847 MB
          Note:  These values currently only include a subset of arrays which are explicitly tracked.
          The "true" memory usage will be greater.

          Have a nice day.
------------------------------------------------------------
