    57
unstable frequency at     -1.449 1/cm IR int. is 7.045 a.m.u.; force const. is 0.000 mDyne/Ang.
C        10.3153   10.6255   12.7541   -0.0001   -0.0003   -0.0279
C        11.7250   11.0126   12.7436   -0.0000   -0.0001   -0.0115
C        13.4288   12.6432   12.7402   -0.0001    0.0001    0.0201
C        13.8774   14.0347   12.7489   -0.0002    0.0000    0.0387
C        10.2838    9.2117   12.7538    0.0000   -0.0003   -0.0433
C        11.6752    8.7628   12.7434    0.0001   -0.0001   -0.0356
C        13.3062    7.0594   12.7390    0.0003    0.0001   -0.0385
C        13.6935    5.6496   12.7468    0.0003    0.0000   -0.0484
N        12.1457   12.2786   12.7444   -0.0001   -0.0001    0.0053
N        12.0400    7.4796   12.7439    0.0002   -0.0001   -0.0454
C        15.2912   14.0035   12.7457   -0.0002    0.0001    0.0509
C        15.6785   12.5937   12.7355   -0.0000    0.0003    0.0392
C        17.3094   10.8903   12.7347    0.0001    0.0004    0.0348
C        18.7010   10.4413   12.7487   -0.0000    0.0003    0.0410
C        17.2595    8.6406   12.7332    0.0002    0.0004    0.0107
C        18.6693    9.0275   12.7476    0.0001    0.0003    0.0255
C        15.1073    5.6184   12.7412    0.0004    0.0002   -0.0363
C        15.5559    7.0099   12.7320    0.0004    0.0003   -0.0195
N        16.9446   12.1735   12.7365   -0.0000    0.0003    0.0454
N        16.8391    7.3745   12.7331    0.0003    0.0004   -0.0054
N        12.4947    9.8701   12.7367    0.0001    0.0000   -0.0168
N        14.5362   11.8239   12.7312    0.0001    0.0002    0.0211
N        16.4900    9.7831   12.7252    0.0002    0.0004    0.0166
N        14.4485    7.8292   12.7301    0.0003    0.0002   -0.0212
C        13.1827   15.2473   12.7623   -0.0004   -0.0002    0.0451
Zn       14.4924    9.8265   12.7264    0.0002    0.0003   -0.0001
C        16.0384   15.1842   12.7549   -0.0003    0.0001    0.0703
C        13.9324   16.4262   12.7720   -0.0005   -0.0002    0.0644
C        15.3413   16.3949   12.7682   -0.0005   -0.0001    0.0769
H        12.0925   15.2624   12.7653   -0.0004   -0.0002    0.0355
H        17.1282   15.1517   12.7524   -0.0003    0.0001    0.0798
H        15.8945   17.3351   12.7765   -0.0006   -0.0002    0.0921
H        13.4215   17.3900   12.7831   -0.0007   -0.0004    0.0700
C        19.9141   11.1351   12.7666   -0.0002    0.0002    0.0577
C        19.8494    8.2795   12.7644    0.0000    0.0002    0.0261
C        21.0925   10.3847   12.7838   -0.0003    0.0001    0.0585
C        21.0605    8.9757   12.7834   -0.0002    0.0001    0.0428
H        19.9307   12.2252   12.7677   -0.0003    0.0002    0.0696
H        19.8161    7.1897   12.7642    0.0001    0.0002    0.0138
H        22.0002    8.4217   12.7979   -0.0002    0.0000    0.0435
H        22.0566   10.8949   12.7993   -0.0004   -0.0000    0.0712
C         9.0706    8.5177   12.7651   -0.0000   -0.0005   -0.0619
C         9.1350   11.3733   12.7663   -0.0002   -0.0005   -0.0302
C         7.8920    9.2680   12.7781   -0.0002   -0.0007   -0.0644
C         7.9240   10.6769   12.7780   -0.0003   -0.0007   -0.0487
H         9.0541    7.4277   12.7650    0.0000   -0.0005   -0.0739
H         9.1683   12.4630   12.7667   -0.0003   -0.0005   -0.0181
H         6.9843   11.2312   12.7887   -0.0004   -0.0009   -0.0511
H         6.9279    8.7580   12.7877   -0.0003   -0.0009   -0.0788
C        15.8019    4.4056   12.7477    0.0005    0.0002   -0.0409
C        12.9464    4.4688   12.7613    0.0003   -0.0002   -0.0658
C        15.0523    3.2268   12.7611    0.0004    0.0000   -0.0582
C        13.6434    3.2581   12.7682    0.0004   -0.0002   -0.0706
H        16.8920    4.3900   12.7428    0.0005    0.0004   -0.0311
H        11.8565    4.5005   12.7666    0.0003   -0.0003   -0.0750
H        13.0902    2.3178   12.7803    0.0004   -0.0003   -0.0839
H        15.5632    2.2628   12.7676    0.0005    0.0000   -0.0620
    57
unstable frequency at     -0.715 1/cm IR int. is 7.019 a.m.u.; force const. is 0.000 mDyne/Ang.
C        10.3153   10.6255   12.7541    0.0075    0.0385    0.0083
C        11.7250   11.0126   12.7436    0.0110    0.0256    0.0066
C        13.4288   12.6432   12.7402    0.0260    0.0099    0.0062
C        13.8774   14.0347   12.7489    0.0388    0.0058    0.0074
C        10.2838    9.2117   12.7538   -0.0056    0.0388    0.0061
C        11.6752    8.7628   12.7434   -0.0098    0.0260    0.0032
C        13.3062    7.0594   12.7390   -0.0254    0.0111   -0.0021
C        13.6935    5.6496   12.7468   -0.0384    0.0075   -0.0049
N        12.1457   12.2786   12.7444    0.0226    0.0217    0.0079
N        12.0400    7.4796   12.7439   -0.0216    0.0227    0.0007
C        15.2912   14.0035   12.7457    0.0385   -0.0073    0.0049
C        15.6785   12.5937   12.7355    0.0255   -0.0108    0.0022
C        17.3094   10.8903   12.7347    0.0098   -0.0258   -0.0031
C        18.7010   10.4413   12.7487    0.0057   -0.0386   -0.0060
C        17.2595    8.6406   12.7332   -0.0109   -0.0253   -0.0065
C        18.6693    9.0275   12.7476   -0.0074   -0.0383   -0.0082
C        15.1073    5.6184   12.7412   -0.0387   -0.0055   -0.0075
C        15.5559    7.0099   12.7320   -0.0259   -0.0097   -0.0061
N        16.9446   12.1735   12.7365    0.0216   -0.0225   -0.0005
N        16.8391    7.3745   12.7331   -0.0225   -0.0215   -0.0078
N        12.4947    9.8701   12.7367    0.0005    0.0185    0.0036
N        14.5362   11.8239   12.7312    0.0184   -0.0003    0.0031
N        16.4900    9.7831   12.7252   -0.0004   -0.0182   -0.0034
N        14.4485    7.8292   12.7301   -0.0183    0.0006   -0.0029
C        13.1827   15.2473   12.7623    0.0500    0.0122    0.0104
Zn       14.4924    9.8265   12.7264    0.0000    0.0001    0.0001
C        16.0384   15.1842   12.7549    0.0494   -0.0143    0.0051
C        13.9324   16.4262   12.7720    0.0609    0.0052    0.0107
C        15.3413   16.3949   12.7682    0.0606   -0.0078    0.0081
H        12.0925   15.2624   12.7653    0.0502    0.0223    0.0124
H        17.1282   15.1517   12.7524    0.0491   -0.0243    0.0031
H        15.8945   17.3351   12.7765    0.0694   -0.0130    0.0083
H        13.4215   17.3900   12.7831    0.0699    0.0100    0.0129
C        19.9141   11.1351   12.7666    0.0122   -0.0499   -0.0068
C        19.8494    8.2795   12.7644   -0.0143   -0.0493   -0.0114
C        21.0925   10.3847   12.7838    0.0052   -0.0608   -0.0099
C        21.0605    8.9757   12.7834   -0.0078   -0.0605   -0.0122
H        19.9307   12.2252   12.7677    0.0222   -0.0500   -0.0051
H        19.8161    7.1897   12.7642   -0.0243   -0.0490   -0.0131
H        22.0002    8.4217   12.7979   -0.0129   -0.0692   -0.0146
H        22.0566   10.8949   12.7993    0.0100   -0.0697   -0.0106
C         9.0706    8.5177   12.7651   -0.0120    0.0500    0.0069
C         9.1350   11.3733   12.7663    0.0144    0.0494    0.0114
C         7.8920    9.2680   12.7781   -0.0051    0.0609    0.0099
C         7.9240   10.6769   12.7780    0.0080    0.0606    0.0122
H         9.0541    7.4277   12.7650   -0.0221    0.0502    0.0051
H         9.1683   12.4630   12.7667    0.0245    0.0491    0.0131
H         6.9843   11.2312   12.7887    0.0132    0.0693    0.0145
H         6.9279    8.7580   12.7877   -0.0098    0.0698    0.0106
C        15.8019    4.4056   12.7477   -0.0499   -0.0120   -0.0107
C        12.9464    4.4688   12.7613   -0.0493    0.0144   -0.0054
C        15.0523    3.2268   12.7611   -0.0608   -0.0051   -0.0112
C        13.6434    3.2581   12.7682   -0.0605    0.0080   -0.0085
H        16.8920    4.3900   12.7428   -0.0500   -0.0221   -0.0127
H        11.8565    4.5005   12.7666   -0.0490    0.0245   -0.0033
H        13.0902    2.3178   12.7803   -0.0691    0.0131   -0.0089
H        15.5632    2.2628   12.7676   -0.0697   -0.0098   -0.0136
    57
unstable frequency at     -0.568 1/cm IR int. is 7.050 a.m.u.; force const. is 0.000 mDyne/Ang.
C        10.3153   10.6255   12.7541    0.0016    0.0065   -0.0499
C        11.7250   11.0126   12.7436    0.0023    0.0042   -0.0386
C        13.4288   12.6432   12.7402    0.0049    0.0015   -0.0344
C        13.8774   14.0347   12.7489    0.0071    0.0008   -0.0407
C        10.2838    9.2117   12.7538   -0.0006    0.0066   -0.0378
C        11.6752    8.7628   12.7434   -0.0013    0.0043   -0.0198
C        13.3062    7.0594   12.7390   -0.0039    0.0017    0.0113
C        13.6935    5.6496   12.7468   -0.0062    0.0011    0.0273
N        12.1457   12.2786   12.7444    0.0043    0.0035   -0.0448
N        12.0400    7.4796   12.7439   -0.0033    0.0037   -0.0052
C        15.2912   14.0035   12.7457    0.0070   -0.0015   -0.0254
C        15.6785   12.5937   12.7355    0.0049   -0.0021   -0.0106
C        17.3094   10.8903   12.7347    0.0022   -0.0047    0.0193
C        18.7010   10.4413   12.7487    0.0014   -0.0069    0.0360
C        17.2595    8.6406   12.7332   -0.0014   -0.0047    0.0380
C        18.6693    9.0275   12.7476   -0.0009   -0.0068    0.0480
C        15.1073    5.6184   12.7412   -0.0062   -0.0012    0.0425
C        15.5559    7.0099   12.7320   -0.0039   -0.0020    0.0350
N        16.9446   12.1735   12.7365    0.0042   -0.0042    0.0053
N        16.8391    7.3745   12.7331   -0.0034   -0.0040    0.0448
N        12.4947    9.8701   12.7367    0.0006    0.0029   -0.0209
N        14.5362   11.8239   12.7312    0.0037   -0.0004   -0.0164
N        16.4900    9.7831   12.7252    0.0005   -0.0035    0.0209
N        14.4485    7.8292   12.7301   -0.0026   -0.0002    0.0165
C        13.1827   15.2473   12.7623    0.0088    0.0020   -0.0574
Zn       14.4924    9.8265   12.7264    0.0006   -0.0003    0.0001
C        16.0384   15.1842   12.7549    0.0088   -0.0026   -0.0262
C        13.9324   16.4262   12.7720    0.0106    0.0009   -0.0583
C        15.3413   16.3949   12.7682    0.0106   -0.0014   -0.0428
H        12.0925   15.2624   12.7653    0.0088    0.0038   -0.0691
H        17.1282   15.1517   12.7524    0.0088   -0.0043   -0.0140
H        15.8945   17.3351   12.7765    0.0120   -0.0022   -0.0437
H        13.4215   17.3900   12.7831    0.0120    0.0018   -0.0711
C        19.9141   11.1351   12.7666    0.0024   -0.0087    0.0408
C        19.8494    8.2795   12.7644   -0.0023   -0.0086    0.0654
C        21.0925   10.3847   12.7838    0.0010   -0.0104    0.0581
C        21.0605    8.9757   12.7834   -0.0013   -0.0104    0.0703
H        19.9307   12.2252   12.7677    0.0041   -0.0087    0.0311
H        19.8161    7.1897   12.7642   -0.0040   -0.0085    0.0745
H        22.0002    8.4217   12.7979   -0.0023   -0.0118    0.0836
H        22.0566   10.8949   12.7993    0.0017   -0.0119    0.0620
C         9.0706    8.5177   12.7651   -0.0019    0.0086   -0.0440
C         9.1350   11.3733   12.7663    0.0027    0.0085   -0.0688
C         7.8920    9.2680   12.7781   -0.0008    0.0106   -0.0627
C         7.9240   10.6769   12.7780    0.0014    0.0105   -0.0751
H         9.0541    7.4277   12.7650   -0.0036    0.0086   -0.0344
H         9.1683   12.4630   12.7667    0.0044    0.0084   -0.0781
H         6.9843   11.2312   12.7887    0.0022    0.0121   -0.0897
H         6.9279    8.7580   12.7877   -0.0017    0.0122   -0.0680
C        15.8019    4.4056   12.7477   -0.0082   -0.0022    0.0605
C        12.9464    4.4688   12.7613   -0.0083    0.0024    0.0293
C        15.0523    3.2268   12.7611   -0.0102   -0.0009    0.0627
C        13.6434    3.2581   12.7682   -0.0103    0.0014    0.0472
H        16.8920    4.3900   12.7428   -0.0082   -0.0040    0.0723
H        11.8565    4.5005   12.7666   -0.0083    0.0042    0.0174
H        13.0902    2.3178   12.7803   -0.0119    0.0024    0.0494
H        15.5632    2.2628   12.7676   -0.0118   -0.0017    0.0766
    57
unstable frequency at     -0.013 1/cm IR int. is 10.139 a.m.u.; force const. is 0.000 mDyne/Ang.
C        10.3153   10.6255   12.7541   -0.0136   -0.0392    0.0001
C        11.7250   11.0126   12.7436   -0.0136   -0.0392    0.0001
C        13.4288   12.6432   12.7402   -0.0136   -0.0393    0.0002
C        13.8774   14.0347   12.7489   -0.0136   -0.0393    0.0002
C        10.2838    9.2117   12.7538   -0.0137   -0.0392    0.0001
C        11.6752    8.7628   12.7434   -0.0137   -0.0392    0.0001
C        13.3062    7.0594   12.7390   -0.0137   -0.0393    0.0000
C        13.6935    5.6496   12.7468   -0.0138   -0.0393   -0.0000
N        12.1457   12.2786   12.7444   -0.0136   -0.0392    0.0001
N        12.0400    7.4796   12.7439   -0.0137   -0.0392    0.0000
C        15.2912   14.0035   12.7457   -0.0136   -0.0393    0.0002
C        15.6785   12.5937   12.7355   -0.0136   -0.0393    0.0002
C        17.3094   10.8903   12.7347   -0.0136   -0.0394    0.0001
C        18.7010   10.4413   12.7487   -0.0136   -0.0394    0.0001
C        17.2595    8.6406   12.7332   -0.0137   -0.0394    0.0001
C        18.6693    9.0275   12.7476   -0.0137   -0.0394    0.0001
C        15.1073    5.6184   12.7412   -0.0138   -0.0393   -0.0000
C        15.5559    7.0099   12.7320   -0.0137   -0.0393    0.0000
N        16.9446   12.1735   12.7365   -0.0136   -0.0394    0.0001
N        16.8391    7.3745   12.7331   -0.0137   -0.0394    0.0000
N        12.4947    9.8701   12.7367   -0.0137   -0.0392    0.0001
N        14.5362   11.8239   12.7312   -0.0136   -0.0393    0.0001
N        16.4900    9.7831   12.7252   -0.0137   -0.0393    0.0001
N        14.4485    7.8292   12.7301   -0.0137   -0.0393    0.0000
C        13.1827   15.2473   12.7623   -0.0135   -0.0393    0.0002
Zn       14.4924    9.8265   12.7264   -0.0137   -0.0393    0.0001
C        16.0384   15.1842   12.7549   -0.0135   -0.0393    0.0002
C        13.9324   16.4262   12.7720   -0.0135   -0.0393    0.0002
C        15.3413   16.3949   12.7682   -0.0135   -0.0393    0.0002
H        12.0925   15.2624   12.7653   -0.0135   -0.0392    0.0002
H        17.1282   15.1517   12.7524   -0.0135   -0.0394    0.0002
H        15.8945   17.3351   12.7765   -0.0135   -0.0393    0.0003
H        13.4215   17.3900   12.7831   -0.0135   -0.0393    0.0003
C        19.9141   11.1351   12.7666   -0.0136   -0.0394    0.0001
C        19.8494    8.2795   12.7644   -0.0137   -0.0394    0.0001
C        21.0925   10.3847   12.7838   -0.0136   -0.0395    0.0001
C        21.0605    8.9757   12.7834   -0.0137   -0.0395    0.0001
H        19.9307   12.2252   12.7677   -0.0136   -0.0394    0.0002
H        19.8161    7.1897   12.7642   -0.0137   -0.0394    0.0000
H        22.0002    8.4217   12.7979   -0.0137   -0.0395    0.0001
H        22.0566   10.8949   12.7993   -0.0136   -0.0395    0.0001
C         9.0706    8.5177   12.7651   -0.0137   -0.0392    0.0000
C         9.1350   11.3733   12.7663   -0.0136   -0.0392    0.0001
C         7.8920    9.2680   12.7781   -0.0137   -0.0391    0.0001
C         7.9240   10.6769   12.7780   -0.0136   -0.0391    0.0001
H         9.0541    7.4277   12.7650   -0.0137   -0.0392    0.0000
H         9.1683   12.4630   12.7667   -0.0136   -0.0392    0.0001
H         6.9843   11.2312   12.7887   -0.0136   -0.0391    0.0001
H         6.9279    8.7580   12.7877   -0.0137   -0.0391    0.0000
C        15.8019    4.4056   12.7477   -0.0138   -0.0393   -0.0000
C        12.9464    4.4688   12.7613   -0.0138   -0.0393   -0.0000
C        15.0523    3.2268   12.7611   -0.0138   -0.0393   -0.0001
C        13.6434    3.2581   12.7682   -0.0138   -0.0393   -0.0001
H        16.8920    4.3900   12.7428   -0.0138   -0.0394   -0.0000
H        11.8565    4.5005   12.7666   -0.0138   -0.0392   -0.0000
H        13.0902    2.3178   12.7803   -0.0138   -0.0393   -0.0001
H        15.5632    2.2628   12.7676   -0.0138   -0.0393   -0.0001
    57
unstable frequency at     -0.001 1/cm IR int. is 10.139 a.m.u.; force const. is 0.000 mDyne/Ang.
C        10.3153   10.6255   12.7541    0.0010   -0.0002    0.0416
C        11.7250   11.0126   12.7436    0.0010   -0.0002    0.0416
C        13.4288   12.6432   12.7402    0.0010   -0.0002    0.0416
C        13.8774   14.0347   12.7489    0.0010   -0.0002    0.0416
C        10.2838    9.2117   12.7538    0.0010   -0.0002    0.0416
C        11.6752    8.7628   12.7434    0.0010   -0.0002    0.0416
C        13.3062    7.0594   12.7390    0.0010   -0.0002    0.0416
C        13.6935    5.6496   12.7468    0.0010   -0.0002    0.0416
N        12.1457   12.2786   12.7444    0.0010   -0.0002    0.0416
N        12.0400    7.4796   12.7439    0.0010   -0.0002    0.0416
C        15.2912   14.0035   12.7457    0.0010   -0.0002    0.0416
C        15.6785   12.5937   12.7355    0.0010   -0.0002    0.0416
C        17.3094   10.8903   12.7347    0.0010   -0.0002    0.0416
C        18.7010   10.4413   12.7487    0.0010   -0.0002    0.0416
C        17.2595    8.6406   12.7332    0.0010   -0.0002    0.0416
C        18.6693    9.0275   12.7476    0.0010   -0.0002    0.0416
C        15.1073    5.6184   12.7412    0.0010   -0.0002    0.0416
C        15.5559    7.0099   12.7320    0.0010   -0.0002    0.0416
N        16.9446   12.1735   12.7365    0.0010   -0.0002    0.0416
N        16.8391    7.3745   12.7331    0.0010   -0.0002    0.0416
N        12.4947    9.8701   12.7367    0.0010   -0.0002    0.0416
N        14.5362   11.8239   12.7312    0.0010   -0.0002    0.0416
N        16.4900    9.7831   12.7252    0.0010   -0.0002    0.0416
N        14.4485    7.8292   12.7301    0.0010   -0.0002    0.0416
C        13.1827   15.2473   12.7623    0.0010   -0.0002    0.0416
Zn       14.4924    9.8265   12.7264    0.0010   -0.0002    0.0416
C        16.0384   15.1842   12.7549    0.0010   -0.0002    0.0416
C        13.9324   16.4262   12.7720    0.0010   -0.0002    0.0416
C        15.3413   16.3949   12.7682    0.0010   -0.0002    0.0416
H        12.0925   15.2624   12.7653    0.0010   -0.0002    0.0416
H        17.1282   15.1517   12.7524    0.0010   -0.0002    0.0416
H        15.8945   17.3351   12.7765    0.0010   -0.0002    0.0416
H        13.4215   17.3900   12.7831    0.0010   -0.0002    0.0416
C        19.9141   11.1351   12.7666    0.0010   -0.0002    0.0416
C        19.8494    8.2795   12.7644    0.0010   -0.0002    0.0416
C        21.0925   10.3847   12.7838    0.0010   -0.0002    0.0416
C        21.0605    8.9757   12.7834    0.0010   -0.0002    0.0416
H        19.9307   12.2252   12.7677    0.0010   -0.0002    0.0416
H        19.8161    7.1897   12.7642    0.0010   -0.0002    0.0416
H        22.0002    8.4217   12.7979    0.0010   -0.0002    0.0416
H        22.0566   10.8949   12.7993    0.0010   -0.0002    0.0416
C         9.0706    8.5177   12.7651    0.0010   -0.0002    0.0416
C         9.1350   11.3733   12.7663    0.0010   -0.0002    0.0416
C         7.8920    9.2680   12.7781    0.0010   -0.0003    0.0416
C         7.9240   10.6769   12.7780    0.0010   -0.0003    0.0416
H         9.0541    7.4277   12.7650    0.0010   -0.0002    0.0416
H         9.1683   12.4630   12.7667    0.0010   -0.0002    0.0416
H         6.9843   11.2312   12.7887    0.0010   -0.0003    0.0416
H         6.9279    8.7580   12.7877    0.0010   -0.0003    0.0416
C        15.8019    4.4056   12.7477    0.0010   -0.0002    0.0416
C        12.9464    4.4688   12.7613    0.0010   -0.0002    0.0416
C        15.0523    3.2268   12.7611    0.0010   -0.0002    0.0416
C        13.6434    3.2581   12.7682    0.0010   -0.0002    0.0416
H        16.8920    4.3900   12.7428    0.0010   -0.0002    0.0416
H        11.8565    4.5005   12.7666    0.0010   -0.0002    0.0416
H        13.0902    2.3178   12.7803    0.0010   -0.0002    0.0416
H        15.5632    2.2628   12.7676    0.0010   -0.0002    0.0416
    57
stable frequency at      0.004 1/cm IR int. is 10.138 a.m.u.; force const. is 0.000 mDyne/Ang.
C        10.3153   10.6255   12.7541    0.0393   -0.0137   -0.0005
C        11.7250   11.0126   12.7436    0.0393   -0.0137   -0.0006
C        13.4288   12.6432   12.7402    0.0392   -0.0137   -0.0007
C        13.8774   14.0347   12.7489    0.0392   -0.0137   -0.0006
C        10.2838    9.2117   12.7538    0.0393   -0.0137   -0.0006
C        11.6752    8.7628   12.7434    0.0393   -0.0137   -0.0008
C        13.3062    7.0594   12.7390    0.0393   -0.0137   -0.0011
C        13.6935    5.6496   12.7468    0.0394   -0.0137   -0.0012
N        12.1457   12.2786   12.7444    0.0392   -0.0137   -0.0006
N        12.0400    7.4796   12.7439    0.0393   -0.0137   -0.0009
C        15.2912   14.0035   12.7457    0.0392   -0.0136   -0.0008
C        15.6785   12.5937   12.7355    0.0392   -0.0136   -0.0009
C        17.3094   10.8903   12.7347    0.0393   -0.0136   -0.0012
C        18.7010   10.4413   12.7487    0.0393   -0.0136   -0.0014
C        17.2595    8.6406   12.7332    0.0393   -0.0136   -0.0014
C        18.6693    9.0275   12.7476    0.0393   -0.0136   -0.0015
C        15.1073    5.6184   12.7412    0.0394   -0.0136   -0.0014
C        15.5559    7.0099   12.7320    0.0393   -0.0136   -0.0013
N        16.9446   12.1735   12.7365    0.0392   -0.0136   -0.0011
N        16.8391    7.3745   12.7331    0.0393   -0.0136   -0.0014
N        12.4947    9.8701   12.7367    0.0393   -0.0137   -0.0008
N        14.5362   11.8239   12.7312    0.0392   -0.0137   -0.0008
N        16.4900    9.7831   12.7252    0.0393   -0.0136   -0.0012
N        14.4485    7.8292   12.7301    0.0393   -0.0137   -0.0011
C        13.1827   15.2473   12.7623    0.0392   -0.0137   -0.0005
Zn       14.4924    9.8265   12.7264    0.0393   -0.0137   -0.0010
C        16.0384   15.1842   12.7549    0.0392   -0.0136   -0.0008
C        13.9324   16.4262   12.7720    0.0392   -0.0137   -0.0005
C        15.3413   16.3949   12.7682    0.0392   -0.0136   -0.0006
H        12.0925   15.2624   12.7653    0.0392   -0.0137   -0.0003
H        17.1282   15.1517   12.7524    0.0392   -0.0136   -0.0009
H        15.8945   17.3351   12.7765    0.0391   -0.0136   -0.0006
H        13.4215   17.3900   12.7831    0.0391   -0.0137   -0.0003
C        19.9141   11.1351   12.7666    0.0393   -0.0136   -0.0014
C        19.8494    8.2795   12.7644    0.0393   -0.0136   -0.0017
C        21.0925   10.3847   12.7838    0.0393   -0.0135   -0.0016
C        21.0605    8.9757   12.7834    0.0393   -0.0135   -0.0017
H        19.9307   12.2252   12.7677    0.0392   -0.0136   -0.0014
H        19.8161    7.1897   12.7642    0.0393   -0.0136   -0.0017
H        22.0002    8.4217   12.7979    0.0393   -0.0135   -0.0019
H        22.0566   10.8949   12.7993    0.0393   -0.0135   -0.0017
C         9.0706    8.5177   12.7651    0.0393   -0.0138   -0.0005
C         9.1350   11.3733   12.7663    0.0393   -0.0138   -0.0003
C         7.8920    9.2680   12.7781    0.0393   -0.0138   -0.0003
C         7.9240   10.6769   12.7780    0.0393   -0.0138   -0.0002
H         9.0541    7.4277   12.7650    0.0393   -0.0138   -0.0006
H         9.1683   12.4630   12.7667    0.0392   -0.0138   -0.0002
H         6.9843   11.2312   12.7887    0.0393   -0.0138   -0.0001
H         6.9279    8.7580   12.7877    0.0393   -0.0138   -0.0003
C        15.8019    4.4056   12.7477    0.0394   -0.0136   -0.0016
C        12.9464    4.4688   12.7613    0.0394   -0.0137   -0.0012
C        15.0523    3.2268   12.7611    0.0394   -0.0136   -0.0016
C        13.6434    3.2581   12.7682    0.0394   -0.0137   -0.0014
H        16.8920    4.3900   12.7428    0.0394   -0.0136   -0.0017
H        11.8565    4.5005   12.7666    0.0394   -0.0137   -0.0011
H        13.0902    2.3178   12.7803    0.0394   -0.0137   -0.0014
H        15.5632    2.2628   12.7676    0.0394   -0.0136   -0.0017
    57
stable frequency at      9.483 1/cm IR int. is 5.770 a.m.u.; force const. is 0.000 mDyne/Ang.
C        10.3153   10.6255   12.7541   -0.0003   -0.0001   -0.0277
C        11.7250   11.0126   12.7436   -0.0001   -0.0001   -0.0087
C        13.4288   12.6432   12.7402   -0.0001   -0.0001    0.0093
C        13.8774   14.0347   12.7489   -0.0001   -0.0002    0.0295
C        10.2838    9.2117   12.7538   -0.0002   -0.0001   -0.0268
C        11.6752    8.7628   12.7434   -0.0001   -0.0001   -0.0076
C        13.3062    7.0594   12.7390    0.0000   -0.0000    0.0111
C        13.6935    5.6496   12.7468    0.0001    0.0001    0.0316
N        12.1457   12.2786   12.7444   -0.0001   -0.0001    0.0003
N        12.0400    7.4796   12.7439   -0.0000   -0.0001    0.0024
C        15.2912   14.0035   12.7457   -0.0001   -0.0001    0.0291
C        15.6785   12.5937   12.7355   -0.0001    0.0000    0.0084
C        17.3094   10.8903   12.7347   -0.0000    0.0001   -0.0120
C        18.7010   10.4413   12.7487    0.0002    0.0001   -0.0327
C        17.2595    8.6406   12.7332    0.0000    0.0001   -0.0123
C        18.6693    9.0275   12.7476    0.0002    0.0002   -0.0331
C        15.1073    5.6184   12.7412    0.0001    0.0001    0.0300
C        15.5559    7.0099   12.7320    0.0000    0.0000    0.0087
N        16.9446   12.1735   12.7365   -0.0001    0.0001   -0.0018
N        16.8391    7.3745   12.7331    0.0000    0.0001   -0.0022
N        12.4947    9.8701   12.7367   -0.0000   -0.0001    0.0001
N        14.5362   11.8239   12.7312   -0.0001    0.0000   -0.0002
N        16.4900    9.7831   12.7252   -0.0001    0.0001   -0.0029
N        14.4485    7.8292   12.7301   -0.0000   -0.0001    0.0006
C        13.1827   15.2473   12.7623   -0.0001   -0.0004    0.0521
Zn       14.4924    9.8265   12.7264   -0.0001   -0.0000   -0.0007
C        16.0384   15.1842   12.7549   -0.0001   -0.0003    0.0515
C        13.9324   16.4262   12.7720   -0.0001   -0.0006    0.0748
C        15.3413   16.3949   12.7682   -0.0001   -0.0006    0.0746
H        12.0925   15.2624   12.7653   -0.0001   -0.0005    0.0552
H        17.1282   15.1517   12.7524   -0.0001   -0.0003    0.0544
H        15.8945   17.3351   12.7765   -0.0001   -0.0007    0.0958
H        13.4215   17.3900   12.7831   -0.0000   -0.0009    0.0962
C        19.9141   11.1351   12.7666    0.0005    0.0002   -0.0549
C        19.8494    8.2795   12.7644    0.0006    0.0002   -0.0558
C        21.0925   10.3847   12.7838    0.0008    0.0003   -0.0778
C        21.0605    8.9757   12.7834    0.0009    0.0003   -0.0783
H        19.9307   12.2252   12.7677    0.0004    0.0002   -0.0573
H        19.8161    7.1897   12.7642    0.0007    0.0002   -0.0592
H        22.0002    8.4217   12.7979    0.0012    0.0003   -0.0994
H        22.0566   10.8949   12.7993    0.0012    0.0003   -0.0985
C         9.0706    8.5177   12.7651   -0.0004   -0.0002   -0.0475
C         9.1350   11.3733   12.7663   -0.0005   -0.0002   -0.0494
C         7.8920    9.2680   12.7781   -0.0007   -0.0002   -0.0696
C         7.9240   10.6769   12.7780   -0.0007   -0.0002   -0.0705
H         9.0541    7.4277   12.7650   -0.0004   -0.0002   -0.0497
H         9.1683   12.4630   12.7667   -0.0006   -0.0001   -0.0532
H         6.9843   11.2312   12.7887   -0.0009   -0.0002   -0.0911
H         6.9279    8.7580   12.7877   -0.0009   -0.0002   -0.0895
C        15.8019    4.4056   12.7477    0.0002    0.0003    0.0519
C        12.9464    4.4688   12.7613    0.0002    0.0003    0.0553
C        15.0523    3.2268   12.7611    0.0003    0.0005    0.0761
C        13.6434    3.2581   12.7682    0.0003    0.0005    0.0777
H        16.8920    4.3900   12.7428    0.0002    0.0003    0.0536
H        11.8565    4.5005   12.7666    0.0003    0.0004    0.0596
H        13.0902    2.3178   12.7803    0.0005    0.0007    0.0999
H        15.5632    2.2628   12.7676    0.0004    0.0007    0.0971
    57
stable frequency at     27.220 1/cm IR int. is 7.354 a.m.u.; force const. is 0.003 mDyne/Ang.
C        10.3153   10.6255   12.7541   -0.0003   -0.0001   -0.0000
C        11.7250   11.0126   12.7436   -0.0001   -0.0001    0.0274
C        13.4288   12.6432   12.7402   -0.0001   -0.0000    0.0278
C        13.8774   14.0347   12.7489   -0.0001    0.0002    0.0010
C        10.2838    9.2117   12.7538   -0.0002   -0.0001   -0.0001
C        11.6752    8.7628   12.7434   -0.0000   -0.0001    0.0273
C        13.3062    7.0594   12.7390    0.0000   -0.0001    0.0272
C        13.6935    5.6496   12.7468    0.0000   -0.0002    0.0005
N        12.1457   12.2786   12.7444   -0.0001   -0.0000    0.0231
N        12.0400    7.4796   12.7439   -0.0000   -0.0001    0.0226
C        15.2912   14.0035   12.7457   -0.0001    0.0002    0.0005
C        15.6785   12.5937   12.7355   -0.0000    0.0000    0.0271
C        17.3094   10.8903   12.7347    0.0000    0.0001    0.0267
C        18.7010   10.4413   12.7487    0.0003    0.0001   -0.0003
C        17.2595    8.6406   12.7332    0.0001    0.0000    0.0265
C        18.6693    9.0275   12.7476    0.0003    0.0001   -0.0006
C        15.1073    5.6184   12.7412    0.0000   -0.0002    0.0004
C        15.5559    7.0099   12.7320    0.0001    0.0000    0.0270
N        16.9446   12.1735   12.7365    0.0000    0.0001    0.0222
N        16.8391    7.3745   12.7331    0.0001    0.0000    0.0220
N        12.4947    9.8701   12.7367    0.0001   -0.0001    0.0456
N        14.5362   11.8239   12.7312   -0.0000   -0.0001    0.0455
N        16.4900    9.7831   12.7252   -0.0001    0.0000    0.0447
N        14.4485    7.8292   12.7301    0.0001    0.0000    0.0450
C        13.1827   15.2473   12.7623   -0.0002    0.0005   -0.0304
Zn       14.4924    9.8265   12.7264    0.0000   -0.0000    0.0580
C        16.0384   15.1842   12.7549   -0.0002    0.0005   -0.0319
C        13.9324   16.4262   12.7720   -0.0003    0.0008   -0.0625
C        15.3413   16.3949   12.7682   -0.0003    0.0008   -0.0633
H        12.0925   15.2624   12.7653   -0.0002    0.0005   -0.0317
H        17.1282   15.1517   12.7524   -0.0002    0.0005   -0.0345
H        15.8945   17.3351   12.7765   -0.0003    0.0010   -0.0908
H        13.4215   17.3900   12.7831   -0.0003    0.0011   -0.0894
C        19.9141   11.1351   12.7666    0.0008    0.0001   -0.0322
C        19.8494    8.2795   12.7644    0.0008    0.0001   -0.0329
C        21.0925   10.3847   12.7838    0.0013    0.0002   -0.0642
C        21.0605    8.9757   12.7834    0.0013    0.0002   -0.0645
H        19.9307   12.2252   12.7677    0.0008    0.0001   -0.0338
H        19.8161    7.1897   12.7642    0.0009    0.0001   -0.0352
H        22.0002    8.4217   12.7979    0.0017    0.0002   -0.0919
H        22.0566   10.8949   12.7993    0.0017    0.0002   -0.0912
C         9.0706    8.5177   12.7651   -0.0005   -0.0001   -0.0327
C         9.1350   11.3733   12.7663   -0.0006   -0.0001   -0.0328
C         7.8920    9.2680   12.7781   -0.0009   -0.0001   -0.0653
C         7.9240   10.6769   12.7780   -0.0009   -0.0001   -0.0653
H         9.0541    7.4277   12.7650   -0.0005   -0.0001   -0.0347
H         9.1683   12.4630   12.7667   -0.0007   -0.0001   -0.0348
H         6.9843   11.2312   12.7887   -0.0012   -0.0001   -0.0932
H         6.9279    8.7580   12.7877   -0.0012   -0.0001   -0.0933
C        15.8019    4.4056   12.7477   -0.0001   -0.0004   -0.0313
C        12.9464    4.4688   12.7613   -0.0001   -0.0005   -0.0312
C        15.0523    3.2268   12.7611   -0.0001   -0.0007   -0.0629
C        13.6434    3.2581   12.7682   -0.0001   -0.0008   -0.0627
H        16.8920    4.3900   12.7428   -0.0001   -0.0004   -0.0333
H        11.8565    4.5005   12.7666   -0.0001   -0.0007   -0.0330
H        13.0902    2.3178   12.7803   -0.0002   -0.0010   -0.0896
H        15.5632    2.2628   12.7676   -0.0002   -0.0009   -0.0899
    57
stable frequency at     50.188 1/cm IR int. is 6.009 a.m.u.; force const. is 0.009 mDyne/Ang.
C        10.3153   10.6255   12.7541   -0.0000    0.0003   -0.0323
C        11.7250   11.0126   12.7436   -0.0001    0.0001   -0.0498
C        13.4288   12.6432   12.7402   -0.0001    0.0000   -0.0632
C        13.8774   14.0347   12.7489   -0.0001   -0.0002   -0.0332
C        10.2838    9.2117   12.7538    0.0001    0.0003    0.0179
C        11.6752    8.7628   12.7434    0.0000    0.0001    0.0185
C        13.3062    7.0594   12.7390    0.0000   -0.0000    0.0441
C        13.6935    5.6496   12.7468   -0.0002   -0.0002    0.0190
N        12.1457   12.2786   12.7444   -0.0001    0.0001   -0.0718
N        12.0400    7.4796   12.7439    0.0000    0.0001    0.0406
C        15.2912   14.0035   12.7457   -0.0001   -0.0002   -0.0116
C        15.6785   12.5937   12.7355   -0.0001   -0.0001   -0.0343
C        17.3094   10.8903   12.7347    0.0000   -0.0000   -0.0086
C        18.7010   10.4413   12.7487    0.0002    0.0003   -0.0103
C        17.2595    8.6406   12.7332    0.0000   -0.0001    0.0405
C        18.6693    9.0275   12.7476    0.0001    0.0003    0.0247
C        15.1073    5.6184   12.7412   -0.0001   -0.0002    0.0255
C        15.5559    7.0099   12.7320    0.0001   -0.0001    0.0537
N        16.9446   12.1735   12.7365   -0.0001   -0.0000   -0.0243
N        16.8391    7.3745   12.7331    0.0001   -0.0001    0.0557
N        12.4947    9.8701   12.7367   -0.0001   -0.0001   -0.0198
N        14.5362   11.8239   12.7312   -0.0000    0.0000   -0.0619
N        16.4900    9.7831   12.7252    0.0000   -0.0002    0.0203
N        14.4485    7.8292   12.7301    0.0001   -0.0000    0.0622
C        13.1827   15.2473   12.7623   -0.0002   -0.0006   -0.0040
Zn       14.4924    9.8265   12.7264    0.0000   -0.0001    0.0004
C        16.0384   15.1842   12.7549   -0.0001   -0.0007    0.0446
C        13.9324   16.4262   12.7720   -0.0002   -0.0010    0.0522
C        15.3413   16.3949   12.7682   -0.0002   -0.0011    0.0775
H        12.0925   15.2624   12.7653   -0.0003   -0.0006   -0.0203
H        17.1282   15.1517   12.7524   -0.0001   -0.0008    0.0671
H        15.8945   17.3351   12.7765   -0.0002   -0.0014    0.1261
H        13.4215   17.3900   12.7831   -0.0003   -0.0014    0.0801
C        19.9141   11.1351   12.7666    0.0004    0.0008   -0.0461
C        19.8494    8.2795   12.7644    0.0003    0.0007    0.0326
C        21.0925   10.3847   12.7838    0.0006    0.0013   -0.0419
C        21.0605    8.9757   12.7834    0.0006    0.0012   -0.0009
H        19.9307   12.2252   12.7677    0.0004    0.0008   -0.0786
H        19.8161    7.1897   12.7642    0.0003    0.0007    0.0632
H        22.0002    8.4217   12.7979    0.0007    0.0016    0.0032
H        22.0566   10.8949   12.7993    0.0009    0.0016   -0.0710
C         9.0706    8.5177   12.7651    0.0004    0.0006    0.0628
C         9.1350   11.3733   12.7663   -0.0000    0.0006   -0.0499
C         7.8920    9.2680   12.7781    0.0005    0.0009    0.0503
C         7.9240   10.6769   12.7780    0.0002    0.0009   -0.0085
H         9.0541    7.4277   12.7650    0.0005    0.0006    0.1087
H         9.1683   12.4630   12.7667   -0.0002    0.0007   -0.0941
H         6.9843   11.2312   12.7887    0.0003    0.0012   -0.0200
H         6.9279    8.7580   12.7877    0.0007    0.0012    0.0867
C        15.8019    4.4056   12.7477   -0.0004   -0.0006   -0.0133
C        12.9464    4.4688   12.7613   -0.0004   -0.0006   -0.0281
C        15.0523    3.2268   12.7611   -0.0006   -0.0010   -0.0618
C        13.6434    3.2581   12.7682   -0.0007   -0.0010   -0.0694
H        16.8920    4.3900   12.7428   -0.0004   -0.0006   -0.0104
H        11.8565    4.5005   12.7666   -0.0005   -0.0007   -0.0370
H        13.0902    2.3178   12.7803   -0.0009   -0.0013   -0.1108
H        15.5632    2.2628   12.7676   -0.0009   -0.0013   -0.0971
    57
stable frequency at     50.386 1/cm IR int. is 6.036 a.m.u.; force const. is 0.009 mDyne/Ang.
C        10.3153   10.6255   12.7541    0.0000   -0.0000   -0.0158
C        11.7250   11.0126   12.7436   -0.0002    0.0000   -0.0397
C        13.4288   12.6432   12.7402   -0.0001    0.0001   -0.0137
C        13.8774   14.0347   12.7489   -0.0003    0.0001   -0.0143
C        10.2838    9.2117   12.7538   -0.0000   -0.0000   -0.0295
C        11.6752    8.7628   12.7434   -0.0002    0.0000   -0.0587
C        13.3062    7.0594   12.7390   -0.0002   -0.0000   -0.0452
C        13.6935    5.6496   12.7468   -0.0004    0.0000   -0.0285
N        12.1457   12.2786   12.7444   -0.0002    0.0000   -0.0330
N        12.0400    7.4796   12.7439   -0.0003    0.0000   -0.0638
C        15.2912   14.0035   12.7457   -0.0002    0.0000    0.0290
C        15.6785   12.5937   12.7355    0.0000   -0.0000    0.0460
C        17.3094   10.8903   12.7347    0.0000   -0.0000    0.0594
C        18.7010   10.4413   12.7487    0.0003   -0.0002    0.0298
C        17.2595    8.6406   12.7332    0.0000   -0.0001    0.0394
C        18.6693    9.0275   12.7476    0.0003   -0.0002    0.0151
C        15.1073    5.6184   12.7412   -0.0002    0.0001    0.0140
C        15.5559    7.0099   12.7320   -0.0001    0.0000    0.0135
N        16.9446   12.1735   12.7365    0.0000   -0.0000    0.0650
N        16.8391    7.3745   12.7331   -0.0000   -0.0000    0.0324
N        12.4947    9.8701   12.7367   -0.0003    0.0000   -0.0624
N        14.5362   11.8239   12.7312    0.0001   -0.0000    0.0206
N        16.4900    9.7831   12.7252   -0.0001    0.0000    0.0629
N        14.4485    7.8292   12.7301   -0.0000   -0.0000   -0.0200
C        13.1827   15.2473   12.7623   -0.0008    0.0003   -0.0554
Zn       14.4924    9.8265   12.7264   -0.0000    0.0000    0.0004
C        16.0384   15.1842   12.7549   -0.0005    0.0001    0.0420
C        13.9324   16.4262   12.7720   -0.0011    0.0005   -0.0469
C        15.3413   16.3949   12.7682   -0.0009    0.0003    0.0038
H        12.0925   15.2624   12.7653   -0.0009    0.0004   -0.0952
H        17.1282   15.1517   12.7524   -0.0004    0.0001    0.0800
H        15.8945   17.3351   12.7765   -0.0012    0.0004    0.0118
H        13.4215   17.3900   12.7831   -0.0014    0.0007   -0.0802
C        19.9141   11.1351   12.7666    0.0009   -0.0003   -0.0045
C        19.8494    8.2795   12.7644    0.0010   -0.0003   -0.0376
C        21.0925   10.3847   12.7838    0.0016   -0.0005   -0.0577
C        21.0605    8.9757   12.7834    0.0016   -0.0005   -0.0750
H        19.9307   12.2252   12.7677    0.0009   -0.0003    0.0056
H        19.8161    7.1897   12.7642    0.0011   -0.0003   -0.0539
H        22.0002    8.4217   12.7979    0.0022   -0.0006   -0.1206
H        22.0566   10.8949   12.7993    0.0022   -0.0006   -0.0894
C         9.0706    8.5177   12.7651    0.0003   -0.0001    0.0047
C         9.1350   11.3733   12.7663    0.0005   -0.0001    0.0359
C         7.8920    9.2680   12.7781    0.0008   -0.0001    0.0572
C         7.9240   10.6769   12.7780    0.0009   -0.0001    0.0734
H         9.0541    7.4277   12.7650    0.0003   -0.0001   -0.0046
H         9.1683   12.4630   12.7667    0.0007   -0.0001    0.0515
H         6.9843   11.2312   12.7887    0.0013   -0.0002    0.1184
H         6.9279    8.7580   12.7877    0.0012   -0.0002    0.0891
C        15.8019    4.4056   12.7477   -0.0003    0.0003    0.0544
C        12.9464    4.4688   12.7613   -0.0008    0.0001   -0.0412
C        15.0523    3.2268   12.7611   -0.0006    0.0004    0.0461
C        13.6434    3.2581   12.7682   -0.0008    0.0002   -0.0038
H        16.8920    4.3900   12.7428   -0.0001    0.0004    0.0935
H        11.8565    4.5005   12.7666   -0.0009   -0.0001   -0.0785
H        13.0902    2.3178   12.7803   -0.0011    0.0003   -0.0116
H        15.5632    2.2628   12.7676   -0.0007    0.0005    0.0788
    57
stable frequency at     51.249 1/cm IR int. is 5.068 a.m.u.; force const. is 0.008 mDyne/Ang.
C        10.3153   10.6255   12.7541    0.0000   -0.0002    0.0234
C        11.7250   11.0126   12.7436    0.0001   -0.0002    0.0284
C        13.4288   12.6432   12.7402    0.0002   -0.0003    0.0271
C        13.8774   14.0347   12.7489    0.0004   -0.0003    0.0241
C        10.2838    9.2117   12.7538   -0.0003   -0.0002   -0.0265
C        11.6752    8.7628   12.7434   -0.0003   -0.0001   -0.0339
C        13.3062    7.0594   12.7390   -0.0003   -0.0001   -0.0298
C        13.6935    5.6496   12.7468   -0.0005   -0.0001   -0.0254
N        12.1457   12.2786   12.7444    0.0003   -0.0002    0.0503
N        12.0400    7.4796   12.7439   -0.0004   -0.0002   -0.0553
C        15.2912   14.0035   12.7457    0.0003   -0.0002   -0.0292
C        15.6785   12.5937   12.7355    0.0001   -0.0001   -0.0400
C        17.3094   10.8903   12.7347    0.0002    0.0000   -0.0368
C        18.7010   10.4413   12.7487    0.0002    0.0005   -0.0299
C        17.2595    8.6406   12.7332    0.0000    0.0000    0.0414
C        18.6693    9.0275   12.7476    0.0000    0.0004    0.0314
C        15.1073    5.6184   12.7412   -0.0003    0.0000    0.0324
C        15.5559    7.0099   12.7320   -0.0001    0.0000    0.0435
N        16.9446   12.1735   12.7365    0.0001    0.0001   -0.0633
N        16.8391    7.3745   12.7331   -0.0001    0.0000    0.0683
N        12.4947    9.8701   12.7367   -0.0001   -0.0001   -0.0034
N        14.5362   11.8239   12.7312    0.0000   -0.0002   -0.0083
N        16.4900    9.7831   12.7252    0.0001   -0.0002    0.0031
N        14.4485    7.8292   12.7301   -0.0001   -0.0000    0.0085
C        13.1827   15.2473   12.7623    0.0009   -0.0005    0.0624
Zn       14.4924    9.8265   12.7264   -0.0000   -0.0001   -0.0001
C        16.0384   15.1842   12.7549    0.0006   -0.0001   -0.0558
C        13.9324   16.4262   12.7720    0.0012   -0.0005    0.0405
C        15.3413   16.3949   12.7682    0.0010   -0.0003   -0.0213
H        12.0925   15.2624   12.7653    0.0010   -0.0006    0.1096
H        17.1282   15.1517   12.7524    0.0005   -0.0000   -0.1025
H        15.8945   17.3351   12.7765    0.0012   -0.0003   -0.0411
H        13.4215   17.3900   12.7831    0.0015   -0.0007    0.0710
C        19.9141   11.1351   12.7666    0.0005    0.0011   -0.0697
C        19.8494    8.2795   12.7644   -0.0001    0.0010    0.0665
C        21.0925   10.3847   12.7838    0.0004    0.0017   -0.0397
C        21.0605    8.9757   12.7834    0.0001    0.0017    0.0314
H        19.9307   12.2252   12.7677    0.0007    0.0012   -0.1238
H        19.8161    7.1897   12.7642   -0.0003    0.0010    0.1206
H        22.0002    8.4217   12.7979    0.0001    0.0022    0.0581
H        22.0566   10.8949   12.7993    0.0007    0.0023   -0.0708
C         9.0706    8.5177   12.7651   -0.0005   -0.0003   -0.0548
C         9.1350   11.3733   12.7663    0.0002   -0.0004    0.0559
C         7.8920    9.2680   12.7781   -0.0003   -0.0005   -0.0263
C         7.9240   10.6769   12.7780    0.0001   -0.0005    0.0316
H         9.0541    7.4277   12.7650   -0.0008   -0.0003   -0.0986
H         9.1683   12.4630   12.7667    0.0006   -0.0004    0.1002
H         6.9843   11.2312   12.7887    0.0002   -0.0006    0.0570
H         6.9279    8.7580   12.7877   -0.0005   -0.0006   -0.0483
C        15.8019    4.4056   12.7477   -0.0004    0.0002    0.0620
C        12.9464    4.4688   12.7613   -0.0010   -0.0003   -0.0663
C        15.0523    3.2268   12.7611   -0.0008    0.0000    0.0255
C        13.6434    3.2581   12.7682   -0.0012   -0.0002   -0.0415
H        16.8920    4.3900   12.7428   -0.0002    0.0004    0.1124
H        11.8565    4.5005   12.7666   -0.0013   -0.0006   -0.1178
H        13.0902    2.3178   12.7803   -0.0016   -0.0004   -0.0738
H        15.5632    2.2628   12.7676   -0.0010    0.0001    0.0479
    57
stable frequency at    109.190 1/cm IR int. is 5.090 a.m.u.; force const. is 0.036 mDyne/Ang.
C        10.3153   10.6255   12.7541   -0.0115   -0.0082    0.0007
C        11.7250   11.0126   12.7436   -0.0114    0.0115    0.0001
C        13.4288   12.6432   12.7402   -0.0111    0.0115   -0.0008
C        13.8774   14.0347   12.7489    0.0087    0.0106   -0.0010
C        10.2838    9.2117   12.7538    0.0106   -0.0087   -0.0009
C        11.6752    8.7628   12.7434    0.0115    0.0111   -0.0007
C        13.3062    7.0594   12.7390    0.0115    0.0114    0.0006
C        13.6935    5.6496   12.7468   -0.0082    0.0115    0.0012
N        12.1457   12.2786   12.7444   -0.0139    0.0144   -0.0002
N        12.0400    7.4796   12.7439    0.0144    0.0139    0.0002
C        15.2912   14.0035   12.7457    0.0082   -0.0115    0.0002
C        15.6785   12.5937   12.7355   -0.0115   -0.0114    0.0003
C        17.3094   10.8903   12.7347   -0.0115   -0.0111    0.0011
C        18.7010   10.4413   12.7487   -0.0106    0.0087    0.0010
C        17.2595    8.6406   12.7332    0.0114   -0.0115    0.0012
C        18.6693    9.0275   12.7476    0.0115    0.0082    0.0016
C        15.1073    5.6184   12.7412   -0.0087   -0.0106   -0.0016
C        15.5559    7.0099   12.7320    0.0111   -0.0115   -0.0011
N        16.9446   12.1735   12.7365   -0.0144   -0.0139    0.0008
N        16.8391    7.3745   12.7331    0.0139   -0.0144   -0.0002
N        12.4947    9.8701   12.7367    0.0001    0.0167   -0.0006
N        14.5362   11.8239   12.7312   -0.0167    0.0001   -0.0004
N        16.4900    9.7831   12.7252   -0.0002   -0.0167    0.0013
N        14.4485    7.8292   12.7301    0.0167   -0.0002   -0.0004
C        13.1827   15.2473   12.7623    0.0421    0.0310   -0.0019
Zn       14.4924    9.8265   12.7264   -0.0000   -0.0000   -0.0004
C        16.0384   15.1842   12.7549    0.0406   -0.0333    0.0015
C        13.9324   16.4262   12.7720    0.0730    0.0129   -0.0010
C        15.3413   16.3949   12.7682    0.0724   -0.0165    0.0010
H        12.0925   15.2624   12.7653    0.0426    0.0642   -0.0031
H        17.1282   15.1517   12.7524    0.0396   -0.0659    0.0029
H        15.8945   17.3351   12.7765    0.0938   -0.0295    0.0022
H        13.4215   17.3900   12.7831    0.0942    0.0244   -0.0016
C        19.9141   11.1351   12.7666   -0.0309    0.0421   -0.0005
C        19.8494    8.2795   12.7644    0.0333    0.0405    0.0013
C        21.0925   10.3847   12.7838   -0.0128    0.0731   -0.0012
C        21.0605    8.9757   12.7834    0.0166    0.0724   -0.0002
H        19.9307   12.2252   12.7677   -0.0642    0.0427   -0.0015
H        19.8161    7.1897   12.7642    0.0658    0.0396    0.0020
H        22.0002    8.4217   12.7979    0.0295    0.0938   -0.0008
H        22.0566   10.8949   12.7993   -0.0243    0.0942   -0.0028
C         9.0706    8.5177   12.7651    0.0309   -0.0421   -0.0022
C         9.1350   11.3733   12.7663   -0.0332   -0.0405    0.0023
C         7.8920    9.2680   12.7781    0.0128   -0.0730   -0.0012
C         7.9240   10.6769   12.7780   -0.0165   -0.0723    0.0014
H         9.0541    7.4277   12.7650    0.0641   -0.0427   -0.0041
H         9.1683   12.4630   12.7667   -0.0658   -0.0396    0.0041
H         6.9843   11.2312   12.7887   -0.0295   -0.0937    0.0025
H         6.9279    8.7580   12.7877    0.0243   -0.0941   -0.0024
C        15.8019    4.4056   12.7477   -0.0421   -0.0310   -0.0043
C        12.9464    4.4688   12.7613   -0.0405    0.0333    0.0043
C        15.0523    3.2268   12.7611   -0.0730   -0.0129   -0.0023
C        13.6434    3.2581   12.7682   -0.0723    0.0165    0.0028
H        16.8920    4.3900   12.7428   -0.0427   -0.0642   -0.0077
H        11.8565    4.5005   12.7666   -0.0396    0.0659    0.0075
H        13.0902    2.3178   12.7803   -0.0937    0.0294    0.0053
H        15.5632    2.2628   12.7676   -0.0941   -0.0244   -0.0043
    57
stable frequency at    110.027 1/cm IR int. is 3.786 a.m.u.; force const. is 0.027 mDyne/Ang.
C        10.3153   10.6255   12.7541   -0.0007   -0.0003   -0.0260
C        11.7250   11.0126   12.7436   -0.0007    0.0004   -0.0156
C        13.4288   12.6432   12.7402   -0.0006    0.0005    0.0164
C        13.8774   14.0347   12.7489    0.0004    0.0004    0.0268
C        10.2838    9.2117   12.7538    0.0005   -0.0003    0.0256
C        11.6752    8.7628   12.7434    0.0004    0.0003    0.0150
C        13.3062    7.0594   12.7390    0.0002    0.0002   -0.0158
C        13.6935    5.6496   12.7468   -0.0002    0.0001   -0.0256
N        12.1457   12.2786   12.7444   -0.0007    0.0005    0.0003
N        12.0400    7.4796   12.7439    0.0004    0.0003   -0.0001
C        15.2912   14.0035   12.7457    0.0002   -0.0003   -0.0240
C        15.6785   12.5937   12.7355   -0.0007   -0.0003   -0.0139
C        17.3094   10.8903   12.7347   -0.0008   -0.0003    0.0150
C        18.7010   10.4413   12.7487   -0.0009    0.0003    0.0249
C        17.2595    8.6406   12.7332    0.0002   -0.0002   -0.0145
C        18.6693    9.0275   12.7476    0.0002    0.0003   -0.0242
C        15.1073    5.6184   12.7412   -0.0000    0.0001    0.0245
C        15.5559    7.0099   12.7320    0.0002   -0.0000    0.0142
N        16.9446   12.1735   12.7365   -0.0008   -0.0004    0.0004
N        16.8391    7.3745   12.7331    0.0003   -0.0002    0.0000
N        12.4947    9.8701   12.7367   -0.0002    0.0005   -0.0005
N        14.5362   11.8239   12.7312   -0.0009    0.0001    0.0015
N        16.4900    9.7831   12.7252   -0.0003   -0.0003    0.0002
N        14.4485    7.8292   12.7301    0.0003    0.0001   -0.0012
C        13.1827   15.2473   12.7623    0.0022    0.0010    0.0753
Zn       14.4924    9.8265   12.7264   -0.0004    0.0001   -0.0008
C        16.0384   15.1842   12.7549    0.0018   -0.0010   -0.0746
C        13.9324   16.4262   12.7720    0.0038    0.0003    0.0436
C        15.3413   16.3949   12.7682    0.0035   -0.0004   -0.0448
H        12.0925   15.2624   12.7653    0.0024    0.0022    0.1347
H        17.1282   15.1517   12.7524    0.0016   -0.0021   -0.1346
H        15.8945   17.3351   12.7765    0.0046   -0.0007   -0.0846
H        13.4215   17.3900   12.7831    0.0051    0.0005    0.0816
C        19.9141   11.1351   12.7666   -0.0020    0.0010    0.0726
C        19.8494    8.2795   12.7644    0.0013    0.0009   -0.0724
C        21.0925   10.3847   12.7838   -0.0012    0.0015    0.0427
C        21.0605    8.9757   12.7834    0.0005    0.0015   -0.0427
H        19.9307   12.2252   12.7677   -0.0035    0.0009    0.1301
H        19.8161    7.1897   12.7642    0.0028    0.0009   -0.1302
H        22.0002    8.4217   12.7979    0.0013    0.0019   -0.0802
H        22.0566   10.8949   12.7993   -0.0020    0.0018    0.0801
C         9.0706    8.5177   12.7651    0.0016   -0.0014    0.0762
C         9.1350   11.3733   12.7663   -0.0019   -0.0013   -0.0763
C         7.8920    9.2680   12.7781    0.0007   -0.0023    0.0453
C         7.9240   10.6769   12.7780   -0.0011   -0.0023   -0.0446
H         9.0541    7.4277   12.7650    0.0033   -0.0015    0.1368
H         9.1683   12.4630   12.7667   -0.0036   -0.0012   -0.1372
H         6.9843   11.2312   12.7887   -0.0018   -0.0029   -0.0839
H         6.9279    8.7580   12.7877    0.0015   -0.0030    0.0853
C        15.8019    4.4056   12.7477   -0.0003    0.0002    0.0738
C        12.9464    4.4688   12.7613   -0.0010    0.0000   -0.0740
C        15.0523    3.2268   12.7611   -0.0010    0.0003    0.0440
C        13.6434    3.2581   12.7682   -0.0014    0.0000   -0.0430
H        16.8920    4.3900   12.7428   -0.0000    0.0002    0.1324
H        11.8565    4.5005   12.7666   -0.0013   -0.0000   -0.1329
H        13.0902    2.3178   12.7803   -0.0020   -0.0000   -0.0808
H        15.5632    2.2628   12.7676   -0.0012    0.0004    0.0829
    57
stable frequency at    114.188 1/cm IR int. is 4.678 a.m.u.; force const. is 0.036 mDyne/Ang.
C        10.3153   10.6255   12.7541   -0.0006   -0.0000    0.0449
C        11.7250   11.0126   12.7436   -0.0007    0.0005    0.0328
C        13.4288   12.6432   12.7402   -0.0008    0.0011   -0.0461
C        13.8774   14.0347   12.7489    0.0003    0.0012   -0.0505
C        10.2838    9.2117   12.7538   -0.0005   -0.0001   -0.0039
C        11.6752    8.7628   12.7434   -0.0004    0.0001    0.0113
C        13.3062    7.0594   12.7390   -0.0004   -0.0002    0.0334
C        13.6935    5.6496   12.7468    0.0004   -0.0003    0.0226
N        12.1457   12.2786   12.7444   -0.0006    0.0007   -0.0030
N        12.0400    7.4796   12.7439   -0.0005   -0.0000    0.0105
C        15.2912   14.0035   12.7457    0.0004   -0.0003   -0.0247
C        15.6785   12.5937   12.7355   -0.0007   -0.0001   -0.0348
C        17.3094   10.8903   12.7347   -0.0007    0.0001   -0.0099
C        18.7010   10.4413   12.7487   -0.0009   -0.0001    0.0058
C        17.2595    8.6406   12.7332   -0.0007    0.0005   -0.0329
C        18.6693    9.0275   12.7476   -0.0007    0.0001   -0.0453
C        15.1073    5.6184   12.7412    0.0005    0.0010    0.0506
C        15.5559    7.0099   12.7320   -0.0005    0.0009    0.0459
N        16.9446   12.1735   12.7365   -0.0007   -0.0001   -0.0104
N        16.8391    7.3745   12.7331   -0.0005    0.0006    0.0028
N        12.4947    9.8701   12.7367   -0.0006    0.0004    0.0295
N        14.5362   11.8239   12.7312   -0.0010    0.0006   -0.0542
N        16.4900    9.7831   12.7252   -0.0008    0.0003   -0.0287
N        14.4485    7.8292   12.7301   -0.0006    0.0005    0.0533
C        13.1827   15.2473   12.7623    0.0024    0.0025   -0.0480
Zn       14.4924    9.8265   12.7264   -0.0012    0.0006    0.0001
C        16.0384   15.1842   12.7549    0.0025   -0.0021    0.0299
C        13.9324   16.4262   12.7720    0.0044    0.0009    0.0002
C        15.3413   16.3949   12.7682    0.0045   -0.0013    0.0466
H        12.0925   15.2624   12.7653    0.0024    0.0048   -0.0765
H        17.1282   15.1517   12.7524    0.0025   -0.0045    0.0628
H        15.8945   17.3351   12.7765    0.0059   -0.0025    0.0942
H        13.4215   17.3900   12.7831    0.0057    0.0015    0.0066
C        19.9141   11.1351   12.7666   -0.0015   -0.0008    0.0721
C        19.8494    8.2795   12.7644   -0.0007   -0.0008   -0.0814
C        21.0925   10.3847   12.7838   -0.0018   -0.0016    0.0584
C        21.0605    8.9757   12.7834   -0.0011   -0.0016   -0.0330
H        19.9307   12.2252   12.7677   -0.0016   -0.0009    0.1338
H        19.8161    7.1897   12.7642   -0.0007   -0.0008   -0.1413
H        22.0002    8.4217   12.7979   -0.0011   -0.0021   -0.0590
H        22.0566   10.8949   12.7993   -0.0023   -0.0022    0.1133
C         9.0706    8.5177   12.7651   -0.0007   -0.0009   -0.0685
C         9.1350   11.3733   12.7663   -0.0009   -0.0010    0.0784
C         7.8920    9.2680   12.7781   -0.0011   -0.0018   -0.0567
C         7.9240   10.6769   12.7780   -0.0010   -0.0018    0.0308
H         9.0541    7.4277   12.7650   -0.0004   -0.0009   -0.1276
H         9.1683   12.4630   12.7667   -0.0013   -0.0010    0.1356
H         6.9843   11.2312   12.7887   -0.0012   -0.0024    0.0547
H         6.9279    8.7580   12.7877   -0.0013   -0.0024   -0.1106
C        15.8019    4.4056   12.7477    0.0025    0.0022    0.0508
C        12.9464    4.4688   12.7613    0.0019   -0.0020   -0.0335
C        15.0523    3.2268   12.7611    0.0040    0.0008    0.0021
C        13.6434    3.2581   12.7682    0.0037   -0.0012   -0.0481
H        16.8920    4.3900   12.7428    0.0027    0.0045    0.0821
H        11.8565    4.5005   12.7666    0.0017   -0.0043   -0.0687
H        13.0902    2.3178   12.7803    0.0046   -0.0024   -0.0967
H        15.5632    2.2628   12.7676    0.0051    0.0014   -0.0020
    57
stable frequency at    114.253 1/cm IR int. is 4.678 a.m.u.; force const. is 0.036 mDyne/Ang.
C        10.3153   10.6255   12.7541    0.0003    0.0005   -0.0238
C        11.7250   11.0126   12.7436    0.0001   -0.0007   -0.0342
C        13.4288   12.6432   12.7402   -0.0000   -0.0007   -0.0103
C        13.8774   14.0347   12.7489    0.0000   -0.0008    0.0054
C        10.2838    9.2117   12.7538   -0.0016    0.0005   -0.0503
C        11.6752    8.7628   12.7434   -0.0015   -0.0009   -0.0459
C        13.3062    7.0594   12.7390   -0.0006   -0.0010    0.0331
C        13.6935    5.6496   12.7468    0.0004   -0.0010    0.0452
N        12.1457   12.2786   12.7444    0.0002   -0.0008   -0.0103
N        12.0400    7.4796   12.7439   -0.0010   -0.0009   -0.0027
C        15.2912   14.0035   12.7457   -0.0002   -0.0007   -0.0448
C        15.6785   12.5937   12.7355   -0.0005   -0.0007   -0.0327
C        17.3094   10.8903   12.7347   -0.0010   -0.0005    0.0461
C        18.7010   10.4413   12.7487   -0.0010    0.0003    0.0507
C        17.2595    8.6406   12.7332   -0.0000   -0.0004    0.0340
C        18.6693    9.0275   12.7476    0.0002    0.0003    0.0235
C        15.1073    5.6184   12.7412    0.0003   -0.0004   -0.0045
C        15.5559    7.0099   12.7320   -0.0003   -0.0003    0.0109
N        16.9446   12.1735   12.7365   -0.0006   -0.0004    0.0031
N        16.8391    7.3745   12.7331   -0.0001   -0.0003    0.0106
N        12.4947    9.8701   12.7367   -0.0009   -0.0012   -0.0538
N        14.5362   11.8239   12.7312   -0.0003   -0.0008   -0.0290
N        16.4900    9.7831   12.7252   -0.0006   -0.0006    0.0536
N        14.4485    7.8292   12.7301   -0.0006   -0.0008    0.0293
C        13.1827   15.2473   12.7623    0.0006   -0.0012    0.0709
Zn       14.4924    9.8265   12.7264   -0.0008   -0.0013   -0.0005
C        16.0384   15.1842   12.7549    0.0003   -0.0007   -0.0802
C        13.9324   16.4262   12.7720    0.0011   -0.0014    0.0577
C        15.3413   16.3949   12.7682    0.0008   -0.0010   -0.0323
H        12.0925   15.2624   12.7653    0.0008   -0.0013    0.1315
H        17.1282   15.1517   12.7524    0.0001   -0.0007   -0.1391
H        15.8945   17.3351   12.7765    0.0011   -0.0010   -0.0579
H        13.4215   17.3900   12.7831    0.0016   -0.0018    0.1119
C        19.9141   11.1351   12.7666   -0.0019    0.0018    0.0498
C        19.8494    8.2795   12.7644    0.0019    0.0017   -0.0322
C        21.0925   10.3847   12.7838   -0.0005    0.0031    0.0011
C        21.0605    8.9757   12.7834    0.0014    0.0031   -0.0476
H        19.9307   12.2252   12.7677   -0.0038    0.0018    0.0800
H        19.8161    7.1897   12.7642    0.0039    0.0016   -0.0666
H        22.0002    8.4217   12.7979    0.0027    0.0039   -0.0959
H        22.0566   10.8949   12.7993   -0.0008    0.0039   -0.0040
C         9.0706    8.5177   12.7651   -0.0032    0.0032   -0.0490
C         9.1350   11.3733   12.7663    0.0025    0.0030    0.0312
C         7.8920    9.2680   12.7781   -0.0013    0.0055   -0.0009
C         7.9240   10.6769   12.7780    0.0014    0.0054    0.0469
H         9.0541    7.4277   12.7650   -0.0061    0.0032   -0.0786
H         9.1683   12.4630   12.7667    0.0054    0.0029    0.0650
H         6.9843   11.2312   12.7887    0.0028    0.0070    0.0946
H         6.9279    8.7580   12.7877   -0.0021    0.0071    0.0045
C        15.8019    4.4056   12.7477    0.0014   -0.0001   -0.0699
C        12.9464    4.4688   12.7613    0.0022   -0.0018    0.0797
C        15.0523    3.2268   12.7611    0.0029   -0.0008   -0.0575
C        13.6434    3.2581   12.7682    0.0034   -0.0014    0.0316
H        16.8920    4.3900   12.7428    0.0012    0.0009   -0.1300
H        11.8565    4.5005   12.7666    0.0024   -0.0028    0.1378
H        13.0902    2.3178   12.7803    0.0046   -0.0019    0.0562
H        15.5632    2.2628   12.7676    0.0037   -0.0008   -0.1119
    57
stable frequency at    117.083 1/cm IR int. is 5.467 a.m.u.; force const. is 0.044 mDyne/Ang.
C        10.3153   10.6255   12.7541   -0.0212   -0.0016   -0.0030
C        11.7250   11.0126   12.7436   -0.0202    0.0101   -0.0026
C        13.4288   12.6432   12.7402   -0.0150    0.0184    0.0001
C        13.8774   14.0347   12.7489    0.0074    0.0193   -0.0001
C        10.2838    9.2117   12.7538   -0.0107   -0.0036   -0.0012
C        11.6752    8.7628   12.7434   -0.0109    0.0018   -0.0017
C        13.3062    7.0594   12.7390   -0.0123   -0.0052   -0.0026
C        13.6935    5.6496   12.7468    0.0076   -0.0069   -0.0024
N        12.1457   12.2786   12.7444   -0.0161    0.0129   -0.0018
N        12.0400    7.4796   12.7439   -0.0107   -0.0014   -0.0019
C        15.2912   14.0035   12.7457    0.0075   -0.0069   -0.0004
C        15.6785   12.5937   12.7355   -0.0123   -0.0052    0.0002
C        17.3094   10.8903   12.7347   -0.0109    0.0018   -0.0001
C        18.7010   10.4413   12.7487   -0.0106   -0.0036   -0.0013
C        17.2595    8.6406   12.7332   -0.0202    0.0101    0.0017
C        18.6693    9.0275   12.7476   -0.0212   -0.0016    0.0020
C        15.1073    5.6184   12.7412    0.0074    0.0193   -0.0040
C        15.5559    7.0099   12.7320   -0.0151    0.0184   -0.0033
N        16.9446   12.1735   12.7365   -0.0106   -0.0014   -0.0008
N        16.8391    7.3745   12.7331   -0.0161    0.0129   -0.0009
N        12.4947    9.8701   12.7367   -0.0188    0.0082   -0.0020
N        14.5362   11.8239   12.7312   -0.0192    0.0080    0.0013
N        16.4900    9.7831   12.7252   -0.0187    0.0083    0.0022
N        14.4485    7.8292   12.7301   -0.0192    0.0080   -0.0029
C        13.1827   15.2473   12.7623    0.0506    0.0459    0.0003
Zn       14.4924    9.8265   12.7264   -0.0280    0.0119    0.0036
C        16.0384   15.1842   12.7549    0.0483   -0.0342   -0.0006
C        13.9324   16.4262   12.7720    0.0898    0.0233    0.0005
C        15.3413   16.3949   12.7682    0.0889   -0.0130    0.0001
H        12.0925   15.2624   12.7653    0.0513    0.0890    0.0009
H        17.1282   15.1517   12.7524    0.0471   -0.0762   -0.0009
H        15.8945   17.3351   12.7765    0.1155   -0.0290    0.0004
H        13.4215   17.3900   12.7831    0.1162    0.0376    0.0013
C        19.9141   11.1351   12.7666   -0.0015   -0.0194   -0.0050
C        19.8494    8.2795   12.7644   -0.0340   -0.0196    0.0049
C        21.0925   10.3847   12.7838   -0.0110   -0.0357   -0.0031
C        21.0605    8.9757   12.7834   -0.0258   -0.0354    0.0027
H        19.9307   12.2252   12.7677    0.0153   -0.0197   -0.0088
H        19.8161    7.1897   12.7642   -0.0515   -0.0190    0.0087
H        22.0002    8.4217   12.7979   -0.0326   -0.0465    0.0051
H        22.0566   10.8949   12.7993   -0.0051   -0.0465   -0.0055
C         9.0706    8.5177   12.7651   -0.0015   -0.0194    0.0023
C         9.1350   11.3733   12.7663   -0.0339   -0.0195   -0.0031
C         7.8920    9.2680   12.7781   -0.0110   -0.0356    0.0034
C         7.9240   10.6769   12.7780   -0.0257   -0.0354    0.0002
H         9.0541    7.4277   12.7650    0.0151   -0.0196    0.0044
H         9.1683   12.4630   12.7667   -0.0513   -0.0189   -0.0050
H         6.9843   11.2312   12.7887   -0.0325   -0.0464    0.0008
H         6.9279    8.7580   12.7877   -0.0052   -0.0464    0.0065
C        15.8019    4.4056   12.7477    0.0506    0.0459   -0.0032
C        12.9464    4.4688   12.7613    0.0484   -0.0342    0.0015
C        15.0523    3.2268   12.7611    0.0898    0.0233    0.0007
C        13.6434    3.2581   12.7682    0.0890   -0.0130    0.0034
H        16.8920    4.3900   12.7428    0.0513    0.0891   -0.0047
H        11.8565    4.5005   12.7666    0.0472   -0.0762    0.0037
H        13.0902    2.3178   12.7803    0.1156   -0.0289    0.0069
H        15.5632    2.2628   12.7676    0.1163    0.0377    0.0020
    57
stable frequency at    117.105 1/cm IR int. is 5.464 a.m.u.; force const. is 0.044 mDyne/Ang.
C        10.3153   10.6255   12.7541   -0.0069   -0.0075   -0.0010
C        11.7250   11.0126   12.7436   -0.0052    0.0123   -0.0016
C        13.4288   12.6432   12.7402    0.0018    0.0109   -0.0002
C        13.8774   14.0347   12.7489   -0.0035    0.0107    0.0010
C        10.2838    9.2117   12.7538    0.0193   -0.0074   -0.0023
C        11.6752    8.7628   12.7434    0.0184    0.0151   -0.0020
C        13.3062    7.0594   12.7390    0.0101    0.0202    0.0032
C        13.6935    5.6496   12.7468   -0.0016    0.0213    0.0038
N        12.1457   12.2786   12.7444   -0.0014    0.0107   -0.0002
N        12.0400    7.4796   12.7439    0.0129    0.0161    0.0009
C        15.2912   14.0035   12.7457   -0.0016    0.0212   -0.0019
C        15.6785   12.5937   12.7355    0.0101    0.0202   -0.0016
C        17.3094   10.8903   12.7347    0.0184    0.0151    0.0018
C        18.7010   10.4413   12.7487    0.0193   -0.0075    0.0020
C        17.2595    8.6406   12.7332   -0.0052    0.0123    0.0017
C        18.6693    9.0275   12.7476   -0.0069   -0.0076    0.0010
C        15.1073    5.6184   12.7412   -0.0035    0.0107    0.0017
C        15.5559    7.0099   12.7320    0.0018    0.0109    0.0023
N        16.9446   12.1735   12.7365    0.0129    0.0161   -0.0001
N        16.8391    7.3745   12.7331   -0.0014    0.0107    0.0016
N        12.4947    9.8701   12.7367    0.0080    0.0192   -0.0029
N        14.5362   11.8239   12.7312    0.0082    0.0188   -0.0017
N        16.4900    9.7831   12.7252    0.0080    0.0192    0.0020
N        14.4485    7.8292   12.7301    0.0082    0.0188    0.0032
C        13.1827   15.2473   12.7623   -0.0193    0.0015    0.0042
Zn       14.4924    9.8265   12.7264    0.0119    0.0280   -0.0015
C        16.0384   15.1842   12.7549   -0.0195    0.0339   -0.0042
C        13.9324   16.4262   12.7720   -0.0356    0.0110    0.0029
C        15.3413   16.3949   12.7682   -0.0354    0.0258   -0.0021
H        12.0925   15.2624   12.7653   -0.0196   -0.0152    0.0075
H        17.1282   15.1517   12.7524   -0.0190    0.0514   -0.0075
H        15.8945   17.3351   12.7765   -0.0464    0.0326   -0.0040
H        13.4215   17.3900   12.7831   -0.0464    0.0052    0.0052
C        19.9141   11.1351   12.7666    0.0459   -0.0507    0.0018
C        19.8494    8.2795   12.7644   -0.0342   -0.0484   -0.0013
C        21.0925   10.3847   12.7838    0.0233   -0.0899   -0.0004
C        21.0605    8.9757   12.7834   -0.0130   -0.0890   -0.0021
H        19.9307   12.2252   12.7677    0.0891   -0.0514    0.0031
H        19.8161    7.1897   12.7642   -0.0763   -0.0471   -0.0026
H        22.0002    8.4217   12.7979   -0.0290   -0.1157   -0.0038
H        22.0566   10.8949   12.7993    0.0377   -0.1164   -0.0007
C         9.0706    8.5177   12.7651    0.0459   -0.0507   -0.0024
C         9.1350   11.3733   12.7663   -0.0342   -0.0483    0.0015
C         7.8920    9.2680   12.7781    0.0233   -0.0899   -0.0002
C         7.9240   10.6769   12.7780   -0.0131   -0.0890    0.0020
H         9.0541    7.4277   12.7650    0.0890   -0.0514   -0.0038
H         9.1683   12.4630   12.7667   -0.0763   -0.0471    0.0033
H         6.9843   11.2312   12.7887   -0.0290   -0.1156    0.0039
H         6.9279    8.7580   12.7877    0.0376   -0.1163   -0.0002
C        15.8019    4.4056   12.7477   -0.0193    0.0016   -0.0026
C        12.9464    4.4688   12.7613   -0.0195    0.0339    0.0040
C        15.0523    3.2268   12.7611   -0.0356    0.0110   -0.0038
C        13.6434    3.2581   12.7682   -0.0353    0.0257    0.0001
H        16.8920    4.3900   12.7428   -0.0196   -0.0151   -0.0054
H        11.8565    4.5005   12.7666   -0.0189    0.0513    0.0064
H        13.0902    2.3178   12.7803   -0.0463    0.0325   -0.0004
H        15.5632    2.2628   12.7676   -0.0463    0.0052   -0.0076
    57
stable frequency at    118.909 1/cm IR int. is 14.102 a.m.u.; force const. is 0.117 mDyne/Ang.
C        10.3153   10.6255   12.7541   -0.0005    0.0000    0.0342
C        11.7250   11.0126   12.7436   -0.0006    0.0001    0.0294
C        13.4288   12.6432   12.7402   -0.0005    0.0004    0.0295
C        13.8774   14.0347   12.7489    0.0003    0.0004    0.0343
C        10.2838    9.2117   12.7538   -0.0006   -0.0000    0.0341
C        11.6752    8.7628   12.7434   -0.0007   -0.0002    0.0293
C        13.3062    7.0594   12.7390   -0.0006   -0.0005    0.0295
C        13.6935    5.6496   12.7468    0.0004   -0.0006    0.0344
N        12.1457   12.2786   12.7444   -0.0005    0.0002    0.0366
N        12.0400    7.4796   12.7439   -0.0006   -0.0003    0.0367
C        15.2912   14.0035   12.7457    0.0003   -0.0007    0.0350
C        15.6785   12.5937   12.7355   -0.0006   -0.0005    0.0300
C        17.3094   10.8903   12.7347   -0.0007   -0.0002    0.0289
C        18.7010   10.4413   12.7487   -0.0007   -0.0001    0.0335
C        17.2595    8.6406   12.7332   -0.0007    0.0003    0.0292
C        18.6693    9.0275   12.7476   -0.0008    0.0000    0.0340
C        15.1073    5.6184   12.7412    0.0004    0.0007    0.0344
C        15.5559    7.0099   12.7320   -0.0006    0.0006    0.0295
N        16.9446   12.1735   12.7365   -0.0006   -0.0003    0.0367
N        16.8391    7.3745   12.7331   -0.0007    0.0004    0.0366
N        12.4947    9.8701   12.7367   -0.0008   -0.0001    0.0124
N        14.5362   11.8239   12.7312   -0.0008    0.0000    0.0128
N        16.4900    9.7831   12.7252   -0.0007    0.0001    0.0120
N        14.4485    7.8292   12.7301   -0.0009    0.0000    0.0126
C        13.1827   15.2473   12.7623    0.0020    0.0018    0.0067
Zn       14.4924    9.8265   12.7264   -0.0014    0.0001   -0.0953
C        16.0384   15.1842   12.7549    0.0019   -0.0016    0.0087
C        13.9324   16.4262   12.7720    0.0035    0.0012   -0.0309
C        15.3413   16.3949   12.7682    0.0035   -0.0003   -0.0297
H        12.0925   15.2624   12.7653    0.0020    0.0036    0.0040
H        17.1282   15.1517   12.7524    0.0019   -0.0033    0.0077
H        15.8945   17.3351   12.7765    0.0046   -0.0007   -0.0618
H        13.4215   17.3900   12.7831    0.0046    0.0022   -0.0641
C        19.9141   11.1351   12.7666   -0.0003   -0.0001    0.0066
C        19.8494    8.2795   12.7644   -0.0006   -0.0001    0.0081
C        21.0925   10.3847   12.7838    0.0002   -0.0002   -0.0304
C        21.0605    8.9757   12.7834    0.0000   -0.0002   -0.0295
H        19.9307   12.2252   12.7677   -0.0001   -0.0001    0.0042
H        19.8161    7.1897   12.7642   -0.0007   -0.0001    0.0069
H        22.0002    8.4217   12.7979    0.0004   -0.0003   -0.0610
H        22.0566   10.8949   12.7993    0.0008   -0.0003   -0.0628
C         9.0706    8.5177   12.7651   -0.0011    0.0002    0.0073
C         9.1350   11.3733   12.7663   -0.0007    0.0002    0.0077
C         7.8920    9.2680   12.7781   -0.0014    0.0004   -0.0303
C         7.9240   10.6769   12.7780   -0.0012    0.0004   -0.0300
H         9.0541    7.4277   12.7650   -0.0013    0.0002    0.0054
H         9.1683   12.4630   12.7667   -0.0006    0.0002    0.0061
H         6.9843   11.2312   12.7887   -0.0015    0.0005   -0.0621
H         6.9279    8.7580   12.7877   -0.0018    0.0005   -0.0627
C        15.8019    4.4056   12.7477    0.0023    0.0017    0.0075
C        12.9464    4.4688   12.7613    0.0023   -0.0021    0.0076
C        15.0523    3.2268   12.7611    0.0041    0.0003   -0.0303
C        13.6434    3.2581   12.7682    0.0040   -0.0014   -0.0302
H        16.8920    4.3900   12.7428    0.0024    0.0038    0.0057
H        11.8565    4.5005   12.7666    0.0022   -0.0042    0.0059
H        13.0902    2.3178   12.7803    0.0051   -0.0025   -0.0625
H        15.5632    2.2628   12.7676    0.0052    0.0007   -0.0628
    57
stable frequency at    122.939 1/cm IR int. is 7.933 a.m.u.; force const. is 0.071 mDyne/Ang.
C        10.3153   10.6255   12.7541   -0.0004    0.0000   -0.0589
C        11.7250   11.0126   12.7436   -0.0004    0.0000   -0.0515
C        13.4288   12.6432   12.7402   -0.0001   -0.0000    0.0510
C        13.8774   14.0347   12.7489    0.0002   -0.0001    0.0585
C        10.2838    9.2117   12.7538   -0.0005    0.0000   -0.0591
C        11.6752    8.7628   12.7434   -0.0004   -0.0000   -0.0515
C        13.3062    7.0594   12.7390    0.0000   -0.0000    0.0517
C        13.6935    5.6496   12.7468    0.0002   -0.0000    0.0590
N        12.1457   12.2786   12.7444   -0.0003    0.0000   -0.0004
N        12.0400    7.4796   12.7439   -0.0001    0.0000    0.0001
C        15.2912   14.0035   12.7457    0.0002   -0.0005    0.0590
C        15.6785   12.5937   12.7355   -0.0002   -0.0005    0.0514
C        17.3094   10.8903   12.7347   -0.0002   -0.0002   -0.0519
C        18.7010   10.4413   12.7487   -0.0001    0.0001   -0.0593
C        17.2595    8.6406   12.7332    0.0002   -0.0001   -0.0521
C        18.6693    9.0275   12.7476    0.0003    0.0002   -0.0595
C        15.1073    5.6184   12.7412    0.0002    0.0001    0.0591
C        15.5559    7.0099   12.7320    0.0001    0.0000    0.0516
N        16.9446   12.1735   12.7365   -0.0002   -0.0004   -0.0001
N        16.8391    7.3745   12.7331    0.0002   -0.0001   -0.0004
N        12.4947    9.8701   12.7367   -0.0005    0.0000   -0.0629
N        14.5362   11.8239   12.7312   -0.0002   -0.0003    0.0628
N        16.4900    9.7831   12.7252   -0.0000   -0.0002   -0.0636
N        14.4485    7.8292   12.7301    0.0001    0.0000    0.0634
C        13.1827   15.2473   12.7623    0.0009    0.0008    0.0151
Zn       14.4924    9.8265   12.7264   -0.0002   -0.0002    0.0004
C        16.0384   15.1842   12.7549    0.0008   -0.0006    0.0166
C        13.9324   16.4262   12.7720    0.0014    0.0009   -0.0342
C        15.3413   16.3949   12.7682    0.0014    0.0002   -0.0333
H        12.0925   15.2624   12.7653    0.0009    0.0017    0.0076
H        17.1282   15.1517   12.7524    0.0008   -0.0013    0.0103
H        15.8945   17.3351   12.7765    0.0018    0.0004   -0.0768
H        13.4215   17.3900   12.7831    0.0018    0.0016   -0.0785
C        19.9141   11.1351   12.7666   -0.0011    0.0007   -0.0156
C        19.8494    8.2795   12.7644   -0.0001    0.0006   -0.0161
C        21.0925   10.3847   12.7838   -0.0016    0.0011    0.0345
C        21.0605    8.9757   12.7834   -0.0011    0.0011    0.0342
H        19.9307   12.2252   12.7677   -0.0018    0.0007   -0.0085
H        19.8161    7.1897   12.7642    0.0003    0.0006   -0.0094
H        22.0002    8.4217   12.7979   -0.0016    0.0014    0.0784
H        22.0566   10.8949   12.7993   -0.0025    0.0014    0.0791
C         9.0706    8.5177   12.7651   -0.0001    0.0001   -0.0163
C         9.1350   11.3733   12.7663    0.0000    0.0001   -0.0154
C         7.8920    9.2680   12.7781    0.0005    0.0001    0.0337
C         7.9240   10.6769   12.7780    0.0005    0.0001    0.0343
H         9.0541    7.4277   12.7650   -0.0001    0.0001   -0.0098
H         9.1683   12.4630   12.7667    0.0002    0.0001   -0.0081
H         6.9843   11.2312   12.7887    0.0010    0.0001    0.0787
H         6.9279    8.7580   12.7877    0.0009    0.0001    0.0777
C        15.8019    4.4056   12.7477    0.0003   -0.0001    0.0161
C        12.9464    4.4688   12.7613    0.0003   -0.0006    0.0157
C        15.0523    3.2268   12.7611    0.0004   -0.0007   -0.0339
C        13.6434    3.2581   12.7682    0.0004   -0.0009   -0.0341
H        16.8920    4.3900   12.7428    0.0003    0.0002    0.0093
H        11.8565    4.5005   12.7666    0.0002   -0.0011    0.0087
H        13.0902    2.3178   12.7803    0.0003   -0.0014   -0.0783
H        15.5632    2.2628   12.7676    0.0003   -0.0010   -0.0780
    57
stable frequency at    145.747 1/cm IR int. is 8.306 a.m.u.; force const. is 0.104 mDyne/Ang.
C        10.3153   10.6255   12.7541    0.0462   -0.0020   -0.0001
C        11.7250   11.0126   12.7436    0.0396    0.0037    0.0001
C        13.4288   12.6432   12.7402    0.0054    0.0395    0.0001
C        13.8774   14.0347   12.7489    0.0002    0.0463    0.0003
C        10.2838    9.2117   12.7538    0.0463   -0.0002   -0.0003
C        11.6752    8.7628   12.7434    0.0395   -0.0054   -0.0002
C        13.3062    7.0594   12.7390    0.0037   -0.0396   -0.0003
C        13.6935    5.6496   12.7468   -0.0020   -0.0462   -0.0000
N        12.1457   12.2786   12.7444    0.0137    0.0131    0.0003
N        12.0400    7.4796   12.7439    0.0131   -0.0137   -0.0003
C        15.2912   14.0035   12.7457    0.0020    0.0462    0.0001
C        15.6785   12.5937   12.7355   -0.0037    0.0396   -0.0002
C        17.3094   10.8903   12.7347   -0.0395    0.0054    0.0002
C        18.7010   10.4413   12.7487   -0.0463    0.0002    0.0000
C        17.2595    8.6406   12.7332   -0.0396   -0.0037    0.0007
C        18.6693    9.0275   12.7476   -0.0462    0.0020    0.0004
C        15.1073    5.6184   12.7412   -0.0002   -0.0463    0.0001
C        15.5559    7.0099   12.7320   -0.0054   -0.0395    0.0001
N        16.9446   12.1735   12.7365   -0.0131    0.0137   -0.0002
N        16.8391    7.3745   12.7331   -0.0137   -0.0131    0.0006
N        12.4947    9.8701   12.7367    0.0416   -0.0009    0.0000
N        14.5362   11.8239   12.7312    0.0009    0.0416   -0.0003
N        16.4900    9.7831   12.7252   -0.0416    0.0009    0.0008
N        14.4485    7.8292   12.7301   -0.0009   -0.0416   -0.0002
C        13.1827   15.2473   12.7623    0.0026    0.0492    0.0004
Zn       14.4924    9.8265   12.7264   -0.0000   -0.0000    0.0000
C        16.0384   15.1842   12.7549    0.0001    0.0491    0.0003
C        13.9324   16.4262   12.7720    0.0018    0.0510    0.0005
C        15.3413   16.3949   12.7682    0.0013    0.0510    0.0005
H        12.0925   15.2624   12.7653    0.0026    0.0520    0.0005
H        17.1282   15.1517   12.7524    0.0003    0.0512    0.0003
H        15.8945   17.3351   12.7765    0.0015    0.0511    0.0009
H        13.4215   17.3900   12.7831    0.0011    0.0506    0.0003
C        19.9141   11.1351   12.7666   -0.0492    0.0026   -0.0006
C        19.8494    8.2795   12.7644   -0.0491    0.0001   -0.0001
C        21.0925   10.3847   12.7838   -0.0510    0.0018   -0.0010
C        21.0605    8.9757   12.7834   -0.0509    0.0013   -0.0009
H        19.9307   12.2252   12.7677   -0.0520    0.0026   -0.0007
H        19.8161    7.1897   12.7642   -0.0512    0.0003   -0.0001
H        22.0002    8.4217   12.7979   -0.0510    0.0015   -0.0018
H        22.0566   10.8949   12.7993   -0.0506    0.0011   -0.0011
C         9.0706    8.5177   12.7651    0.0493   -0.0026   -0.0004
C         9.1350   11.3733   12.7663    0.0491   -0.0001   -0.0002
C         7.8920    9.2680   12.7781    0.0510   -0.0018   -0.0005
C         7.9240   10.6769   12.7780    0.0510   -0.0013   -0.0005
H         9.0541    7.4277   12.7650    0.0521   -0.0026   -0.0005
H         9.1683   12.4630   12.7667    0.0512   -0.0003   -0.0002
H         6.9843   11.2312   12.7887    0.0511   -0.0015   -0.0010
H         6.9279    8.7580   12.7877    0.0506   -0.0012   -0.0004
C        15.8019    4.4056   12.7477   -0.0026   -0.0492    0.0001
C        12.9464    4.4688   12.7613   -0.0001   -0.0491    0.0003
C        15.0523    3.2268   12.7611   -0.0018   -0.0510    0.0003
C        13.6434    3.2581   12.7682   -0.0013   -0.0509    0.0006
H        16.8920    4.3900   12.7428   -0.0026   -0.0521   -0.0001
H        11.8565    4.5005   12.7666   -0.0003   -0.0512    0.0004
H        13.0902    2.3178   12.7803   -0.0015   -0.0510    0.0013
H        15.5632    2.2628   12.7676   -0.0012   -0.0506    0.0002
    57
stable frequency at    205.927 1/cm IR int. is 5.604 a.m.u.; force const. is 0.140 mDyne/Ang.
C        10.3153   10.6255   12.7541    0.0086   -0.0418   -0.0000
C        11.7250   11.0126   12.7436    0.0001   -0.0425   -0.0003
C        13.4288   12.6432   12.7402   -0.0425    0.0017   -0.0002
C        13.8774   14.0347   12.7489   -0.0414    0.0101   -0.0005
C        10.2838    9.2117   12.7538   -0.0101   -0.0414    0.0002
C        11.6752    8.7628   12.7434   -0.0017   -0.0425    0.0002
C        13.3062    7.0594   12.7390    0.0425    0.0001   -0.0000
C        13.6935    5.6496   12.7468    0.0418    0.0086    0.0006
N        12.1457   12.2786   12.7444   -0.0314   -0.0301   -0.0005
N        12.0400    7.4796   12.7439    0.0301   -0.0314    0.0004
C        15.2912   14.0035   12.7457   -0.0418   -0.0086   -0.0006
C        15.6785   12.5937   12.7355   -0.0426   -0.0001    0.0003
C        17.3094   10.8903   12.7347    0.0017    0.0425    0.0007
C        18.7010   10.4413   12.7487    0.0101    0.0414    0.0001
C        17.2595    8.6406   12.7332   -0.0001    0.0425   -0.0007
C        18.6693    9.0275   12.7476   -0.0086    0.0418   -0.0003
C        15.1073    5.6184   12.7412    0.0414   -0.0101    0.0008
C        15.5559    7.0099   12.7320    0.0425   -0.0017   -0.0004
N        16.9446   12.1735   12.7365   -0.0301    0.0314    0.0010
N        16.8391    7.3745   12.7331    0.0314    0.0301   -0.0010
N        12.4947    9.8701   12.7367   -0.0008   -0.0399   -0.0001
N        14.5362   11.8239   12.7312   -0.0399    0.0007    0.0005
N        16.4900    9.7831   12.7252    0.0008    0.0399    0.0001
N        14.4485    7.8292   12.7301    0.0399   -0.0008   -0.0010
C        13.1827   15.2473   12.7623    0.0016    0.0388    0.0002
Zn       14.4924    9.8265   12.7264    0.0000   -0.0000    0.0001
C        16.0384   15.1842   12.7549   -0.0002   -0.0392   -0.0008
C        13.9324   16.4262   12.7720    0.0429    0.0161    0.0006
C        15.3413   16.3949   12.7682    0.0421   -0.0184    0.0000
H        12.0925   15.2624   12.7653    0.0021    0.0862    0.0007
H        17.1282   15.1517   12.7524   -0.0018   -0.0867   -0.0014
H        15.8945   17.3351   12.7765    0.0686   -0.0342    0.0002
H        13.4215   17.3900   12.7831    0.0697    0.0304    0.0015
C        19.9141   11.1351   12.7666    0.0388   -0.0016   -0.0004
C        19.8494    8.2795   12.7644   -0.0392    0.0002    0.0003
C        21.0925   10.3847   12.7838    0.0161   -0.0429   -0.0005
C        21.0605    8.9757   12.7834   -0.0185   -0.0421    0.0006
H        19.9307   12.2252   12.7677    0.0862   -0.0022   -0.0005
H        19.8161    7.1897   12.7642   -0.0867    0.0018    0.0005
H        22.0002    8.4217   12.7979   -0.0342   -0.0686    0.0012
H        22.0566   10.8949   12.7993    0.0304   -0.0697   -0.0011
C         9.0706    8.5177   12.7651   -0.0387    0.0016    0.0000
C         9.1350   11.3733   12.7663    0.0392   -0.0002    0.0001
C         7.8920    9.2680   12.7781   -0.0161    0.0429   -0.0002
C         7.9240   10.6769   12.7780    0.0184    0.0421    0.0001
H         9.0541    7.4277   12.7650   -0.0862    0.0021    0.0002
H         9.1683   12.4630   12.7667    0.0867   -0.0018    0.0000
H         6.9843   11.2312   12.7887    0.0342    0.0686    0.0002
H         6.9279    8.7580   12.7877   -0.0304    0.0697   -0.0006
C        15.8019    4.4056   12.7477   -0.0016   -0.0387    0.0010
C        12.9464    4.4688   12.7613    0.0002    0.0392   -0.0000
C        15.0523    3.2268   12.7611   -0.0429   -0.0161   -0.0001
C        13.6434    3.2581   12.7682   -0.0422    0.0184   -0.0007
H        16.8920    4.3900   12.7428   -0.0021   -0.0862    0.0016
H        11.8565    4.5005   12.7666    0.0017    0.0866   -0.0005
H        13.0902    2.3178   12.7803   -0.0686    0.0342   -0.0019
H        15.5632    2.2628   12.7676   -0.0697   -0.0304   -0.0006
    57
stable frequency at    214.805 1/cm IR int. is 6.298 a.m.u.; force const. is 0.171 mDyne/Ang.
C        10.3153   10.6255   12.7541    0.0004   -0.0017    0.0069
C        11.7250   11.0126   12.7436    0.0010   -0.0024    0.0423
C        13.4288   12.6432   12.7402    0.0016   -0.0013    0.0423
C        13.8774   14.0347   12.7489    0.0010   -0.0006    0.0064
C        10.2838    9.2117   12.7538   -0.0008   -0.0017   -0.0071
C        11.6752    8.7628   12.7434   -0.0014   -0.0024   -0.0423
C        13.3062    7.0594   12.7390   -0.0017   -0.0010   -0.0423
C        13.6935    5.6496   12.7468   -0.0009   -0.0003   -0.0064
N        12.1457   12.2786   12.7444    0.0021   -0.0027    0.0890
N        12.0400    7.4796   12.7439   -0.0024   -0.0026   -0.0889
C        15.2912   14.0035   12.7457    0.0010    0.0003   -0.0075
C        15.6785   12.5937   12.7355    0.0016    0.0010   -0.0421
C        17.3094   10.8903   12.7347    0.0013    0.0023   -0.0420
C        18.7010   10.4413   12.7487    0.0008    0.0017   -0.0070
C        17.2595    8.6406   12.7332   -0.0010    0.0023    0.0421
C        18.6693    9.0275   12.7476   -0.0004    0.0017    0.0067
C        15.1073    5.6184   12.7412   -0.0009    0.0006    0.0074
C        15.5559    7.0099   12.7320   -0.0015    0.0012    0.0421
N        16.9446   12.1735   12.7365    0.0021    0.0025   -0.0888
N        16.8391    7.3745   12.7331   -0.0018    0.0026    0.0888
N        12.4947    9.8701   12.7367   -0.0002   -0.0028    0.0002
N        14.5362   11.8239   12.7312    0.0021   -0.0001    0.0007
N        16.4900    9.7831   12.7252    0.0002    0.0026    0.0003
N        14.4485    7.8292   12.7301   -0.0020    0.0002   -0.0007
C        13.1827   15.2473   12.7623    0.0009   -0.0001   -0.0408
Zn       14.4924    9.8265   12.7264   -0.0000    0.0003   -0.0000
C        16.0384   15.1842   12.7549    0.0011   -0.0001    0.0404
C        13.9324   16.4262   12.7720    0.0007    0.0000   -0.0369
C        15.3413   16.3949   12.7682    0.0009   -0.0002    0.0373
H        12.0925   15.2624   12.7653    0.0008    0.0002   -0.0726
H        17.1282   15.1517   12.7524    0.0011   -0.0005    0.0725
H        15.8945   17.3351   12.7765    0.0007   -0.0004    0.0766
H        13.4215   17.3900   12.7831    0.0003    0.0002   -0.0752
C        19.9141   11.1351   12.7666    0.0007    0.0008    0.0405
C        19.8494    8.2795   12.7644   -0.0004    0.0009   -0.0408
C        21.0925   10.3847   12.7838    0.0001   -0.0002    0.0373
C        21.0605    8.9757   12.7834    0.0001   -0.0001   -0.0369
H        19.9307   12.2252   12.7677    0.0012    0.0008    0.0723
H        19.8161    7.1897   12.7642   -0.0008    0.0009   -0.0729
H        22.0002    8.4217   12.7979    0.0002   -0.0009   -0.0752
H        22.0566   10.8949   12.7993   -0.0001   -0.0010    0.0762
C         9.0706    8.5177   12.7651   -0.0008   -0.0011    0.0404
C         9.1350   11.3733   12.7663    0.0004   -0.0011   -0.0408
C         7.8920    9.2680   12.7781   -0.0003   -0.0002    0.0373
C         7.9240   10.6769   12.7780    0.0000   -0.0002   -0.0370
H         9.0541    7.4277   12.7650   -0.0012   -0.0011    0.0722
H         9.1683   12.4630   12.7667    0.0008   -0.0011   -0.0729
H         6.9843   11.2312   12.7887    0.0001    0.0005   -0.0755
H         6.9279    8.7580   12.7877   -0.0003    0.0005    0.0764
C        15.8019    4.4056   12.7477   -0.0011    0.0002   -0.0402
C        12.9464    4.4688   12.7613   -0.0007    0.0002    0.0410
C        15.0523    3.2268   12.7611   -0.0010    0.0001   -0.0375
C        13.6434    3.2581   12.7682   -0.0006    0.0002    0.0368
H        16.8920    4.3900   12.7428   -0.0013   -0.0002   -0.0720
H        11.8565    4.5005   12.7666   -0.0005    0.0006    0.0731
H        13.0902    2.3178   12.7803   -0.0001    0.0004    0.0749
H        15.5632    2.2628   12.7676   -0.0009   -0.0001   -0.0769
    57
stable frequency at    219.260 1/cm IR int. is 6.514 a.m.u.; force const. is 0.185 mDyne/Ang.
C        10.3153   10.6255   12.7541   -0.0003    0.0008   -0.0202
C        11.7250   11.0126   12.7436    0.0001    0.0008    0.0171
C        13.4288   12.6432   12.7402    0.0006   -0.0001    0.0198
C        13.8774   14.0347   12.7489    0.0002    0.0006   -0.0772
C        10.2838    9.2117   12.7538    0.0000    0.0008   -0.0228
C        11.6752    8.7628   12.7434   -0.0000    0.0009   -0.0080
C        13.3062    7.0594   12.7390   -0.0009    0.0000   -0.0125
C        13.6935    5.6496   12.7468   -0.0004    0.0007    0.0776
N        12.1457   12.2786   12.7444    0.0003    0.0007    0.0130
N        12.0400    7.4796   12.7439   -0.0006    0.0007   -0.0071
C        15.2912   14.0035   12.7457    0.0002    0.0009   -0.0779
C        15.6785   12.5937   12.7355    0.0003    0.0002    0.0132
C        17.3094   10.8903   12.7347    0.0000    0.0007    0.0085
C        18.7010   10.4413   12.7487   -0.0003    0.0004    0.0229
C        17.2595    8.6406   12.7332   -0.0003    0.0007   -0.0176
C        18.6693    9.0275   12.7476   -0.0006    0.0004    0.0201
C        15.1073    5.6184   12.7412   -0.0003    0.0010    0.0768
C        15.5559    7.0099   12.7320   -0.0006    0.0003   -0.0201
N        16.9446   12.1735   12.7365    0.0004    0.0007    0.0082
N        16.8391    7.3745   12.7331   -0.0008    0.0008   -0.0141
N        12.4947    9.8701   12.7367    0.0003    0.0008    0.0294
N        14.5362   11.8239   12.7312    0.0006   -0.0009    0.1062
N        16.4900    9.7831   12.7252    0.0001    0.0009   -0.0294
N        14.4485    7.8292   12.7301   -0.0011   -0.0006   -0.1055
C        13.1827   15.2473   12.7623   -0.0000    0.0001   -0.0483
Zn       14.4924    9.8265   12.7264    0.0006   -0.0024   -0.0001
C        16.0384   15.1842   12.7549    0.0000    0.0008   -0.0448
C        13.9324   16.4262   12.7720   -0.0001   -0.0006    0.0472
C        15.3413   16.3949   12.7682   -0.0001   -0.0003    0.0506
H        12.0925   15.2624   12.7653   -0.0000   -0.0002   -0.0510
H        17.1282   15.1517   12.7524    0.0000    0.0010   -0.0446
H        15.8945   17.3351   12.7765   -0.0001   -0.0009    0.1312
H        13.4215   17.3900   12.7831   -0.0001   -0.0016    0.1235
C        19.9141   11.1351   12.7666   -0.0000    0.0004    0.0058
C        19.8494    8.2795   12.7644   -0.0007    0.0003    0.0200
C        21.0925   10.3847   12.7838    0.0002    0.0002   -0.0208
C        21.0605    8.9757   12.7834   -0.0003    0.0002   -0.0063
H        19.9307   12.2252   12.7677    0.0001    0.0004   -0.0004
H        19.8161    7.1897   12.7642   -0.0009    0.0003    0.0270
H        22.0002    8.4217   12.7979   -0.0001    0.0001   -0.0195
H        22.0566   10.8949   12.7993    0.0008    0.0001   -0.0512
C         9.0706    8.5177   12.7651    0.0007    0.0001   -0.0063
C         9.1350   11.3733   12.7663   -0.0008    0.0001   -0.0195
C         7.8920    9.2680   12.7781    0.0006   -0.0007    0.0204
C         7.9240   10.6769   12.7780   -0.0002   -0.0006    0.0068
H         9.0541    7.4277   12.7650    0.0016    0.0001   -0.0006
H         9.1683   12.4630   12.7667   -0.0017    0.0001   -0.0261
H         6.9843   11.2312   12.7887   -0.0003   -0.0011    0.0204
H         6.9279    8.7580   12.7877    0.0012   -0.0012    0.0503
C        15.8019    4.4056   12.7477    0.0001    0.0011    0.0486
C        12.9464    4.4688   12.7613   -0.0000    0.0000    0.0441
C        15.0523    3.2268   12.7611    0.0001    0.0000   -0.0466
C        13.6434    3.2581   12.7682    0.0001   -0.0005   -0.0509
H        16.8920    4.3900   12.7428    0.0001    0.0017    0.0518
H        11.8565    4.5005   12.7666   -0.0000   -0.0005    0.0435
H        13.0902    2.3178   12.7803    0.0000   -0.0014   -0.1315
H        15.5632    2.2628   12.7676    0.0001   -0.0005   -0.1221
    57
stable frequency at    219.318 1/cm IR int. is 6.515 a.m.u.; force const. is 0.185 mDyne/Ang.
C        10.3153   10.6255   12.7541    0.0007    0.0004    0.0778
C        11.7250   11.0126   12.7436    0.0000    0.0006   -0.0131
C        13.4288   12.6432   12.7402    0.0010    0.0001   -0.0082
C        13.8774   14.0347   12.7489    0.0008    0.0003   -0.0228
C        10.2838    9.2117   12.7538    0.0008    0.0002    0.0772
C        11.6752    8.7628   12.7434    0.0000    0.0001   -0.0200
C        13.3062    7.0594   12.7390    0.0006   -0.0001   -0.0173
C        13.6935    5.6496   12.7468    0.0006    0.0001    0.0201
N        12.1457   12.2786   12.7444    0.0008    0.0003   -0.0079
N        12.0400    7.4796   12.7439    0.0007    0.0003   -0.0134
C        15.2912   14.0035   12.7457    0.0008    0.0006   -0.0201
C        15.6785   12.5937   12.7355    0.0010    0.0002    0.0175
C        17.3094   10.8903   12.7347    0.0003   -0.0000    0.0199
C        18.7010   10.4413   12.7487    0.0015    0.0000   -0.0769
C        17.2595    8.6406   12.7332    0.0004    0.0001    0.0127
C        18.6693    9.0275   12.7476    0.0015    0.0001   -0.0776
C        15.1073    5.6184   12.7412    0.0007   -0.0002    0.0228
C        15.5559    7.0099   12.7320    0.0008   -0.0002    0.0081
N        16.9446   12.1735   12.7365    0.0010    0.0002    0.0136
N        16.8391    7.3745   12.7331    0.0008   -0.0001    0.0075
N        12.4947    9.8701   12.7367   -0.0011    0.0004   -0.1062
N        14.5362   11.8239   12.7312    0.0011   -0.0001    0.0296
N        16.4900    9.7831   12.7252   -0.0008    0.0000    0.1056
N        14.4485    7.8292   12.7301    0.0007   -0.0004   -0.0293
C        13.1827   15.2473   12.7623    0.0002   -0.0003   -0.0060
Zn       14.4924    9.8265   12.7264   -0.0030   -0.0007    0.0000
C        16.0384   15.1842   12.7549    0.0002    0.0012   -0.0199
C        13.9324   16.4262   12.7720   -0.0004   -0.0002    0.0207
C        15.3413   16.3949   12.7682   -0.0004    0.0006    0.0064
H        12.0925   15.2624   12.7653    0.0002   -0.0011    0.0001
H        17.1282   15.1517   12.7524    0.0002    0.0020   -0.0267
H        15.8945   17.3351   12.7765   -0.0008    0.0007    0.0197
H        13.4215   17.3900   12.7831   -0.0008   -0.0008    0.0509
C        19.9141   11.1351   12.7666    0.0011    0.0001   -0.0484
C        19.8494    8.2795   12.7644    0.0012    0.0002   -0.0442
C        21.0925   10.3847   12.7838   -0.0003    0.0001    0.0467
C        21.0605    8.9757   12.7834   -0.0003    0.0001    0.0508
H        19.9307   12.2252   12.7677    0.0011    0.0001   -0.0515
H        19.8161    7.1897   12.7642    0.0011    0.0002   -0.0437
H        22.0002    8.4217   12.7979   -0.0015    0.0001    0.1313
H        22.0566   10.8949   12.7993   -0.0016    0.0002    0.1224
C         9.0706    8.5177   12.7651    0.0007    0.0001    0.0486
C         9.1350   11.3733   12.7663    0.0002    0.0001    0.0446
C         7.8920    9.2680   12.7781   -0.0005   -0.0001   -0.0469
C         7.9240   10.6769   12.7780   -0.0006   -0.0001   -0.0508
H         9.0541    7.4277   12.7650    0.0010    0.0001    0.0516
H         9.1683   12.4630   12.7667   -0.0001    0.0001    0.0442
H         6.9843   11.2312   12.7887   -0.0015   -0.0002   -0.1315
H         6.9279    8.7580   12.7877   -0.0012   -0.0002   -0.1231
C        15.8019    4.4056   12.7477    0.0002   -0.0006    0.0061
C        12.9464    4.4688   12.7613    0.0003    0.0003    0.0197
C        15.0523    3.2268   12.7611   -0.0003   -0.0006   -0.0205
C        13.6434    3.2581   12.7682   -0.0002   -0.0001   -0.0066
H        16.8920    4.3900   12.7428    0.0002   -0.0011    0.0002
H        11.8565    4.5005   12.7666    0.0004    0.0008    0.0264
H        13.0902    2.3178   12.7803   -0.0006   -0.0001   -0.0199
H        15.5632    2.2628   12.7676   -0.0007   -0.0011   -0.0505
    57
stable frequency at    224.184 1/cm IR int. is 11.513 a.m.u.; force const. is 0.341 mDyne/Ang.
C        10.3153   10.6255   12.7541   -0.0108    0.0294    0.0000
C        11.7250   11.0126   12.7436   -0.0229    0.0463    0.0024
C        13.4288   12.6432   12.7402   -0.0453    0.0251    0.0019
C        13.8774   14.0347   12.7489   -0.0290    0.0122    0.0005
C        10.2838    9.2117   12.7538    0.0121    0.0289   -0.0010
C        11.6752    8.7628   12.7434    0.0251    0.0452   -0.0019
C        13.3062    7.0594   12.7390    0.0463    0.0229   -0.0023
C        13.6935    5.6496   12.7468    0.0295    0.0107    0.0003
N        12.1457   12.2786   12.7444   -0.0508    0.0531    0.0045
N        12.0400    7.4796   12.7439    0.0531    0.0507   -0.0044
C        15.2912   14.0035   12.7457   -0.0294   -0.0107   -0.0005
C        15.6785   12.5937   12.7355   -0.0463   -0.0229   -0.0021
C        17.3094   10.8903   12.7347   -0.0251   -0.0452   -0.0016
C        18.7010   10.4413   12.7487   -0.0121   -0.0289   -0.0007
C        17.2595    8.6406   12.7332    0.0229   -0.0463    0.0020
C        18.6693    9.0275   12.7476    0.0108   -0.0294    0.0003
C        15.1073    5.6184   12.7412    0.0290   -0.0122    0.0012
C        15.5559    7.0099   12.7320    0.0453   -0.0251    0.0016
N        16.9446   12.1735   12.7365   -0.0531   -0.0508   -0.0040
N        16.8391    7.3745   12.7331    0.0508   -0.0531    0.0040
N        12.4947    9.8701   12.7367    0.0014    0.0593    0.0010
N        14.5362   11.8239   12.7312   -0.0593    0.0014   -0.0004
N        16.4900    9.7831   12.7252   -0.0014   -0.0594    0.0007
N        14.4485    7.8292   12.7301    0.0594   -0.0014   -0.0014
C        13.1827   15.2473   12.7623   -0.0267    0.0145   -0.0012
Zn       14.4924    9.8265   12.7264   -0.0000    0.0000    0.0000
C        16.0384   15.1842   12.7549   -0.0273   -0.0131    0.0013
C        13.9324   16.4262   12.7720   -0.0205    0.0091   -0.0012
C        15.3413   16.3949   12.7682   -0.0209   -0.0080    0.0014
H        12.0925   15.2624   12.7653   -0.0267    0.0163   -0.0023
H        17.1282   15.1517   12.7524   -0.0274   -0.0150    0.0023
H        15.8945   17.3351   12.7765   -0.0110   -0.0138    0.0026
H        13.4215   17.3900   12.7831   -0.0103    0.0144   -0.0027
C        19.9141   11.1351   12.7666   -0.0144   -0.0267    0.0007
C        19.8494    8.2795   12.7644    0.0132   -0.0273   -0.0012
C        21.0925   10.3847   12.7838   -0.0090   -0.0205    0.0011
C        21.0605    8.9757   12.7834    0.0081   -0.0209   -0.0009
H        19.9307   12.2252   12.7677   -0.0161   -0.0267    0.0016
H        19.8161    7.1897   12.7642    0.0151   -0.0274   -0.0020
H        22.0002    8.4217   12.7979    0.0138   -0.0111   -0.0016
H        22.0566   10.8949   12.7993   -0.0143   -0.0103    0.0026
C         9.0706    8.5177   12.7651    0.0145    0.0267    0.0010
C         9.1350   11.3733   12.7663   -0.0132    0.0273   -0.0017
C         7.8920    9.2680   12.7781    0.0090    0.0205    0.0017
C         7.9240   10.6769   12.7780   -0.0081    0.0209   -0.0011
H         9.0541    7.4277   12.7650    0.0162    0.0267    0.0022
H         9.1683   12.4630   12.7667   -0.0150    0.0274   -0.0030
H         6.9843   11.2312   12.7887   -0.0138    0.0111   -0.0020
H         6.9279    8.7580   12.7877    0.0143    0.0103    0.0039
C        15.8019    4.4056   12.7477    0.0267   -0.0145   -0.0007
C        12.9464    4.4688   12.7613    0.0273    0.0131    0.0018
C        15.0523    3.2268   12.7611    0.0205   -0.0091   -0.0019
C        13.6434    3.2581   12.7682    0.0209    0.0080    0.0006
H        16.8920    4.3900   12.7428    0.0267   -0.0163   -0.0016
H        11.8565    4.5005   12.7666    0.0274    0.0150    0.0031
H        13.0902    2.3178   12.7803    0.0110    0.0137    0.0010
H        15.5632    2.2628   12.7676    0.0103   -0.0144   -0.0043
    57
stable frequency at    231.040 1/cm IR int. is 7.819 a.m.u.; force const. is 0.246 mDyne/Ang.
C        10.3153   10.6255   12.7541    0.0015   -0.0001   -0.0433
C        11.7250   11.0126   12.7436    0.0015    0.0010    0.0207
C        13.4288   12.6432   12.7402    0.0082   -0.0016   -0.0207
C        13.8774   14.0347   12.7489    0.0074   -0.0023    0.0429
C        10.2838    9.2117   12.7538    0.0012   -0.0011   -0.0433
C        11.6752    8.7628   12.7434    0.0008   -0.0026    0.0208
C        13.3062    7.0594   12.7390    0.0076    0.0007   -0.0205
C        13.6935    5.6496   12.7468    0.0070    0.0016    0.0432
N        12.1457   12.2786   12.7444    0.0076   -0.0010    0.0000
N        12.0400    7.4796   12.7439    0.0066   -0.0009    0.0003
C        15.2912   14.0035   12.7457    0.0075    0.0011    0.0429
C        15.6785   12.5937   12.7355    0.0084    0.0013   -0.0207
C        17.3094   10.8903   12.7347    0.0013   -0.0018    0.0206
C        18.7010   10.4413   12.7487    0.0026   -0.0007   -0.0425
C        17.2595    8.6406   12.7332    0.0011    0.0015    0.0203
C        18.6693    9.0275   12.7476    0.0027    0.0003   -0.0425
C        15.1073    5.6184   12.7412    0.0068   -0.0015    0.0432
C        15.5559    7.0099   12.7320    0.0073   -0.0014   -0.0210
N        16.9446   12.1735   12.7365    0.0075   -0.0000   -0.0000
N        16.8391    7.3745   12.7331    0.0066   -0.0002   -0.0005
N        12.4947    9.8701   12.7367   -0.0020   -0.0009    0.0948
N        14.5362   11.8239   12.7312    0.0085    0.0005   -0.0945
N        16.4900    9.7831   12.7252   -0.0030    0.0000    0.0939
N        14.4485    7.8292   12.7301    0.0073   -0.0005   -0.0948
C        13.1827   15.2473   12.7623    0.0024   -0.0056    0.0305
Zn       14.4924    9.8265   12.7264   -0.0241    0.0018    0.0001
C        16.0384   15.1842   12.7549    0.0027    0.0049    0.0306
C        13.9324   16.4262   12.7720   -0.0028   -0.0021   -0.0290
C        15.3413   16.3949   12.7682   -0.0027    0.0028   -0.0290
H        12.0925   15.2624   12.7653    0.0024   -0.0111    0.0337
H        17.1282   15.1517   12.7524    0.0028    0.0104    0.0340
H        15.8945   17.3351   12.7765   -0.0065    0.0054   -0.0774
H        13.4215   17.3900   12.7831   -0.0066   -0.0036   -0.0775
C        19.9141   11.1351   12.7666    0.0022   -0.0000   -0.0304
C        19.8494    8.2795   12.7644    0.0028    0.0003   -0.0300
C        21.0925   10.3847   12.7838    0.0017    0.0004    0.0287
C        21.0605    8.9757   12.7834    0.0020    0.0004    0.0290
H        19.9307   12.2252   12.7677    0.0018   -0.0000   -0.0338
H        19.8161    7.1897   12.7642    0.0030    0.0003   -0.0333
H        22.0002    8.4217   12.7979    0.0013    0.0004    0.0770
H        22.0566   10.8949   12.7993    0.0008    0.0007    0.0765
C         9.0706    8.5177   12.7651    0.0010   -0.0005   -0.0310
C         9.1350   11.3733   12.7663    0.0017   -0.0003   -0.0307
C         7.8920    9.2680   12.7781    0.0020   -0.0001    0.0291
C         7.9240   10.6769   12.7780    0.0024   -0.0001    0.0293
H         9.0541    7.4277   12.7650    0.0006   -0.0005   -0.0344
H         9.1683   12.4630   12.7667    0.0019   -0.0003   -0.0339
H         6.9843   11.2312   12.7887    0.0030   -0.0000    0.0782
H         6.9279    8.7580   12.7877    0.0024    0.0002    0.0779
C        15.8019    4.4056   12.7477    0.0020   -0.0049    0.0311
C        12.9464    4.4688   12.7613    0.0022    0.0051    0.0305
C        15.0523    3.2268   12.7611   -0.0032   -0.0027   -0.0290
C        13.6434    3.2581   12.7682   -0.0031    0.0020   -0.0294
H        16.8920    4.3900   12.7428    0.0019   -0.0103    0.0346
H        11.8565    4.5005   12.7666    0.0024    0.0104    0.0337
H        13.0902    2.3178   12.7803   -0.0069    0.0036   -0.0783
H        15.5632    2.2628   12.7676   -0.0070   -0.0050   -0.0776
    57
stable frequency at    231.711 1/cm IR int. is 19.659 a.m.u.; force const. is 0.622 mDyne/Ang.
C        10.3153   10.6255   12.7541   -0.0084    0.0002   -0.0068
C        11.7250   11.0126   12.7436   -0.0052   -0.0049    0.0041
C        13.4288   12.6432   12.7402   -0.0333    0.0066   -0.0059
C        13.8774   14.0347   12.7489   -0.0299    0.0081    0.0108
C        10.2838    9.2117   12.7538   -0.0073    0.0045   -0.0069
C        11.6752    8.7628   12.7434   -0.0041    0.0100    0.0041
C        13.3062    7.0594   12.7390   -0.0348   -0.0046   -0.0059
C        13.6935    5.6496   12.7468   -0.0306   -0.0057    0.0109
N        12.1457   12.2786   12.7444   -0.0302    0.0033   -0.0008
N        12.0400    7.4796   12.7439   -0.0304    0.0024   -0.0008
C        15.2912   14.0035   12.7457   -0.0305   -0.0058    0.0110
C        15.6785   12.5937   12.7355   -0.0346   -0.0044   -0.0045
C        17.3094   10.8903   12.7347   -0.0039    0.0102    0.0051
C        18.7010   10.4413   12.7487   -0.0069    0.0046   -0.0115
C        17.2595    8.6406   12.7332   -0.0052   -0.0048    0.0051
C        18.6693    9.0275   12.7476   -0.0081    0.0003   -0.0115
C        15.1073    5.6184   12.7412   -0.0300    0.0082    0.0110
C        15.5559    7.0099   12.7320   -0.0335    0.0066   -0.0045
N        16.9446   12.1735   12.7365   -0.0302    0.0026    0.0010
N        16.8391    7.3745   12.7331   -0.0305    0.0034    0.0011
N        12.4947    9.8701   12.7367    0.0112    0.0023    0.0181
N        14.5362   11.8239   12.7312   -0.0350    0.0001   -0.0237
N        16.4900    9.7831   12.7252    0.0110    0.0024    0.0233
N        14.4485    7.8292   12.7301   -0.0353   -0.0002   -0.0238
C        13.1827   15.2473   12.7623   -0.0090    0.0228    0.0084
Zn       14.4924    9.8265   12.7264    0.1019   -0.0096    0.0004
C        16.0384   15.1842   12.7549   -0.0101   -0.0214    0.0071
C        13.9324   16.4262   12.7720    0.0126    0.0108   -0.0068
C        15.3413   16.3949   12.7682    0.0121   -0.0099   -0.0079
H        12.0925   15.2624   12.7653   -0.0087    0.0463    0.0097
H        17.1282   15.1517   12.7524   -0.0108   -0.0448    0.0074
H        15.8945   17.3351   12.7765    0.0274   -0.0190   -0.0207
H        13.4215   17.3900   12.7831    0.0279    0.0192   -0.0185
C        19.9141   11.1351   12.7666   -0.0055    0.0014   -0.0082
C        19.8494    8.2795   12.7644   -0.0088    0.0005   -0.0082
C        21.0925   10.3847   12.7838   -0.0076   -0.0007    0.0075
C        21.0605    8.9757   12.7834   -0.0091   -0.0007    0.0075
H        19.9307   12.2252   12.7677   -0.0033    0.0013   -0.0090
H        19.8161    7.1897   12.7642   -0.0101    0.0005   -0.0091
H        22.0002    8.4217   12.7979   -0.0098   -0.0014    0.0201
H        22.0566   10.8949   12.7993   -0.0070   -0.0023    0.0202
C         9.0706    8.5177   12.7651   -0.0058    0.0013   -0.0051
C         9.1350   11.3733   12.7663   -0.0091    0.0003   -0.0051
C         7.8920    9.2680   12.7781   -0.0076   -0.0008    0.0050
C         7.9240   10.6769   12.7780   -0.0091   -0.0008    0.0050
H         9.0541    7.4277   12.7650   -0.0036    0.0012   -0.0058
H         9.1683   12.4630   12.7667   -0.0104    0.0004   -0.0057
H         6.9843   11.2312   12.7887   -0.0095   -0.0015    0.0132
H         6.9279    8.7580   12.7877   -0.0067   -0.0024    0.0131
C        15.8019    4.4056   12.7477   -0.0091    0.0229    0.0071
C        12.9464    4.4688   12.7613   -0.0101   -0.0215    0.0084
C        15.0523    3.2268   12.7611    0.0125    0.0106   -0.0080
C        13.6434    3.2581   12.7682    0.0120   -0.0102   -0.0068
H        16.8920    4.3900   12.7428   -0.0088    0.0464    0.0074
H        11.8565    4.5005   12.7666   -0.0109   -0.0449    0.0098
H        13.0902    2.3178   12.7803    0.0274   -0.0195   -0.0184
H        15.5632    2.2628   12.7676    0.0278    0.0187   -0.0209
    57
stable frequency at    231.843 1/cm IR int. is 21.568 a.m.u.; force const. is 0.683 mDyne/Ang.
C        10.3153   10.6255   12.7541    0.0059   -0.0315    0.0002
C        11.7250   11.0126   12.7436    0.0046   -0.0357    0.0003
C        13.4288   12.6432   12.7402   -0.0103   -0.0041    0.0001
C        13.8774   14.0347   12.7489   -0.0046   -0.0073   -0.0016
C        10.2838    9.2117   12.7538   -0.0084   -0.0308    0.0002
C        11.6752    8.7628   12.7434   -0.0068   -0.0344   -0.0004
C        13.3062    7.0594   12.7390    0.0050   -0.0053   -0.0006
C        13.6935    5.6496   12.7468   -0.0002   -0.0085    0.0024
N        12.1457   12.2786   12.7444   -0.0025   -0.0311    0.0003
N        12.0400    7.4796   12.7439   -0.0034   -0.0312   -0.0004
C        15.2912   14.0035   12.7457   -0.0002   -0.0085   -0.0016
C        15.6785   12.5937   12.7355    0.0050   -0.0053    0.0004
C        17.3094   10.8903   12.7347   -0.0068   -0.0344    0.0006
C        18.7010   10.4413   12.7487   -0.0084   -0.0308   -0.0002
C        17.2595    8.6406   12.7332    0.0046   -0.0357   -0.0005
C        18.6693    9.0275   12.7476    0.0059   -0.0315   -0.0002
C        15.1073    5.6184   12.7412   -0.0047   -0.0073    0.0024
C        15.5559    7.0099   12.7320   -0.0104   -0.0041   -0.0007
N        16.9446   12.1735   12.7365   -0.0034   -0.0312    0.0009
N        16.8391    7.3745   12.7331   -0.0025   -0.0311   -0.0008
N        12.4947    9.8701   12.7367    0.0001   -0.0361   -0.0002
N        14.5362   11.8239   12.7312   -0.0024    0.0115    0.0016
N        16.4900    9.7831   12.7252    0.0000   -0.0361    0.0003
N        14.4485    7.8292   12.7301   -0.0024    0.0115   -0.0031
C        13.1827   15.2473   12.7623   -0.0013   -0.0058   -0.0009
Zn       14.4924    9.8265   12.7264    0.0098    0.1047    0.0002
C        16.0384   15.1842   12.7549   -0.0004   -0.0092   -0.0012
C        13.9324   16.4262   12.7720    0.0008   -0.0077    0.0010
C        15.3413   16.3949   12.7682    0.0008   -0.0093    0.0007
H        12.0925   15.2624   12.7653   -0.0013   -0.0036   -0.0009
H        17.1282   15.1517   12.7524   -0.0005   -0.0105   -0.0014
H        15.8945   17.3351   12.7765    0.0015   -0.0098    0.0021
H        13.4215   17.3900   12.7831    0.0024   -0.0069    0.0026
C        19.9141   11.1351   12.7666   -0.0235   -0.0093   -0.0008
C        19.8494    8.2795   12.7644    0.0221   -0.0105    0.0005
C        21.0925   10.3847   12.7838   -0.0110    0.0129   -0.0004
C        21.0605    8.9757   12.7834    0.0104    0.0124    0.0006
H        19.9307   12.2252   12.7677   -0.0476   -0.0090   -0.0014
H        19.8161    7.1897   12.7642    0.0461   -0.0113    0.0011
H        22.0002    8.4217   12.7979    0.0198    0.0282    0.0014
H        22.0566   10.8949   12.7993   -0.0194    0.0287   -0.0007
C         9.0706    8.5177   12.7651   -0.0235   -0.0093    0.0006
C         9.1350   11.3733   12.7663    0.0221   -0.0105   -0.0003
C         7.8920    9.2680   12.7781   -0.0110    0.0129    0.0002
C         7.9240   10.6769   12.7780    0.0104    0.0124   -0.0004
H         9.0541    7.4277   12.7650   -0.0476   -0.0090    0.0010
H         9.1683   12.4630   12.7667    0.0461   -0.0113   -0.0007
H         6.9843   11.2312   12.7887    0.0198    0.0281   -0.0010
H         6.9279    8.7580   12.7877   -0.0194    0.0287    0.0004
C        15.8019    4.4056   12.7477   -0.0013   -0.0058    0.0017
C        12.9464    4.4688   12.7613   -0.0004   -0.0092    0.0015
C        15.0523    3.2268   12.7611    0.0008   -0.0077   -0.0013
C        13.6434    3.2581   12.7682    0.0008   -0.0093   -0.0014
H        16.8920    4.3900   12.7428   -0.0013   -0.0035    0.0019
H        11.8565    4.5005   12.7666   -0.0005   -0.0105    0.0016
H        13.0902    2.3178   12.7803    0.0015   -0.0098   -0.0039
H        15.5632    2.2628   12.7676    0.0024   -0.0069   -0.0036
    57
stable frequency at    235.676 1/cm IR int. is 7.461 a.m.u.; force const. is 0.244 mDyne/Ang.
C        10.3153   10.6255   12.7541    0.0012    0.0001    0.0492
C        11.7250   11.0126   12.7436    0.0005    0.0001   -0.0195
C        13.4288   12.6432   12.7402    0.0009   -0.0007   -0.0193
C        13.8774   14.0347   12.7489    0.0008   -0.0013    0.0487
C        10.2838    9.2117   12.7538    0.0012    0.0001    0.0492
C        11.6752    8.7628   12.7434    0.0005    0.0002   -0.0197
C        13.3062    7.0594   12.7390    0.0007    0.0006   -0.0194
C        13.6935    5.6496   12.7468    0.0008    0.0013    0.0489
N        12.1457   12.2786   12.7444    0.0010   -0.0002   -0.0012
N        12.0400    7.4796   12.7439    0.0008    0.0004   -0.0015
C        15.2912   14.0035   12.7457    0.0007   -0.0010    0.0487
C        15.6785   12.5937   12.7355    0.0005   -0.0004   -0.0194
C        17.3094   10.8903   12.7347   -0.0005   -0.0003   -0.0197
C        18.7010   10.4413   12.7487   -0.0014   -0.0001    0.0495
C        17.2595    8.6406   12.7332   -0.0005    0.0004   -0.0196
C        18.6693    9.0275   12.7476   -0.0014    0.0001    0.0495
C        15.1073    5.6184   12.7412    0.0007    0.0010    0.0490
C        15.5559    7.0099   12.7320    0.0004    0.0004   -0.0193
N        16.9446   12.1735   12.7365    0.0004   -0.0002   -0.0013
N        16.8391    7.3745   12.7331    0.0002    0.0004   -0.0012
N        12.4947    9.8701   12.7367   -0.0002    0.0001   -0.0844
N        14.5362   11.8239   12.7312    0.0007   -0.0002   -0.0834
N        16.4900    9.7831   12.7252   -0.0003    0.0001   -0.0848
N        14.4485    7.8292   12.7301    0.0004    0.0002   -0.0836
C        13.1827   15.2473   12.7623    0.0002   -0.0017    0.0329
Zn       14.4924    9.8265   12.7264   -0.0017   -0.0003    0.0326
C        16.0384   15.1842   12.7549    0.0004   -0.0008    0.0330
C        13.9324   16.4262   12.7720   -0.0004   -0.0009   -0.0310
C        15.3413   16.3949   12.7682   -0.0003   -0.0005   -0.0309
H        12.0925   15.2624   12.7653    0.0002   -0.0023    0.0354
H        17.1282   15.1517   12.7524    0.0004   -0.0003    0.0356
H        15.8945   17.3351   12.7765   -0.0008    0.0002   -0.0825
H        13.4215   17.3900   12.7831   -0.0007   -0.0005   -0.0827
C        19.9141   11.1351   12.7666   -0.0014    0.0001    0.0335
C        19.8494    8.2795   12.7644   -0.0014   -0.0001    0.0333
C        21.0925   10.3847   12.7838   -0.0005    0.0001   -0.0315
C        21.0605    8.9757   12.7834   -0.0005    0.0001   -0.0316
H        19.9307   12.2252   12.7677   -0.0015    0.0001    0.0361
H        19.8161    7.1897   12.7642   -0.0015   -0.0001    0.0360
H        22.0002    8.4217   12.7979    0.0003    0.0001   -0.0841
H        22.0566   10.8949   12.7993    0.0005   -0.0000   -0.0839
C         9.0706    8.5177   12.7651    0.0013   -0.0001    0.0335
C         9.1350   11.3733   12.7663    0.0012    0.0001    0.0331
C         7.8920    9.2680   12.7781    0.0007   -0.0001   -0.0312
C         7.9240   10.6769   12.7780    0.0007   -0.0001   -0.0314
H         9.0541    7.4277   12.7650    0.0016   -0.0001    0.0361
H         9.1683   12.4630   12.7667    0.0011    0.0001    0.0357
H         6.9843   11.2312   12.7887    0.0001   -0.0002   -0.0837
H         6.9279    8.7580   12.7877    0.0001   -0.0001   -0.0834
C        15.8019    4.4056   12.7477    0.0005    0.0009    0.0331
C        12.9464    4.4688   12.7613    0.0003    0.0016    0.0330
C        15.0523    3.2268   12.7611   -0.0002    0.0006   -0.0311
C        13.6434    3.2581   12.7682   -0.0002    0.0010   -0.0311
H        16.8920    4.3900   12.7428    0.0005    0.0007    0.0356
H        11.8565    4.5005   12.7666    0.0003    0.0020    0.0357
H        13.0902    2.3178   12.7803   -0.0007    0.0006   -0.0829
H        15.5632    2.2628   12.7676   -0.0008   -0.0000   -0.0830
    57
stable frequency at    252.378 1/cm IR int. is 7.562 a.m.u.; force const. is 0.284 mDyne/Ang.
C        10.3153   10.6255   12.7541    0.0414   -0.0032   -0.0005
C        11.7250   11.0126   12.7436    0.0284   -0.0091    0.0006
C        13.4288   12.6432   12.7402    0.0081   -0.0288    0.0004
C        13.8774   14.0347   12.7489    0.0017   -0.0416   -0.0007
C        10.2838    9.2117   12.7538    0.0416    0.0018   -0.0007
C        11.6752    8.7628   12.7434    0.0288    0.0082    0.0004
C        13.3062    7.0594   12.7390    0.0091    0.0284    0.0005
C        13.6935    5.6496   12.7468    0.0033    0.0415   -0.0007
N        12.1457   12.2786   12.7444    0.0099   -0.0101    0.0001
N        12.0400    7.4796   12.7439    0.0102    0.0100    0.0001
C        15.2912   14.0035   12.7457   -0.0033   -0.0415   -0.0005
C        15.6785   12.5937   12.7355   -0.0091   -0.0284    0.0009
C        17.3094   10.8903   12.7347   -0.0288   -0.0082    0.0010
C        18.7010   10.4413   12.7487   -0.0416   -0.0017   -0.0014
C        17.2595    8.6406   12.7332   -0.0284    0.0091    0.0013
C        18.6693    9.0275   12.7476   -0.0415    0.0032   -0.0011
C        15.1073    5.6184   12.7412   -0.0017    0.0416   -0.0008
C        15.5559    7.0099   12.7320   -0.0081    0.0287    0.0008
N        16.9446   12.1735   12.7365   -0.0102   -0.0100    0.0007
N        16.8391    7.3745   12.7331   -0.0099    0.0101    0.0009
N        12.4947    9.8701   12.7367    0.0314   -0.0005    0.0016
N        14.5362   11.8239   12.7312   -0.0006   -0.0314    0.0018
N        16.4900    9.7831   12.7252   -0.0314    0.0005    0.0032
N        14.4485    7.8292   12.7301    0.0006    0.0314    0.0019
C        13.1827   15.2473   12.7623   -0.0076   -0.0537   -0.0007
Zn       14.4924    9.8265   12.7264    0.0001    0.0000   -0.0004
C        16.0384   15.1842   12.7549    0.0051   -0.0537   -0.0007
C        13.9324   16.4262   12.7720   -0.0022   -0.0599   -0.0002
C        15.3413   16.3949   12.7682   -0.0010   -0.0599   -0.0004
H        12.0925   15.2624   12.7653   -0.0074   -0.0589   -0.0008
H        17.1282   15.1517   12.7524    0.0047   -0.0580   -0.0007
H        15.8945   17.3351   12.7765   -0.0051   -0.0579   -0.0003
H        13.4215   17.3900   12.7831    0.0027   -0.0575    0.0006
C        19.9141   11.1351   12.7666   -0.0537    0.0076   -0.0015
C        19.8494    8.2795   12.7644   -0.0537   -0.0051   -0.0012
C        21.0925   10.3847   12.7838   -0.0600    0.0022   -0.0003
C        21.0605    8.9757   12.7834   -0.0600    0.0010   -0.0002
H        19.9307   12.2252   12.7677   -0.0589    0.0074   -0.0016
H        19.8161    7.1897   12.7642   -0.0580   -0.0047   -0.0011
H        22.0002    8.4217   12.7979   -0.0579    0.0052    0.0003
H        22.0566   10.8949   12.7993   -0.0575   -0.0027    0.0013
C         9.0706    8.5177   12.7651    0.0536   -0.0075   -0.0008
C         9.1350   11.3733   12.7663    0.0536    0.0051   -0.0006
C         7.8920    9.2680   12.7781    0.0598   -0.0022   -0.0004
C         7.9240   10.6769   12.7780    0.0598   -0.0010   -0.0003
H         9.0541    7.4277   12.7650    0.0588   -0.0074   -0.0009
H         9.1683   12.4630   12.7667    0.0579    0.0047   -0.0005
H         6.9843   11.2312   12.7887    0.0577   -0.0051   -0.0003
H         6.9279    8.7580   12.7877    0.0574    0.0026    0.0003
C        15.8019    4.4056   12.7477    0.0076    0.0537   -0.0009
C        12.9464    4.4688   12.7613   -0.0050    0.0537   -0.0005
C        15.0523    3.2268   12.7611    0.0022    0.0599   -0.0003
C        13.6434    3.2581   12.7682    0.0010    0.0599   -0.0000
H        16.8920    4.3900   12.7428    0.0074    0.0589   -0.0008
H        11.8565    4.5005   12.7666   -0.0046    0.0580   -0.0003
H        13.0902    2.3178   12.7803    0.0051    0.0578    0.0002
H        15.5632    2.2628   12.7676   -0.0026    0.0575    0.0004
    57
stable frequency at    272.881 1/cm IR int. is 9.258 a.m.u.; force const. is 0.406 mDyne/Ang.
C        10.3153   10.6255   12.7541    0.0002   -0.0001    0.0124
C        11.7250   11.0126   12.7436    0.0004   -0.0002    0.0465
C        13.4288   12.6432   12.7402    0.0002    0.0001    0.0075
C        13.8774   14.0347   12.7489    0.0001    0.0002   -0.0124
C        10.2838    9.2117   12.7538   -0.0002   -0.0001   -0.0291
C        11.6752    8.7628   12.7434   -0.0005   -0.0001   -0.0575
C        13.3062    7.0594   12.7390   -0.0003    0.0002    0.0346
C        13.6935    5.6496   12.7468   -0.0002    0.0003    0.0291
N        12.1457   12.2786   12.7444    0.0007   -0.0004    0.1186
N        12.0400    7.4796   12.7439   -0.0007   -0.0001   -0.0500
C        15.2912   14.0035   12.7457   -0.0000    0.0004   -0.0292
C        15.6785   12.5937   12.7355   -0.0002    0.0003   -0.0345
C        17.3094   10.8903   12.7347   -0.0004   -0.0001    0.0575
C        18.7010   10.4413   12.7487   -0.0003   -0.0003    0.0291
C        17.2595    8.6406   12.7332    0.0003   -0.0002   -0.0465
C        18.6693    9.0275   12.7476    0.0001   -0.0003   -0.0124
C        15.1073    5.6184   12.7412   -0.0002    0.0004    0.0124
C        15.5559    7.0099   12.7320   -0.0002    0.0002   -0.0075
N        16.9446   12.1735   12.7365   -0.0004   -0.0001    0.0502
N        16.8391    7.3745   12.7331    0.0001   -0.0002   -0.1185
N        12.4947    9.8701   12.7367   -0.0001   -0.0001   -0.0306
N        14.5362   11.8239   12.7312   -0.0001    0.0004   -0.0752
N        16.4900    9.7831   12.7252   -0.0002   -0.0000    0.0305
N        14.4485    7.8292   12.7301   -0.0001    0.0004    0.0752
C        13.1827   15.2473   12.7623   -0.0000    0.0003   -0.0209
Zn       14.4924    9.8265   12.7264    0.0003   -0.0007    0.0000
C        16.0384   15.1842   12.7549   -0.0000    0.0002   -0.0009
C        13.9324   16.4262   12.7720   -0.0001    0.0002   -0.0089
C        15.3413   16.3949   12.7682    0.0000   -0.0000    0.0184
H        12.0925   15.2624   12.7653   -0.0000    0.0003   -0.0267
H        17.1282   15.1517   12.7524    0.0000    0.0002    0.0094
H        15.8945   17.3351   12.7765    0.0000   -0.0003    0.0472
H        13.4215   17.3900   12.7831   -0.0001    0.0002   -0.0110
C        19.9141   11.1351   12.7666    0.0002    0.0001   -0.0203
C        19.8494    8.2795   12.7644   -0.0001    0.0001    0.0293
C        21.0925   10.3847   12.7838    0.0006    0.0004   -0.0359
C        21.0605    8.9757   12.7834   -0.0003    0.0004    0.0320
H        19.9307   12.2252   12.7677    0.0001    0.0001   -0.0411
H        19.8161    7.1897   12.7642    0.0000    0.0001    0.0486
H        22.0002    8.4217   12.7979   -0.0007    0.0006    0.0647
H        22.0566   10.8949   12.7993    0.0012    0.0007   -0.0795
C         9.0706    8.5177   12.7651    0.0003   -0.0001    0.0202
C         9.1350   11.3733   12.7663   -0.0001    0.0000   -0.0292
C         7.8920    9.2680   12.7781    0.0005    0.0000    0.0359
C         7.9240   10.6769   12.7780   -0.0001    0.0001   -0.0319
H         9.0541    7.4277   12.7650    0.0004   -0.0001    0.0409
H         9.1683   12.4630   12.7667   -0.0002    0.0000   -0.0485
H         6.9843   11.2312   12.7887   -0.0004    0.0001   -0.0646
H         6.9279    8.7580   12.7877    0.0009    0.0001    0.0796
C        15.8019    4.4056   12.7477   -0.0000    0.0006    0.0209
C        12.9464    4.4688   12.7613   -0.0002    0.0000    0.0009
C        15.0523    3.2268   12.7611    0.0000    0.0004    0.0089
C        13.6434    3.2581   12.7682   -0.0001   -0.0000   -0.0185
H        16.8920    4.3900   12.7428   -0.0000    0.0008    0.0267
H        11.8565    4.5005   12.7666   -0.0003   -0.0002   -0.0095
H        13.0902    2.3178   12.7803   -0.0001   -0.0004   -0.0472
H        15.5632    2.2628   12.7676    0.0001    0.0005    0.0111
    57
stable frequency at    272.897 1/cm IR int. is 9.257 a.m.u.; force const. is 0.406 mDyne/Ang.
C        10.3153   10.6255   12.7541   -0.0004   -0.0001   -0.0291
C        11.7250   11.0126   12.7436   -0.0004   -0.0002   -0.0346
C        13.4288   12.6432   12.7402    0.0000   -0.0004    0.0575
C        13.8774   14.0347   12.7489    0.0000   -0.0002    0.0292
C        10.2838    9.2117   12.7538   -0.0003   -0.0001   -0.0123
C        11.6752    8.7628   12.7434   -0.0001    0.0001    0.0075
C        13.3062    7.0594   12.7390    0.0003    0.0003    0.0465
C        13.6935    5.6496   12.7468    0.0002    0.0002    0.0125
N        12.1457   12.2786   12.7444    0.0000   -0.0004    0.0501
N        12.0400    7.4796   12.7439    0.0007    0.0004    0.1185
C        15.2912   14.0035   12.7457   -0.0000    0.0000   -0.0124
C        15.6785   12.5937   12.7355   -0.0000    0.0002   -0.0465
C        17.3094   10.8903   12.7347   -0.0002    0.0001   -0.0075
C        18.7010   10.4413   12.7487   -0.0004    0.0000    0.0124
C        17.2595    8.6406   12.7332   -0.0004   -0.0002    0.0346
C        18.6693    9.0275   12.7476   -0.0005   -0.0001    0.0292
C        15.1073    5.6184   12.7412    0.0000   -0.0001   -0.0291
C        15.5559    7.0099   12.7320   -0.0001   -0.0002   -0.0575
N        16.9446   12.1735   12.7365    0.0002    0.0004   -0.1185
N        16.8391    7.3745   12.7331   -0.0001   -0.0003   -0.0501
N        12.4947    9.8701   12.7367   -0.0005   -0.0001   -0.0752
N        14.5362   11.8239   12.7312   -0.0001   -0.0002    0.0304
N        16.4900    9.7831   12.7252   -0.0005   -0.0002    0.0752
N        14.4485    7.8292   12.7301   -0.0000   -0.0001   -0.0306
C        13.1827   15.2473   12.7623   -0.0001    0.0002   -0.0202
Zn       14.4924    9.8265   12.7264    0.0009    0.0001    0.0000
C        16.0384   15.1842   12.7549   -0.0000   -0.0003    0.0293
C        13.9324   16.4262   12.7720   -0.0003    0.0004   -0.0359
C        15.3413   16.3949   12.7682   -0.0001   -0.0003    0.0319
H        12.0925   15.2624   12.7653   -0.0002    0.0003   -0.0409
H        17.1282   15.1517   12.7524    0.0000   -0.0003    0.0486
H        15.8945   17.3351   12.7765   -0.0000   -0.0006    0.0647
H        13.4215   17.3900   12.7831   -0.0004    0.0009   -0.0797
C        19.9141   11.1351   12.7666   -0.0005   -0.0001    0.0209
C        19.8494    8.2795   12.7644   -0.0002   -0.0001    0.0009
C        21.0925   10.3847   12.7838   -0.0003   -0.0001    0.0089
C        21.0605    8.9757   12.7834    0.0001   -0.0001   -0.0185
H        19.9307   12.2252   12.7677   -0.0004   -0.0001    0.0267
H        19.8161    7.1897   12.7642   -0.0001   -0.0001   -0.0095
H        22.0002    8.4217   12.7979    0.0006   -0.0001   -0.0472
H        22.0566   10.8949   12.7993   -0.0003   -0.0002    0.0111
C         9.0706    8.5177   12.7651   -0.0005   -0.0000   -0.0209
C         9.1350   11.3733   12.7663   -0.0001   -0.0001   -0.0009
C         7.8920    9.2680   12.7781   -0.0003    0.0000   -0.0089
C         7.9240   10.6769   12.7780    0.0000    0.0000    0.0185
H         9.0541    7.4277   12.7650   -0.0006   -0.0000   -0.0267
H         9.1683   12.4630   12.7667    0.0001   -0.0001    0.0095
H         6.9843   11.2312   12.7887    0.0003    0.0001    0.0471
H         6.9279    8.7580   12.7877   -0.0004    0.0001   -0.0112
C        15.8019    4.4056   12.7477    0.0001    0.0002    0.0202
C        12.9464    4.4688   12.7613   -0.0002    0.0000   -0.0292
C        15.0523    3.2268   12.7611    0.0000    0.0005    0.0359
C        13.6434    3.2581   12.7682   -0.0004   -0.0000   -0.0320
H        16.8920    4.3900   12.7428    0.0002    0.0002    0.0410
H        11.8565    4.5005   12.7666   -0.0003    0.0001   -0.0485
H        13.0902    2.3178   12.7803   -0.0006   -0.0002   -0.0648
H        15.5632    2.2628   12.7676    0.0001    0.0008    0.0796
    57
stable frequency at    297.449 1/cm IR int. is 8.049 a.m.u.; force const. is 0.420 mDyne/Ang.
C        10.3153   10.6255   12.7541    0.0420   -0.0191   -0.0003
C        11.7250   11.0126   12.7436    0.0226   -0.0184   -0.0002
C        13.4288   12.6432   12.7402   -0.0369    0.0224    0.0004
C        13.8774   14.0347   12.7489   -0.0383    0.0277    0.0003
C        10.2838    9.2117   12.7538    0.0327   -0.0129   -0.0001
C        11.6752    8.7628   12.7434    0.0107   -0.0113    0.0003
C        13.3062    7.0594   12.7390   -0.0348   -0.0071    0.0005
C        13.6935    5.6496   12.7468   -0.0364    0.0045    0.0003
N        12.1457   12.2786   12.7444   -0.0251   -0.0034    0.0002
N        12.0400    7.4796   12.7439   -0.0313   -0.0178    0.0012
C        15.2912   14.0035   12.7457   -0.0364    0.0045   -0.0001
C        15.6785   12.5937   12.7355   -0.0348   -0.0071   -0.0004
C        17.3094   10.8903   12.7347    0.0107   -0.0113   -0.0009
C        18.7010   10.4413   12.7487    0.0327   -0.0129    0.0001
C        17.2595    8.6406   12.7332    0.0225   -0.0184   -0.0003
C        18.6693    9.0275   12.7476    0.0419   -0.0191    0.0003
C        15.1073    5.6184   12.7412   -0.0383    0.0278   -0.0001
C        15.5559    7.0099   12.7320   -0.0369    0.0225   -0.0003
N        16.9446   12.1735   12.7365   -0.0313   -0.0178   -0.0012
N        16.8391    7.3745   12.7331   -0.0251   -0.0034   -0.0000
N        12.4947    9.8701   12.7367    0.0210   -0.0176   -0.0002
N        14.5362   11.8239   12.7312   -0.0424    0.0096    0.0002
N        16.4900    9.7831   12.7252    0.0210   -0.0176   -0.0013
N        14.4485    7.8292   12.7301   -0.0424    0.0096   -0.0002
C        13.1827   15.2473   12.7623   -0.0169    0.0482    0.0003
Zn       14.4924    9.8265   12.7264   -0.0316   -0.0122    0.0001
C        16.0384   15.1842   12.7549   -0.0256   -0.0030   -0.0001
C        13.9324   16.4262   12.7720    0.0009    0.0396    0.0004
C        15.3413   16.3949   12.7682   -0.0005    0.0123    0.0004
H        12.0925   15.2624   12.7653   -0.0169    0.0719    0.0003
H        17.1282   15.1517   12.7524   -0.0261   -0.0210   -0.0004
H        15.8945   17.3351   12.7765    0.0209   -0.0001    0.0005
H        13.4215   17.3900   12.7831    0.0167    0.0479    0.0002
C        19.9141   11.1351   12.7666    0.0438   -0.0192    0.0006
C        19.8494    8.2795   12.7644    0.0650   -0.0009    0.0005
C        21.0925   10.3847   12.7838    0.0586   -0.0025    0.0010
C        21.0605    8.9757   12.7834    0.0697   -0.0009    0.0008
H        19.9307   12.2252   12.7677    0.0430   -0.0189    0.0006
H        19.8161    7.1897   12.7642    0.0804   -0.0018    0.0004
H        22.0002    8.4217   12.7979    0.0704   -0.0004    0.0013
H        22.0566   10.8949   12.7993    0.0505    0.0130    0.0009
C         9.0706    8.5177   12.7651    0.0439   -0.0192   -0.0004
C         9.1350   11.3733   12.7663    0.0651   -0.0009   -0.0002
C         7.8920    9.2680   12.7781    0.0587   -0.0025   -0.0008
C         7.9240   10.6769   12.7780    0.0698   -0.0009   -0.0006
H         9.0541    7.4277   12.7650    0.0431   -0.0189   -0.0003
H         9.1683   12.4630   12.7667    0.0805   -0.0018   -0.0001
H         6.9843   11.2312   12.7887    0.0705   -0.0004   -0.0011
H         6.9279    8.7580   12.7877    0.0506    0.0130   -0.0009
C        15.8019    4.4056   12.7477   -0.0169    0.0483   -0.0004
C        12.9464    4.4688   12.7613   -0.0257   -0.0029    0.0001
C        15.0523    3.2268   12.7611    0.0009    0.0397   -0.0002
C        13.6434    3.2581   12.7682   -0.0005    0.0124   -0.0002
H        16.8920    4.3900   12.7428   -0.0168    0.0720   -0.0006
H        11.8565    4.5005   12.7666   -0.0262   -0.0209    0.0000
H        13.0902    2.3178   12.7803    0.0209   -0.0000   -0.0003
H        15.5632    2.2628   12.7676    0.0167    0.0481   -0.0001
    57
stable frequency at    297.507 1/cm IR int. is 8.052 a.m.u.; force const. is 0.420 mDyne/Ang.
C        10.3153   10.6255   12.7541    0.0045    0.0363    0.0002
C        11.7250   11.0126   12.7436   -0.0071    0.0347    0.0004
C        13.4288   12.6432   12.7402   -0.0114   -0.0107    0.0005
C        13.8774   14.0347   12.7489   -0.0129   -0.0327    0.0000
C        10.2838    9.2117   12.7538    0.0277    0.0383   -0.0003
C        11.6752    8.7628   12.7434    0.0224    0.0369   -0.0004
C        13.3062    7.0594   12.7390   -0.0184   -0.0225    0.0001
C        13.6935    5.6496   12.7468   -0.0191   -0.0420    0.0003
N        12.1457   12.2786   12.7444   -0.0179    0.0313    0.0012
N        12.0400    7.4796   12.7439   -0.0034    0.0250    0.0001
C        15.2912   14.0035   12.7457   -0.0191   -0.0420   -0.0001
C        15.6785   12.5937   12.7355   -0.0184   -0.0225   -0.0001
C        17.3094   10.8903   12.7347    0.0224    0.0369    0.0001
C        18.7010   10.4413   12.7487    0.0277    0.0383    0.0004
C        17.2595    8.6406   12.7332   -0.0071    0.0347   -0.0006
C        18.6693    9.0275   12.7476    0.0045    0.0363   -0.0002
C        15.1073    5.6184   12.7412   -0.0129   -0.0327    0.0001
C        15.5559    7.0099   12.7320   -0.0114   -0.0107   -0.0005
N        16.9446   12.1735   12.7365   -0.0034    0.0251    0.0001
N        16.8391    7.3745   12.7331   -0.0179    0.0313   -0.0011
N        12.4947    9.8701   12.7367    0.0096    0.0423   -0.0004
N        14.5362   11.8239   12.7312   -0.0177   -0.0210    0.0002
N        16.4900    9.7831   12.7252    0.0096    0.0424   -0.0002
N        14.4485    7.8292   12.7301   -0.0177   -0.0210   -0.0004
C        13.1827   15.2473   12.7623   -0.0192   -0.0439   -0.0003
Zn       14.4924    9.8265   12.7264   -0.0121    0.0317    0.0001
C        16.0384   15.1842   12.7549   -0.0009   -0.0651   -0.0002
C        13.9324   16.4262   12.7720   -0.0025   -0.0586   -0.0008
C        15.3413   16.3949   12.7682   -0.0009   -0.0698   -0.0006
H        12.0925   15.2624   12.7653   -0.0189   -0.0430   -0.0003
H        17.1282   15.1517   12.7524   -0.0018   -0.0805   -0.0001
H        15.8945   17.3351   12.7765   -0.0003   -0.0705   -0.0009
H        13.4215   17.3900   12.7831    0.0130   -0.0506   -0.0009
C        19.9141   11.1351   12.7666    0.0482    0.0169    0.0007
C        19.8494    8.2795   12.7644   -0.0030    0.0256   -0.0001
C        21.0925   10.3847   12.7838    0.0396   -0.0009    0.0006
C        21.0605    8.9757   12.7834    0.0123    0.0005    0.0003
H        19.9307   12.2252   12.7677    0.0719    0.0168    0.0009
H        19.8161    7.1897   12.7642   -0.0209    0.0262   -0.0004
H        22.0002    8.4217   12.7979   -0.0001   -0.0208    0.0003
H        22.0566   10.8949   12.7993    0.0479   -0.0166    0.0002
C         9.0706    8.5177   12.7651    0.0482    0.0169   -0.0004
C         9.1350   11.3733   12.7663   -0.0030    0.0257    0.0001
C         7.8920    9.2680   12.7781    0.0396   -0.0009   -0.0003
C         7.9240   10.6769   12.7780    0.0124    0.0005   -0.0003
H         9.0541    7.4277   12.7650    0.0719    0.0168   -0.0005
H         9.1683   12.4630   12.7667   -0.0209    0.0262    0.0002
H         6.9843   11.2312   12.7887   -0.0001   -0.0208   -0.0004
H         6.9279    8.7580   12.7877    0.0480   -0.0167   -0.0001
C        15.8019    4.4056   12.7477   -0.0192   -0.0438    0.0002
C        12.9464    4.4688   12.7613   -0.0009   -0.0651    0.0000
C        15.0523    3.2268   12.7611   -0.0024   -0.0586    0.0007
C        13.6434    3.2581   12.7682   -0.0009   -0.0697    0.0006
H        16.8920    4.3900   12.7428   -0.0189   -0.0430   -0.0001
H        11.8565    4.5005   12.7666   -0.0018   -0.0805   -0.0003
H        13.0902    2.3178   12.7803   -0.0003   -0.0705    0.0011
H        15.5632    2.2628   12.7676    0.0130   -0.0505    0.0008
    57
stable frequency at    331.589 1/cm IR int. is 9.776 a.m.u.; force const. is 0.633 mDyne/Ang.
C        10.3153   10.6255   12.7541    0.0002    0.0000    0.0195
C        11.7250   11.0126   12.7436    0.0000    0.0001   -0.0043
C        13.4288   12.6432   12.7402   -0.0002    0.0000   -0.0042
C        13.8774   14.0347   12.7489   -0.0001   -0.0001    0.0197
C        10.2838    9.2117   12.7538    0.0002    0.0000    0.0196
C        11.6752    8.7628   12.7434    0.0000   -0.0000   -0.0043
C        13.3062    7.0594   12.7390   -0.0002   -0.0001   -0.0044
C        13.6935    5.6496   12.7468   -0.0001    0.0001    0.0196
N        12.1457   12.2786   12.7444   -0.0007    0.0004   -0.1055
N        12.0400    7.4796   12.7439   -0.0007   -0.0003   -0.1056
C        15.2912   14.0035   12.7457   -0.0001   -0.0002    0.0195
C        15.6785   12.5937   12.7355   -0.0000   -0.0000   -0.0044
C        17.3094   10.8903   12.7347    0.0000    0.0001   -0.0042
C        18.7010   10.4413   12.7487   -0.0001    0.0000    0.0197
C        17.2595    8.6406   12.7332   -0.0000   -0.0001   -0.0044
C        18.6693    9.0275   12.7476   -0.0002   -0.0001    0.0196
C        15.1073    5.6184   12.7412   -0.0000    0.0001    0.0197
C        15.5559    7.0099   12.7320   -0.0000    0.0000   -0.0042
N        16.9446   12.1735   12.7365    0.0003    0.0004   -0.1056
N        16.8391    7.3745   12.7331    0.0002   -0.0003   -0.1057
N        12.4947    9.8701   12.7367    0.0004    0.0000    0.0590
N        14.5362   11.8239   12.7312   -0.0000   -0.0003    0.0589
N        16.4900    9.7831   12.7252   -0.0003   -0.0000    0.0590
N        14.4485    7.8292   12.7301    0.0001    0.0002    0.0590
C        13.1827   15.2473   12.7623    0.0000   -0.0001    0.0301
Zn       14.4924    9.8265   12.7264    0.0001    0.0000   -0.0057
C        16.0384   15.1842   12.7549   -0.0000   -0.0003    0.0300
C        13.9324   16.4262   12.7720   -0.0000    0.0003   -0.0148
C        15.3413   16.3949   12.7682   -0.0000    0.0002   -0.0147
H        12.0925   15.2624   12.7653    0.0001   -0.0002    0.0467
H        17.1282   15.1517   12.7524    0.0000   -0.0005    0.0468
H        15.8945   17.3351   12.7765   -0.0000    0.0004   -0.0417
H        13.4215   17.3900   12.7831   -0.0000    0.0006   -0.0420
C        19.9141   11.1351   12.7666   -0.0002   -0.0001    0.0301
C        19.8494    8.2795   12.7644   -0.0002    0.0001    0.0300
C        21.0925   10.3847   12.7838    0.0006    0.0000   -0.0148
C        21.0605    8.9757   12.7834    0.0006    0.0000   -0.0147
H        19.9307   12.2252   12.7677   -0.0004   -0.0001    0.0468
H        19.8161    7.1897   12.7642   -0.0004    0.0000    0.0468
H        22.0002    8.4217   12.7979    0.0009   -0.0000   -0.0417
H        22.0566   10.8949   12.7993    0.0010    0.0001   -0.0420
C         9.0706    8.5177   12.7651    0.0003    0.0000    0.0301
C         9.1350   11.3733   12.7663    0.0003   -0.0000    0.0300
C         7.8920    9.2680   12.7781   -0.0002    0.0000   -0.0148
C         7.9240   10.6769   12.7780   -0.0002   -0.0000   -0.0147
H         9.0541    7.4277   12.7650    0.0005   -0.0000    0.0469
H         9.1683   12.4630   12.7667    0.0004   -0.0000    0.0468
H         6.9843   11.2312   12.7887   -0.0004    0.0000   -0.0418
H         6.9279    8.7580   12.7877   -0.0005    0.0000   -0.0419
C        15.8019    4.4056   12.7477    0.0000    0.0002    0.0301
C        12.9464    4.4688   12.7613    0.0001    0.0001    0.0300
C        15.0523    3.2268   12.7611   -0.0001   -0.0002   -0.0148
C        13.6434    3.2581   12.7682   -0.0001   -0.0003   -0.0147
H        16.8920    4.3900   12.7428    0.0001    0.0005    0.0468
H        11.8565    4.5005   12.7666    0.0002    0.0001    0.0468
H        13.0902    2.3178   12.7803   -0.0002   -0.0006   -0.0417
H        15.5632    2.2628   12.7676   -0.0001   -0.0004   -0.0420
    57
stable frequency at    408.731 1/cm IR int. is 3.044 a.m.u.; force const. is 0.300 mDyne/Ang.
C        10.3153   10.6255   12.7541    0.0005    0.0000    0.0500
C        11.7250   11.0126   12.7436    0.0002    0.0000    0.0113
C        13.4288   12.6432   12.7402   -0.0001    0.0002   -0.0112
C        13.8774   14.0347   12.7489   -0.0001    0.0004   -0.0506
C        10.2838    9.2117   12.7538    0.0005    0.0000    0.0489
C        11.6752    8.7628   12.7434    0.0001   -0.0000    0.0101
C        13.3062    7.0594   12.7390   -0.0001   -0.0002   -0.0101
C        13.6935    5.6496   12.7468   -0.0001   -0.0004   -0.0463
N        12.1457   12.2786   12.7444    0.0000    0.0001   -0.0003
N        12.0400    7.4796   12.7439   -0.0001   -0.0001    0.0002
C        15.2912   14.0035   12.7457   -0.0001    0.0004   -0.0504
C        15.6785   12.5937   12.7355   -0.0001    0.0001   -0.0108
C        17.3094   10.8903   12.7347   -0.0002   -0.0000    0.0109
C        18.7010   10.4413   12.7487   -0.0006   -0.0001    0.0483
C        17.2595    8.6406   12.7332   -0.0002    0.0000    0.0098
C        18.6693    9.0275   12.7476   -0.0006   -0.0000    0.0477
C        15.1073    5.6184   12.7412   -0.0001   -0.0004   -0.0459
C        15.5559    7.0099   12.7320   -0.0001   -0.0001   -0.0099
N        16.9446   12.1735   12.7365   -0.0001    0.0001   -0.0002
N        16.8391    7.3745   12.7331   -0.0002   -0.0000   -0.0001
N        12.4947    9.8701   12.7367   -0.0002   -0.0000   -0.0295
N        14.5362   11.8239   12.7312    0.0000   -0.0001    0.0302
N        16.4900    9.7831   12.7252    0.0001    0.0000   -0.0287
N        14.4485    7.8292   12.7301   -0.0001    0.0001    0.0279
C        13.1827   15.2473   12.7623    0.0002   -0.0007    0.0640
Zn       14.4924    9.8265   12.7264   -0.0000    0.0000    0.0000
C        16.0384   15.1842   12.7549    0.0002   -0.0006    0.0638
C        13.9324   16.4262   12.7720   -0.0001    0.0003   -0.0305
C        15.3413   16.3949   12.7682   -0.0001    0.0003   -0.0309
H        12.0925   15.2624   12.7653    0.0005   -0.0019    0.1872
H        17.1282   15.1517   12.7524    0.0004   -0.0017    0.1870
H        15.8945   17.3351   12.7765   -0.0001    0.0004   -0.0365
H        13.4215   17.3900   12.7831   -0.0001    0.0003   -0.0356
C        19.9141   11.1351   12.7666    0.0010    0.0000   -0.0606
C        19.8494    8.2795   12.7644    0.0010    0.0000   -0.0605
C        21.0925   10.3847   12.7838   -0.0004    0.0000    0.0288
C        21.0605    8.9757   12.7834   -0.0004   -0.0000    0.0296
H        19.9307   12.2252   12.7677    0.0027    0.0001   -0.1779
H        19.8161    7.1897   12.7642    0.0029   -0.0000   -0.1776
H        22.0002    8.4217   12.7979   -0.0004   -0.0000    0.0349
H        22.0566   10.8949   12.7993   -0.0005    0.0000    0.0331
C         9.0706    8.5177   12.7651   -0.0006    0.0000   -0.0625
C         9.1350   11.3733   12.7663   -0.0006    0.0001   -0.0622
C         7.8920    9.2680   12.7781    0.0004   -0.0000    0.0304
C         7.9240   10.6769   12.7780    0.0004   -0.0000    0.0297
H         9.0541    7.4277   12.7650   -0.0018    0.0001   -0.1831
H         9.1683   12.4630   12.7667   -0.0019    0.0002   -0.1829
H         6.9843   11.2312   12.7887    0.0003   -0.0001    0.0343
H         6.9279    8.7580   12.7877    0.0005   -0.0001    0.0359
C        15.8019    4.4056   12.7477    0.0003    0.0004    0.0584
C        12.9464    4.4688   12.7613    0.0004    0.0006    0.0582
C        15.0523    3.2268   12.7611   -0.0002   -0.0003   -0.0282
C        13.6434    3.2581   12.7682   -0.0002   -0.0002   -0.0281
H        16.8920    4.3900   12.7428    0.0008    0.0012    0.1713
H        11.8565    4.5005   12.7666    0.0010    0.0018    0.1710
H        13.0902    2.3178   12.7803   -0.0003   -0.0001   -0.0326
H        15.5632    2.2628   12.7676   -0.0003   -0.0004   -0.0331
    57
stable frequency at    409.627 1/cm IR int. is 3.108 a.m.u.; force const. is 0.307 mDyne/Ang.
C        10.3153   10.6255   12.7541    0.0006   -0.0000    0.0684
C        11.7250   11.0126   12.7436    0.0002   -0.0001    0.0164
C        13.4288   12.6432   12.7402   -0.0001    0.0002   -0.0187
C        13.8774   14.0347   12.7489   -0.0002    0.0002   -0.0148
C        10.2838    9.2117   12.7538    0.0006   -0.0000    0.0672
C        11.6752    8.7628   12.7434    0.0002   -0.0000    0.0152
C        13.3062    7.0594   12.7390   -0.0002   -0.0002   -0.0175
C        13.6935    5.6496   12.7468   -0.0002   -0.0001   -0.0104
N        12.1457   12.2786   12.7444    0.0000    0.0000    0.0042
N        12.0400    7.4796   12.7439   -0.0000   -0.0001    0.0048
C        15.2912   14.0035   12.7457   -0.0001   -0.0001    0.0116
C        15.6785   12.5937   12.7355   -0.0000   -0.0002    0.0178
C        17.3094   10.8903   12.7347    0.0003    0.0000   -0.0155
C        18.7010   10.4413   12.7487    0.0009    0.0000   -0.0682
C        17.2595    8.6406   12.7332    0.0003   -0.0001   -0.0166
C        18.6693    9.0275   12.7476    0.0009   -0.0000   -0.0693
C        15.1073    5.6184   12.7412   -0.0001    0.0002    0.0160
C        15.5559    7.0099   12.7320   -0.0000    0.0002    0.0188
N        16.9446   12.1735   12.7365    0.0001   -0.0000   -0.0048
N        16.8391    7.3745   12.7331    0.0001    0.0000   -0.0042
N        12.4947    9.8701   12.7367   -0.0002   -0.0000   -0.0347
N        14.5362   11.8239   12.7312   -0.0001    0.0000    0.0009
N        16.4900    9.7831   12.7252   -0.0001   -0.0001    0.0354
N        14.4485    7.8292   12.7301   -0.0001   -0.0000   -0.0016
C        13.1827   15.2473   12.7623   -0.0001    0.0001    0.0004
Zn       14.4924    9.8265   12.7264    0.0000   -0.0000    0.0000
C        16.0384   15.1842   12.7549   -0.0001   -0.0001    0.0038
C        13.9324   16.4262   12.7720    0.0000   -0.0000    0.0104
C        15.3413   16.3949   12.7682   -0.0000    0.0001   -0.0124
H        12.0925   15.2624   12.7653   -0.0001    0.0001    0.0070
H        17.1282   15.1517   12.7524   -0.0001   -0.0002    0.0050
H        15.8945   17.3351   12.7765    0.0000    0.0002   -0.0291
H        13.4215   17.3900   12.7831    0.0001   -0.0002    0.0266
C        19.9141   11.1351   12.7666   -0.0013   -0.0001    0.0870
C        19.8494    8.2795   12.7644   -0.0013    0.0000    0.0867
C        21.0925   10.3847   12.7838    0.0007    0.0000   -0.0407
C        21.0605    8.9757   12.7834    0.0007    0.0000   -0.0401
H        19.9307   12.2252   12.7677   -0.0038   -0.0003    0.2509
H        19.8161    7.1897   12.7642   -0.0038    0.0001    0.2505
H        22.0002    8.4217   12.7979    0.0007    0.0000   -0.0492
H        22.0566   10.8949   12.7993    0.0009    0.0001   -0.0508
C         9.0706    8.5177   12.7651   -0.0008    0.0000   -0.0857
C         9.1350   11.3733   12.7663   -0.0008    0.0001   -0.0853
C         7.8920    9.2680   12.7781    0.0005   -0.0000    0.0400
C         7.9240   10.6769   12.7780    0.0005   -0.0000    0.0393
H         9.0541    7.4277   12.7650   -0.0025    0.0001   -0.2470
H         9.1683   12.4630   12.7667   -0.0025    0.0002   -0.2466
H         6.9843   11.2312   12.7887    0.0005   -0.0001    0.0484
H         6.9279    8.7580   12.7877    0.0007   -0.0000    0.0502
C        15.8019    4.4056   12.7477   -0.0001    0.0001   -0.0019
C        12.9464    4.4688   12.7613   -0.0001   -0.0001   -0.0052
C        15.0523    3.2268   12.7611   -0.0001    0.0000   -0.0097
C        13.6434    3.2581   12.7682    0.0001    0.0001    0.0131
H        16.8920    4.3900   12.7428   -0.0001    0.0001   -0.0114
H        11.8565    4.5005   12.7666   -0.0001   -0.0002   -0.0093
H        13.0902    2.3178   12.7803    0.0002    0.0002    0.0298
H        15.5632    2.2628   12.7676   -0.0001   -0.0001   -0.0257
    57
stable frequency at    409.719 1/cm IR int. is 3.110 a.m.u.; force const. is 0.308 mDyne/Ang.
C        10.3153   10.6255   12.7541   -0.0001    0.0002   -0.0093
C        11.7250   11.0126   12.7436   -0.0002    0.0001   -0.0174
C        13.4288   12.6432   12.7402    0.0001   -0.0002    0.0150
C        13.8774   14.0347   12.7489    0.0000   -0.0005    0.0663
C        10.2838    9.2117   12.7538    0.0002    0.0002    0.0172
C        11.6752    8.7628   12.7434    0.0002    0.0001    0.0191
C        13.3062    7.0594   12.7390   -0.0002   -0.0002   -0.0169
C        13.6935    5.6496   12.7468   -0.0001   -0.0006   -0.0703
N        12.1457   12.2786   12.7444    0.0000   -0.0000    0.0047
N        12.0400    7.4796   12.7439   -0.0002   -0.0001   -0.0043
C        15.2912   14.0035   12.7457   -0.0000   -0.0006    0.0674
C        15.6785   12.5937   12.7355    0.0000   -0.0002    0.0162
C        17.3094   10.8903   12.7347    0.0003    0.0001   -0.0184
C        18.7010   10.4413   12.7487    0.0002    0.0000   -0.0137
C        17.2595    8.6406   12.7332   -0.0003    0.0001    0.0180
C        18.6693    9.0275   12.7476   -0.0002   -0.0000    0.0126
C        15.1073    5.6184   12.7412   -0.0001   -0.0006   -0.0690
C        15.5559    7.0099   12.7320   -0.0002   -0.0002   -0.0156
N        16.9446   12.1735   12.7365    0.0002    0.0000    0.0041
N        16.8391    7.3745   12.7331   -0.0003    0.0001   -0.0049
N        12.4947    9.8701   12.7367    0.0000    0.0001   -0.0022
N        14.5362   11.8239   12.7312   -0.0000    0.0001   -0.0341
N        16.4900    9.7831   12.7252    0.0000    0.0002    0.0003
N        14.4485    7.8292   12.7301   -0.0001    0.0000    0.0360
C        13.1827   15.2473   12.7623   -0.0004    0.0009   -0.0845
Zn       14.4924    9.8265   12.7264   -0.0000   -0.0000    0.0000
C        16.0384   15.1842   12.7549   -0.0002    0.0006   -0.0842
C        13.9324   16.4262   12.7720    0.0001   -0.0004    0.0394
C        15.3413   16.3949   12.7682    0.0001   -0.0006    0.0388
H        12.0925   15.2624   12.7653   -0.0008    0.0026   -0.2434
H        17.1282   15.1517   12.7524   -0.0006    0.0020   -0.2431
H        15.8945   17.3351   12.7765    0.0002   -0.0007    0.0480
H        13.4215   17.3900   12.7831    0.0003   -0.0005    0.0495
C        19.9141   11.1351   12.7666    0.0001    0.0000   -0.0008
C        19.8494    8.2795   12.7644    0.0000    0.0000    0.0025
C        21.0925   10.3847   12.7838   -0.0001    0.0001    0.0110
C        21.0605    8.9757   12.7834    0.0003    0.0001   -0.0117
H        19.9307   12.2252   12.7677   -0.0000    0.0000    0.0032
H        19.8161    7.1897   12.7642    0.0001    0.0000    0.0011
H        22.0002    8.4217   12.7979    0.0005    0.0000   -0.0282
H        22.0566   10.8949   12.7993   -0.0003    0.0000    0.0271
C         9.0706    8.5177   12.7651    0.0002    0.0001   -0.0033
C         9.1350   11.3733   12.7663   -0.0002    0.0001   -0.0066
C         7.8920    9.2680   12.7781    0.0000   -0.0000   -0.0091
C         7.9240   10.6769   12.7780    0.0001   -0.0000    0.0138
H         9.0541    7.4277   12.7650    0.0002    0.0001   -0.0154
H         9.1683   12.4630   12.7667   -0.0004    0.0002   -0.0134
H         6.9843   11.2312   12.7887    0.0002   -0.0002    0.0307
H         6.9279    8.7580   12.7877   -0.0001   -0.0001   -0.0251
C        15.8019    4.4056   12.7477    0.0005    0.0004    0.0882
C        12.9464    4.4688   12.7613    0.0007    0.0009    0.0878
C        15.0523    3.2268   12.7611   -0.0003   -0.0006   -0.0413
C        13.6434    3.2581   12.7682   -0.0003   -0.0004   -0.0404
H        16.8920    4.3900   12.7428    0.0012    0.0017    0.2541
H        11.8565    4.5005   12.7666    0.0015    0.0027    0.2535
H        13.0902    2.3178   12.7803   -0.0005   -0.0003   -0.0497
H        15.5632    2.2628   12.7676   -0.0005   -0.0008   -0.0518
    57
stable frequency at    423.005 1/cm IR int. is 3.232 a.m.u.; force const. is 0.341 mDyne/Ang.
C        10.3153   10.6255   12.7541    0.0006   -0.0001    0.0647
C        11.7250   11.0126   12.7436    0.0001   -0.0001    0.0103
C        13.4288   12.6432   12.7402    0.0000   -0.0001   -0.0020
C        13.8774   14.0347   12.7489    0.0000   -0.0005    0.0538
C        10.2838    9.2117   12.7538    0.0005   -0.0001    0.0535
C        11.6752    8.7628   12.7434    0.0001   -0.0000   -0.0021
C        13.3062    7.0594   12.7390    0.0002    0.0002    0.0104
C        13.6935    5.6496   12.7468    0.0002    0.0005    0.0652
N        12.1457   12.2786   12.7444   -0.0001   -0.0000   -0.0308
N        12.0400    7.4796   12.7439    0.0000    0.0000   -0.0307
C        15.2912   14.0035   12.7457    0.0000   -0.0006    0.0649
C        15.6785   12.5937   12.7355    0.0000   -0.0001    0.0103
C        17.3094   10.8903   12.7347   -0.0001   -0.0000   -0.0020
C        18.7010   10.4413   12.7487   -0.0007   -0.0000    0.0537
C        17.2595    8.6406   12.7332   -0.0002    0.0000    0.0102
C        18.6693    9.0275   12.7476   -0.0009   -0.0000    0.0647
C        15.1073    5.6184   12.7412    0.0001    0.0004    0.0541
C        15.5559    7.0099   12.7320    0.0001    0.0000   -0.0019
N        16.9446   12.1735   12.7365    0.0001    0.0001   -0.0307
N        16.8391    7.3745   12.7331    0.0001   -0.0001   -0.0307
N        12.4947    9.8701   12.7367    0.0000   -0.0000   -0.0077
N        14.5362   11.8239   12.7312    0.0001   -0.0000   -0.0079
N        16.4900    9.7831   12.7252   -0.0001    0.0000   -0.0078
N        14.4485    7.8292   12.7301    0.0002    0.0001   -0.0080
C        13.1827   15.2473   12.7623   -0.0002    0.0006   -0.0551
Zn       14.4924    9.8265   12.7264    0.0000   -0.0000    0.0011
C        16.0384   15.1842   12.7549   -0.0001    0.0004   -0.0535
C        13.9324   16.4262   12.7720    0.0001   -0.0003    0.0302
C        15.3413   16.3949   12.7682    0.0001   -0.0003    0.0208
H        12.0925   15.2624   12.7653   -0.0005    0.0019   -0.1748
H        17.1282   15.1517   12.7524   -0.0004    0.0015   -0.1741
H        15.8945   17.3351   12.7765    0.0001   -0.0002    0.0094
H        13.4215   17.3900   12.7831    0.0002   -0.0003    0.0318
C        19.9141   11.1351   12.7666    0.0008    0.0001   -0.0549
C        19.8494    8.2795   12.7644    0.0008   -0.0001   -0.0533
C        21.0925   10.3847   12.7838   -0.0005   -0.0000    0.0301
C        21.0605    8.9757   12.7834   -0.0004   -0.0001    0.0207
H        19.9307   12.2252   12.7677    0.0027    0.0002   -0.1743
H        19.8161    7.1897   12.7642    0.0026   -0.0001   -0.1735
H        22.0002    8.4217   12.7979   -0.0001   -0.0000    0.0092
H        22.0566   10.8949   12.7993   -0.0006   -0.0001    0.0315
C         9.0706    8.5177   12.7651   -0.0006    0.0000   -0.0548
C         9.1350   11.3733   12.7663   -0.0006    0.0001   -0.0532
C         7.8920    9.2680   12.7781    0.0003   -0.0000    0.0301
C         7.9240   10.6769   12.7780    0.0002   -0.0000    0.0206
H         9.0541    7.4277   12.7650   -0.0019    0.0000   -0.1740
H         9.1683   12.4630   12.7667   -0.0018    0.0001   -0.1732
H         6.9843   11.2312   12.7887    0.0000    0.0000    0.0090
H         6.9279    8.7580   12.7877    0.0003    0.0000    0.0317
C        15.8019    4.4056   12.7477   -0.0003   -0.0003   -0.0555
C        12.9464    4.4688   12.7613   -0.0004   -0.0006   -0.0539
C        15.0523    3.2268   12.7611    0.0002    0.0004    0.0304
C        13.6434    3.2581   12.7682    0.0001    0.0002    0.0209
H        16.8920    4.3900   12.7428   -0.0008   -0.0012   -0.1759
H        11.8565    4.5005   12.7666   -0.0011   -0.0018   -0.1750
H        13.0902    2.3178   12.7803    0.0002   -0.0000    0.0094
H        15.5632    2.2628   12.7676    0.0003    0.0005    0.0321
    57
stable frequency at    424.072 1/cm IR int. is 5.532 a.m.u.; force const. is 0.586 mDyne/Ang.
C        10.3153   10.6255   12.7541    0.0004   -0.0002    0.0492
C        11.7250   11.0126   12.7436    0.0004   -0.0001    0.0611
C        13.4288   12.6432   12.7402   -0.0004    0.0006   -0.0620
C        13.8774   14.0347   12.7489   -0.0004    0.0006   -0.0609
C        10.2838    9.2117   12.7538   -0.0006   -0.0001   -0.0610
C        11.6752    8.7628   12.7434   -0.0005   -0.0001   -0.0620
C        13.3062    7.0594   12.7390    0.0004    0.0004    0.0611
C        13.6935    5.6496   12.7468    0.0005    0.0004    0.0492
N        12.1457   12.2786   12.7444   -0.0001    0.0001    0.0030
N        12.0400    7.4796   12.7439    0.0000    0.0001    0.0029
C        15.2912   14.0035   12.7457   -0.0002   -0.0004    0.0494
C        15.6785   12.5937   12.7355    0.0000   -0.0004    0.0612
C        17.3094   10.8903   12.7347    0.0008    0.0003   -0.0620
C        18.7010   10.4413   12.7487    0.0008   -0.0000   -0.0609
C        17.2595    8.6406   12.7332   -0.0007    0.0001    0.0611
C        18.6693    9.0275   12.7476   -0.0005   -0.0001    0.0492
C        15.1073    5.6184   12.7412    0.0000   -0.0006   -0.0611
C        15.5559    7.0099   12.7320   -0.0001   -0.0004   -0.0620
N        16.9446   12.1735   12.7365    0.0004    0.0001    0.0029
N        16.8391    7.3745   12.7331   -0.0004    0.0000    0.0030
N        12.4947    9.8701   12.7367   -0.0001   -0.0000    0.0009
N        14.5362   11.8239   12.7312   -0.0001    0.0001    0.0009
N        16.4900    9.7831   12.7252    0.0001    0.0002    0.0009
N        14.4485    7.8292   12.7301    0.0001   -0.0000    0.0009
C        13.1827   15.2473   12.7623   -0.0001    0.0002   -0.0021
Zn       14.4924    9.8265   12.7264   -0.0000   -0.0000   -0.0001
C        16.0384   15.1842   12.7549   -0.0001   -0.0002    0.0128
C        13.9324   16.4262   12.7720    0.0002   -0.0003    0.0457
C        15.3413   16.3949   12.7682   -0.0001    0.0005   -0.0508
H        12.0925   15.2624   12.7653   -0.0001    0.0003    0.0146
H        17.1282   15.1517   12.7524   -0.0001   -0.0005    0.0198
H        15.8945   17.3351   12.7765   -0.0001    0.0010   -0.1161
H        13.4215   17.3900   12.7831    0.0005   -0.0010    0.1120
C        19.9141   11.1351   12.7666   -0.0000   -0.0001   -0.0020
C        19.8494    8.2795   12.7644   -0.0000   -0.0001    0.0128
C        21.0925   10.3847   12.7838   -0.0007   -0.0001    0.0456
C        21.0605    8.9757   12.7834    0.0009   -0.0000   -0.0508
H        19.9307   12.2252   12.7677   -0.0003   -0.0001    0.0149
H        19.8161    7.1897   12.7642   -0.0000   -0.0001    0.0200
H        22.0002    8.4217   12.7979    0.0019    0.0001   -0.1158
H        22.0566   10.8949   12.7993   -0.0018   -0.0000    0.1118
C         9.0706    8.5177   12.7651   -0.0002   -0.0000   -0.0020
C         9.1350   11.3733   12.7663    0.0001   -0.0001    0.0129
C         7.8920    9.2680   12.7781    0.0004    0.0001    0.0456
C         7.9240   10.6769   12.7780   -0.0005    0.0001   -0.0509
H         9.0541    7.4277   12.7650   -0.0001   -0.0000    0.0150
H         9.1683   12.4630   12.7667    0.0003   -0.0001    0.0202
H         6.9843   11.2312   12.7887   -0.0012    0.0002   -0.1160
H         6.9279    8.7580   12.7877    0.0011    0.0001    0.1121
C        15.8019    4.4056   12.7477    0.0001   -0.0003   -0.0019
C        12.9464    4.4688   12.7613    0.0002    0.0002    0.0130
C        15.0523    3.2268   12.7611    0.0001    0.0002    0.0456
C        13.6434    3.2581   12.7682   -0.0003   -0.0004   -0.0509
H        16.8920    4.3900   12.7428    0.0002   -0.0004    0.0152
H        11.8565    4.5005   12.7666    0.0002    0.0005    0.0204
H        13.0902    2.3178   12.7803   -0.0009   -0.0009   -0.1161
H        15.5632    2.2628   12.7676    0.0003    0.0008    0.1119
    57
stable frequency at    476.358 1/cm IR int. is 5.632 a.m.u.; force const. is 0.753 mDyne/Ang.
C        10.3153   10.6255   12.7541    0.0072   -0.0601    0.0002
C        11.7250   11.0126   12.7436   -0.0110    0.0115    0.0004
C        13.4288   12.6432   12.7402   -0.0110    0.0115   -0.0003
C        13.8774   14.0347   12.7489    0.0597   -0.0099   -0.0004
C        10.2838    9.2117   12.7538   -0.0099   -0.0597   -0.0003
C        11.6752    8.7628   12.7434    0.0115    0.0110   -0.0003
C        13.3062    7.0594   12.7390    0.0115    0.0110    0.0001
C        13.6935    5.6496   12.7468   -0.0601   -0.0072    0.0001
N        12.1457   12.2786   12.7444   -0.0317    0.0332   -0.0000
N        12.0400    7.4796   12.7439    0.0332    0.0317    0.0002
C        15.2912   14.0035   12.7457    0.0601    0.0072    0.0009
C        15.6785   12.5937   12.7355   -0.0115   -0.0110    0.0003
C        17.3094   10.8903   12.7347   -0.0115   -0.0110    0.0003
C        18.7010   10.4413   12.7487    0.0099    0.0597    0.0010
C        17.2595    8.6406   12.7332    0.0110   -0.0115   -0.0004
C        18.6693    9.0275   12.7476   -0.0072    0.0601   -0.0009
C        15.1073    5.6184   12.7412   -0.0597    0.0099   -0.0008
C        15.5559    7.0099   12.7320    0.0110   -0.0115   -0.0002
N        16.9446   12.1735   12.7365   -0.0331   -0.0317   -0.0007
N        16.8391    7.3745   12.7331    0.0317   -0.0331    0.0005
N        12.4947    9.8701   12.7367    0.0006    0.0274   -0.0000
N        14.5362   11.8239   12.7312   -0.0274    0.0006    0.0002
N        16.4900    9.7831   12.7252   -0.0006   -0.0273    0.0000
N        14.4485    7.8292   12.7301    0.0273   -0.0006   -0.0002
C        13.1827   15.2473   12.7623    0.0358   -0.0433   -0.0009
Zn       14.4924    9.8265   12.7264    0.0000   -0.0000    0.0000
C        16.0384   15.1842   12.7549    0.0379    0.0415    0.0003
C        13.9324   16.4262   12.7720   -0.0075   -0.0228    0.0004
C        15.3413   16.3949   12.7682   -0.0064    0.0229   -0.0003
H        12.0925   15.2624   12.7653    0.0356   -0.0904   -0.0019
H        17.1282   15.1517   12.7524    0.0397    0.0888    0.0001
H        15.8945   17.3351   12.7765   -0.0418    0.0441   -0.0008
H        13.4215   17.3900   12.7831   -0.0433   -0.0420    0.0012
C        19.9141   11.1351   12.7666    0.0433    0.0357    0.0009
C        19.8494    8.2795   12.7644   -0.0415    0.0379   -0.0009
C        21.0925   10.3847   12.7838    0.0228   -0.0075   -0.0004
C        21.0605    8.9757   12.7834   -0.0230   -0.0064    0.0005
H        19.9307   12.2252   12.7677    0.0904    0.0355    0.0013
H        19.8161    7.1897   12.7642   -0.0888    0.0398   -0.0016
H        22.0002    8.4217   12.7979   -0.0442   -0.0418    0.0010
H        22.0566   10.8949   12.7993    0.0420   -0.0433   -0.0016
C         9.0706    8.5177   12.7651   -0.0433   -0.0358    0.0003
C         9.1350   11.3733   12.7663    0.0415   -0.0379   -0.0003
C         7.8920    9.2680   12.7781   -0.0228    0.0075    0.0006
C         7.9240   10.6769   12.7780    0.0230    0.0064   -0.0005
H         9.0541    7.4277   12.7650   -0.0904   -0.0355    0.0005
H         9.1683   12.4630   12.7667    0.0889   -0.0398   -0.0008
H         6.9843   11.2312   12.7887    0.0442    0.0418   -0.0013
H         6.9279    8.7580   12.7877   -0.0420    0.0433    0.0010
C        15.8019    4.4056   12.7477   -0.0358    0.0433    0.0000
C        12.9464    4.4688   12.7613   -0.0378   -0.0415    0.0010
C        15.0523    3.2268   12.7611    0.0075    0.0228   -0.0001
C        13.6434    3.2581   12.7682    0.0064   -0.0230   -0.0004
H        16.8920    4.3900   12.7428   -0.0356    0.0904    0.0009
H        11.8565    4.5005   12.7666   -0.0397   -0.0888    0.0024
H        13.0902    2.3178   12.7803    0.0418   -0.0441   -0.0004
H        15.5632    2.2628   12.7676    0.0433    0.0420    0.0005
    57
stable frequency at    486.368 1/cm IR int. is 4.841 a.m.u.; force const. is 0.675 mDyne/Ang.
C        10.3153   10.6255   12.7541    0.0003    0.0004    0.0418
C        11.7250   11.0126   12.7436    0.0002   -0.0003   -0.0037
C        13.4288   12.6432   12.7402    0.0005   -0.0008    0.0404
C        13.8774   14.0347   12.7489   -0.0004   -0.0007    0.0771
C        10.2838    9.2117   12.7538    0.0001    0.0005    0.0141
C        11.6752    8.7628   12.7434   -0.0003    0.0001   -0.0202
C        13.3062    7.0594   12.7390    0.0003    0.0006    0.0449
C        13.6935    5.6496   12.7468   -0.0003    0.0005    0.0662
N        12.1457   12.2786   12.7444    0.0003   -0.0006   -0.0619
N        12.0400    7.4796   12.7439   -0.0002    0.0002   -0.0418
C        15.2912   14.0035   12.7457   -0.0007    0.0006   -0.0663
C        15.6785   12.5937   12.7355    0.0001    0.0006   -0.0449
C        17.3094   10.8903   12.7347   -0.0003    0.0000    0.0202
C        18.7010   10.4413   12.7487    0.0002    0.0005   -0.0141
C        17.2595    8.6406   12.7332    0.0003   -0.0003    0.0037
C        18.6693    9.0275   12.7476    0.0005    0.0005   -0.0418
C        15.1073    5.6184   12.7412   -0.0008   -0.0006   -0.0771
C        15.5559    7.0099   12.7320    0.0002   -0.0007   -0.0403
N        16.9446   12.1735   12.7365   -0.0002    0.0001    0.0419
N        16.8391    7.3745   12.7331    0.0003   -0.0006    0.0618
N        12.4947    9.8701   12.7367    0.0002   -0.0003    0.0195
N        14.5362   11.8239   12.7312    0.0006   -0.0002    0.0037
N        16.4900    9.7831   12.7252    0.0003   -0.0003   -0.0195
N        14.4485    7.8292   12.7301    0.0005   -0.0001   -0.0037
C        13.1827   15.2473   12.7623   -0.0002    0.0001    0.0296
Zn       14.4924    9.8265   12.7264   -0.0001    0.0001    0.0000
C        16.0384   15.1842   12.7549   -0.0005   -0.0000   -0.0328
C        13.9324   16.4262   12.7720   -0.0000    0.0010   -0.0698
C        15.3413   16.3949   12.7682    0.0003   -0.0007    0.0717
H        12.0925   15.2624   12.7653   -0.0002    0.0007    0.0222
H        17.1282   15.1517   12.7524   -0.0005   -0.0005   -0.0431
H        15.8945   17.3351   12.7765    0.0009   -0.0019    0.1682
H        13.4215   17.3900   12.7831   -0.0001    0.0022   -0.1726
C        19.9141   11.1351   12.7666   -0.0000    0.0003    0.0141
C        19.8494    8.2795   12.7644   -0.0004    0.0003    0.0021
C        21.0925   10.3847   12.7838    0.0003   -0.0001   -0.0183
C        21.0605    8.9757   12.7834   -0.0004   -0.0001    0.0089
H        19.9307   12.2252   12.7677   -0.0003    0.0002    0.0586
H        19.8161    7.1897   12.7642   -0.0015    0.0003    0.0459
H        22.0002    8.4217   12.7979   -0.0011   -0.0003    0.0447
H        22.0566   10.8949   12.7993    0.0005   -0.0003   -0.0208
C         9.0706    8.5177   12.7651    0.0001    0.0002   -0.0141
C         9.1350   11.3733   12.7663   -0.0003    0.0003   -0.0020
C         7.8920    9.2680   12.7781    0.0003   -0.0001    0.0183
C         7.9240   10.6769   12.7780   -0.0002   -0.0001   -0.0090
H         9.0541    7.4277   12.7650   -0.0000    0.0003   -0.0587
H         9.1683   12.4630   12.7667   -0.0012    0.0004   -0.0459
H         6.9843   11.2312   12.7887   -0.0008   -0.0003   -0.0449
H         6.9279    8.7580   12.7877    0.0004   -0.0003    0.0210
C        15.8019    4.4056   12.7477   -0.0004    0.0001   -0.0295
C        12.9464    4.4688   12.7613   -0.0002   -0.0001    0.0328
C        15.0523    3.2268   12.7611    0.0005    0.0007    0.0697
C        13.6434    3.2581   12.7682   -0.0002   -0.0008   -0.0717
H        16.8920    4.3900   12.7428   -0.0004    0.0006   -0.0220
H        11.8565    4.5005   12.7666   -0.0001   -0.0005    0.0433
H        13.0902    2.3178   12.7803   -0.0005   -0.0018   -0.1680
H        15.5632    2.2628   12.7676    0.0012    0.0018    0.1725
    57
stable frequency at    486.427 1/cm IR int. is 4.843 a.m.u.; force const. is 0.675 mDyne/Ang.
C        10.3153   10.6255   12.7541    0.0006    0.0022    0.0663
C        11.7250   11.0126   12.7436    0.0012   -0.0007    0.0449
C        13.4288   12.6432   12.7402    0.0006   -0.0001   -0.0201
C        13.8774   14.0347   12.7489   -0.0002    0.0000    0.0142
C        10.2838    9.2117   12.7538   -0.0007    0.0022   -0.0771
C        11.6752    8.7628   12.7434   -0.0014   -0.0008   -0.0403
C        13.3062    7.0594   12.7390   -0.0008   -0.0004    0.0037
C        13.6935    5.6496   12.7468    0.0006   -0.0002   -0.0419
N        12.1457   12.2786   12.7444    0.0013   -0.0010   -0.0419
N        12.0400    7.4796   12.7439   -0.0015   -0.0012    0.0619
C        15.2912   14.0035   12.7457   -0.0002   -0.0003    0.0417
C        15.6785   12.5937   12.7355   -0.0004   -0.0001   -0.0038
C        17.3094   10.8903   12.7347   -0.0015   -0.0007    0.0404
C        18.7010   10.4413   12.7487   -0.0012    0.0012    0.0770
C        17.2595    8.6406   12.7332    0.0012   -0.0006   -0.0450
C        18.6693    9.0275   12.7476    0.0009    0.0013   -0.0662
C        15.1073    5.6184   12.7412    0.0008   -0.0001   -0.0140
C        15.5559    7.0099   12.7320    0.0003    0.0001    0.0202
N        16.9446   12.1735   12.7365   -0.0010   -0.0006   -0.0618
N        16.8391    7.3745   12.7331    0.0009   -0.0005    0.0418
N        12.4947    9.8701   12.7367   -0.0002   -0.0017   -0.0037
N        14.5362   11.8239   12.7312    0.0002   -0.0003    0.0195
N        16.4900    9.7831   12.7252   -0.0002   -0.0013    0.0037
N        14.4485    7.8292   12.7301   -0.0006   -0.0003   -0.0195
C        13.1827   15.2473   12.7623   -0.0002    0.0005   -0.0141
Zn       14.4924    9.8265   12.7264    0.0001    0.0002    0.0000
C        16.0384   15.1842   12.7549   -0.0002   -0.0000   -0.0021
C        13.9324   16.4262   12.7720    0.0001    0.0001    0.0182
C        15.3413   16.3949   12.7682    0.0001    0.0002   -0.0089
H        12.0925   15.2624   12.7653   -0.0003    0.0013   -0.0586
H        17.1282   15.1517   12.7524   -0.0003    0.0002   -0.0459
H        15.8945   17.3351   12.7765    0.0002    0.0004   -0.0446
H        13.4215   17.3900   12.7831    0.0003    0.0002    0.0207
C        19.9141   11.1351   12.7666    0.0003    0.0005    0.0294
C        19.8494    8.2795   12.7644   -0.0002    0.0008   -0.0327
C        21.0925   10.3847   12.7838    0.0014   -0.0003   -0.0697
C        21.0605    8.9757   12.7834   -0.0014   -0.0003    0.0716
H        19.9307   12.2252   12.7677    0.0016    0.0005    0.0220
H        19.8161    7.1897   12.7642   -0.0014    0.0008   -0.0430
H        22.0002    8.4217   12.7979   -0.0032   -0.0010    0.1676
H        22.0566   10.8949   12.7993    0.0034   -0.0008   -0.1724
C         9.0706    8.5177   12.7651    0.0010    0.0011   -0.0296
C         9.1350   11.3733   12.7663   -0.0010    0.0013    0.0329
C         7.8920    9.2680   12.7781    0.0014   -0.0005    0.0698
C         7.9240   10.6769   12.7780   -0.0013   -0.0004   -0.0718
H         9.0541    7.4277   12.7650    0.0030    0.0011   -0.0222
H         9.1683   12.4630   12.7667   -0.0029    0.0013    0.0433
H         6.9843   11.2312   12.7887   -0.0030   -0.0015   -0.1680
H         6.9279    8.7580   12.7877    0.0031   -0.0016    0.1730
C        15.8019    4.4056   12.7477    0.0006   -0.0003    0.0142
C        12.9464    4.4688   12.7613    0.0005    0.0007    0.0020
C        15.0523    3.2268   12.7611   -0.0002   -0.0002   -0.0184
C        13.6434    3.2581   12.7682   -0.0000    0.0006    0.0091
H        16.8920    4.3900   12.7428    0.0008   -0.0005    0.0587
H        11.8565    4.5005   12.7666    0.0008    0.0018    0.0458
H        13.0902    2.3178   12.7803   -0.0003    0.0012    0.0450
H        15.5632    2.2628   12.7676   -0.0007   -0.0005   -0.0212
    57
stable frequency at    497.283 1/cm IR int. is 6.942 a.m.u.; force const. is 1.011 mDyne/Ang.
C        10.3153   10.6255   12.7541    0.0005   -0.0424    0.0014
C        11.7250   11.0126   12.7436   -0.0260    0.0330    0.0006
C        13.4288   12.6432   12.7402   -0.0325    0.0322    0.0005
C        13.8774   14.0347   12.7489    0.0561   -0.0020    0.0012
C        10.2838    9.2117   12.7538    0.0010   -0.0448   -0.0008
C        11.6752    8.7628   12.7434    0.0133   -0.0017   -0.0008
C        13.3062    7.0594   12.7390   -0.0079   -0.0210    0.0006
C        13.6935    5.6496   12.7468    0.0581   -0.0029   -0.0001
N        12.1457   12.2786   12.7444   -0.0648    0.0691   -0.0010
N        12.0400    7.4796   12.7439   -0.0046   -0.0135    0.0004
C        15.2912   14.0035   12.7457    0.0580   -0.0029   -0.0004
C        15.6785   12.5937   12.7355   -0.0079   -0.0210   -0.0008
C        17.3094   10.8903   12.7347    0.0133   -0.0017    0.0008
C        18.7010   10.4413   12.7487    0.0010   -0.0449    0.0006
C        17.2595    8.6406   12.7332   -0.0260    0.0330   -0.0006
C        18.6693    9.0275   12.7476    0.0005   -0.0425   -0.0012
C        15.1073    5.6184   12.7412    0.0562   -0.0020   -0.0006
C        15.5559    7.0099   12.7320   -0.0325    0.0322    0.0000
N        16.9446   12.1735   12.7365   -0.0046   -0.0135   -0.0003
N        16.8391    7.3745   12.7331   -0.0648    0.0691    0.0009
N        12.4947    9.8701   12.7367   -0.0063    0.0374    0.0001
N        14.5362   11.8239   12.7312   -0.0487    0.0066    0.0003
N        16.4900    9.7831   12.7252   -0.0063    0.0374   -0.0001
N        14.4485    7.8292   12.7301   -0.0487    0.0066   -0.0000
C        13.1827   15.2473   12.7623    0.0281   -0.0391   -0.0002
Zn       14.4924    9.8265   12.7264    0.0055   -0.0044   -0.0000
C        16.0384   15.1842   12.7549    0.0342    0.0281   -0.0004
C        13.9324   16.4262   12.7720   -0.0131   -0.0223   -0.0009
C        15.3413   16.3949   12.7682   -0.0127    0.0087    0.0010
H        12.0925   15.2624   12.7653    0.0278   -0.0924   -0.0014
H        17.1282   15.1517   12.7524    0.0361    0.0788   -0.0008
H        15.8945   17.3351   12.7765   -0.0433    0.0270    0.0021
H        13.4215   17.3900   12.7831   -0.0395   -0.0367   -0.0023
C        19.9141   11.1351   12.7666   -0.0202   -0.0263    0.0002
C        19.8494    8.2795   12.7644    0.0315   -0.0219    0.0000
C        21.0925   10.3847   12.7838   -0.0026    0.0100   -0.0010
C        21.0605    8.9757   12.7834    0.0212    0.0090    0.0012
H        19.9307   12.2252   12.7677   -0.0581   -0.0259    0.0003
H        19.8161    7.1897   12.7642    0.0730   -0.0236    0.0010
H        22.0002    8.4217   12.7979    0.0328    0.0281    0.0030
H        22.0566   10.8949   12.7993   -0.0160    0.0350   -0.0022
C         9.0706    8.5177   12.7651   -0.0202   -0.0262   -0.0005
C         9.1350   11.3733   12.7663    0.0315   -0.0219    0.0002
C         7.8920    9.2680   12.7781   -0.0026    0.0100    0.0012
C         7.9240   10.6769   12.7780    0.0212    0.0090   -0.0013
H         9.0541    7.4277   12.7650   -0.0580   -0.0259   -0.0007
H         9.1683   12.4630   12.7667    0.0730   -0.0236   -0.0006
H         6.9843   11.2312   12.7887    0.0328    0.0280   -0.0033
H         6.9279    8.7580   12.7877   -0.0160    0.0350    0.0028
C        15.8019    4.4056   12.7477    0.0281   -0.0391    0.0000
C        12.9464    4.4688   12.7613    0.0343    0.0282   -0.0004
C        15.0523    3.2268   12.7611   -0.0131   -0.0223    0.0005
C        13.6434    3.2581   12.7682   -0.0127    0.0087   -0.0003
H        16.8920    4.3900   12.7428    0.0279   -0.0925    0.0004
H        11.8565    4.5005   12.7666    0.0361    0.0789   -0.0005
H        13.0902    2.3178   12.7803   -0.0434    0.0271   -0.0005
H        15.5632    2.2628   12.7676   -0.0396   -0.0368    0.0011
    57
stable frequency at    497.303 1/cm IR int. is 6.942 a.m.u.; force const. is 1.012 mDyne/Ang.
C        10.3153   10.6255   12.7541   -0.0029   -0.0580    0.0016
C        11.7250   11.0126   12.7436   -0.0209    0.0079    0.0012
C        13.4288   12.6432   12.7402   -0.0016   -0.0133   -0.0004
C        13.8774   14.0347   12.7489   -0.0449   -0.0010    0.0007
C        10.2838    9.2117   12.7538   -0.0021   -0.0561   -0.0019
C        11.6752    8.7628   12.7434    0.0322    0.0325   -0.0010
C        13.3062    7.0594   12.7390    0.0330    0.0260   -0.0003
C        13.6935    5.6496   12.7468   -0.0424   -0.0005   -0.0014
N        12.1457   12.2786   12.7444   -0.0135    0.0046   -0.0010
N        12.0400    7.4796   12.7439    0.0691    0.0648    0.0012
C        15.2912   14.0035   12.7457   -0.0425   -0.0005    0.0004
C        15.6785   12.5937   12.7355    0.0330    0.0260   -0.0003
C        17.3094   10.8903   12.7347    0.0322    0.0324    0.0010
C        18.7010   10.4413   12.7487   -0.0021   -0.0562    0.0014
C        17.2595    8.6406   12.7332   -0.0209    0.0079   -0.0011
C        18.6693    9.0275   12.7476   -0.0030   -0.0580   -0.0011
C        15.1073    5.6184   12.7412   -0.0448   -0.0010    0.0001
C        15.5559    7.0099   12.7320   -0.0016   -0.0133    0.0007
N        16.9446   12.1735   12.7365    0.0691    0.0648   -0.0008
N        16.8391    7.3745   12.7331   -0.0135    0.0046    0.0007
N        12.4947    9.8701   12.7367    0.0066    0.0487   -0.0000
N        14.5362   11.8239   12.7312    0.0374    0.0063    0.0002
N        16.4900    9.7831   12.7252    0.0066    0.0487    0.0001
N        14.4485    7.8292   12.7301    0.0374    0.0063   -0.0004
C        13.1827   15.2473   12.7623   -0.0263    0.0202    0.0002
Zn       14.4924    9.8265   12.7264   -0.0044   -0.0055    0.0000
C        16.0384   15.1842   12.7549   -0.0219   -0.0315   -0.0004
C        13.9324   16.4262   12.7720    0.0100    0.0026   -0.0001
C        15.3413   16.3949   12.7682    0.0090   -0.0212    0.0000
H        12.0925   15.2624   12.7653   -0.0260    0.0581   -0.0003
H        17.1282   15.1517   12.7524   -0.0236   -0.0730   -0.0015
H        15.8945   17.3351   12.7765    0.0281   -0.0329   -0.0003
H        13.4215   17.3900   12.7831    0.0350    0.0161   -0.0006
C        19.9141   11.1351   12.7666   -0.0391   -0.0281   -0.0000
C        19.8494    8.2795   12.7644    0.0281   -0.0343   -0.0002
C        21.0925   10.3847   12.7838   -0.0223    0.0131   -0.0016
C        21.0605    8.9757   12.7834    0.0087    0.0127    0.0014
H        19.9307   12.2252   12.7677   -0.0924   -0.0277   -0.0008
H        19.8161    7.1897   12.7642    0.0788   -0.0362    0.0000
H        22.0002    8.4217   12.7979    0.0271    0.0434    0.0034
H        22.0566   10.8949   12.7993   -0.0367    0.0396   -0.0034
C         9.0706    8.5177   12.7651   -0.0391   -0.0280   -0.0005
C         9.1350   11.3733   12.7663    0.0281   -0.0343    0.0005
C         7.8920    9.2680   12.7781   -0.0223    0.0131    0.0020
C         7.9240   10.6769   12.7780    0.0087    0.0127   -0.0018
H         9.0541    7.4277   12.7650   -0.0924   -0.0277    0.0001
H         9.1683   12.4630   12.7667    0.0788   -0.0362    0.0004
H         6.9843   11.2312   12.7887    0.0271    0.0433   -0.0043
H         6.9279    8.7580   12.7877   -0.0367    0.0396    0.0046
C        15.8019    4.4056   12.7477   -0.0263    0.0202    0.0006
C        12.9464    4.4688   12.7613   -0.0218   -0.0315    0.0003
C        15.0523    3.2268   12.7611    0.0100    0.0026   -0.0010
C        13.6434    3.2581   12.7682    0.0090   -0.0212    0.0007
H        16.8920    4.3900   12.7428   -0.0259    0.0580    0.0017
H        11.8565    4.5005   12.7666   -0.0235   -0.0729    0.0018
H        13.0902    2.3178   12.7803    0.0281   -0.0328    0.0025
H        15.5632    2.2628   12.7676    0.0350    0.0160   -0.0018
    57
stable frequency at    512.866 1/cm IR int. is 4.249 a.m.u.; force const. is 0.659 mDyne/Ang.
C        10.3153   10.6255   12.7541   -0.0004   -0.0002   -0.0517
C        11.7250   11.0126   12.7436   -0.0001    0.0002   -0.0142
C        13.4288   12.6432   12.7402    0.0000    0.0003   -0.0142
C        13.8774   14.0347   12.7489   -0.0006    0.0006   -0.0517
C        10.2838    9.2117   12.7538    0.0006   -0.0002    0.0517
C        11.6752    8.7628   12.7434    0.0005    0.0001    0.0142
C        13.3062    7.0594   12.7390    0.0002   -0.0000    0.0143
C        13.6935    5.6496   12.7468    0.0005    0.0003    0.0518
N        12.1457   12.2786   12.7444    0.0003    0.0000    0.0482
N        12.0400    7.4796   12.7439   -0.0000   -0.0000   -0.0483
C        15.2912   14.0035   12.7457   -0.0003   -0.0003    0.0518
C        15.6785   12.5937   12.7355    0.0002    0.0003    0.0142
C        17.3094   10.8903   12.7347   -0.0002    0.0003    0.0144
C        18.7010   10.4413   12.7487   -0.0009   -0.0008    0.0519
C        17.2595    8.6406   12.7332   -0.0002    0.0001   -0.0144
C        18.6693    9.0275   12.7476    0.0006   -0.0007   -0.0519
C        15.1073    5.6184   12.7412    0.0001   -0.0005   -0.0518
C        15.5559    7.0099   12.7320   -0.0003   -0.0001   -0.0142
N        16.9446   12.1735   12.7365    0.0007    0.0009   -0.0484
N        16.8391    7.3745   12.7331   -0.0008    0.0005    0.0484
N        12.4947    9.8701   12.7367    0.0002    0.0003   -0.0000
N        14.5362   11.8239   12.7312    0.0004    0.0003    0.0001
N        16.4900    9.7831   12.7252   -0.0002    0.0005   -0.0000
N        14.4485    7.8292   12.7301   -0.0002   -0.0001   -0.0000
C        13.1827   15.2473   12.7623   -0.0006    0.0004   -0.0319
Zn       14.4924    9.8265   12.7264   -0.0000   -0.0001   -0.0000
C        16.0384   15.1842   12.7549    0.0001   -0.0007    0.0319
C        13.9324   16.4262   12.7720    0.0002   -0.0008    0.0580
C        15.3413   16.3949   12.7682   -0.0001    0.0001   -0.0581
H        12.0925   15.2624   12.7653   -0.0006    0.0008   -0.0347
H        17.1282   15.1517   12.7524    0.0000   -0.0012    0.0350
H        15.8945   17.3351   12.7765   -0.0002    0.0009   -0.1405
H        13.4215   17.3900   12.7831    0.0009   -0.0015    0.1404
C        19.9141   11.1351   12.7666   -0.0009   -0.0007    0.0319
C        19.8494    8.2795   12.7644    0.0010   -0.0002   -0.0319
C        21.0925   10.3847   12.7838    0.0009    0.0001   -0.0582
C        21.0605    8.9757   12.7834   -0.0005    0.0001    0.0583
H        19.9307   12.2252   12.7677   -0.0016   -0.0007    0.0346
H        19.8161    7.1897   12.7642    0.0017   -0.0003   -0.0351
H        22.0002    8.4217   12.7979   -0.0015    0.0003    0.1406
H        22.0566   10.8949   12.7993    0.0019    0.0008   -0.1408
C         9.0706    8.5177   12.7651    0.0002    0.0001    0.0319
C         9.1350   11.3733   12.7663   -0.0003   -0.0003   -0.0319
C         7.8920    9.2680   12.7781   -0.0009    0.0001   -0.0579
C         7.9240   10.6769   12.7780    0.0004    0.0000    0.0581
H         9.0541    7.4277   12.7650   -0.0000    0.0001    0.0346
H         9.1683   12.4630   12.7667   -0.0001   -0.0003   -0.0351
H         6.9843   11.2312   12.7887    0.0014    0.0002    0.1401
H         6.9279    8.7580   12.7877   -0.0017    0.0001   -0.1406
C        15.8019    4.4056   12.7477    0.0002   -0.0005   -0.0319
C        12.9464    4.4688   12.7613    0.0002    0.0004    0.0320
C        15.0523    3.2268   12.7611    0.0003    0.0005    0.0581
C        13.6434    3.2581   12.7682   -0.0004   -0.0004   -0.0582
H        16.8920    4.3900   12.7428    0.0001   -0.0008   -0.0345
H        11.8565    4.5005   12.7666    0.0002    0.0007    0.0353
H        13.0902    2.3178   12.7803   -0.0009   -0.0010   -0.1405
H        15.5632    2.2628   12.7676    0.0004    0.0011    0.1406
    57
stable frequency at    544.388 1/cm IR int. is 8.143 a.m.u.; force const. is 1.422 mDyne/Ang.
C        10.3153   10.6255   12.7541   -0.0238    0.0033    0.0001
C        11.7250   11.0126   12.7436   -0.0403   -0.0129    0.0002
C        13.4288   12.6432   12.7402   -0.0148   -0.0398   -0.0003
C        13.8774   14.0347   12.7489    0.0021   -0.0241   -0.0006
C        10.2838    9.2117   12.7538   -0.0242   -0.0021    0.0006
C        11.6752    8.7628   12.7434   -0.0399    0.0148    0.0004
C        13.3062    7.0594   12.7390   -0.0130    0.0404   -0.0001
C        13.6935    5.6496   12.7468    0.0033    0.0239   -0.0002
N        12.1457   12.2786   12.7444   -0.0228   -0.0217    0.0003
N        12.0400    7.4796   12.7439   -0.0218    0.0228   -0.0001
C        15.2912   14.0035   12.7457   -0.0032   -0.0239   -0.0001
C        15.6785   12.5937   12.7355    0.0130   -0.0404   -0.0003
C        17.3094   10.8903   12.7347    0.0399   -0.0148    0.0005
C        18.7010   10.4413   12.7487    0.0242    0.0021    0.0009
C        17.2595    8.6406   12.7332    0.0403    0.0129    0.0003
C        18.6693    9.0275   12.7476    0.0239   -0.0033    0.0004
C        15.1073    5.6184   12.7412   -0.0021    0.0241   -0.0005
C        15.5559    7.0099   12.7320    0.0148    0.0398   -0.0004
N        16.9446   12.1735   12.7365    0.0218   -0.0229   -0.0003
N        16.8391    7.3745   12.7331    0.0228    0.0217    0.0001
N        12.4947    9.8701   12.7367   -0.0431    0.0010    0.0004
N        14.5362   11.8239   12.7312   -0.0010   -0.0431   -0.0004
N        16.4900    9.7831   12.7252    0.0431   -0.0010    0.0005
N        14.4485    7.8292   12.7301    0.0010    0.0431   -0.0003
C        13.1827   15.2473   12.7623    0.0493    0.0189   -0.0001
Zn       14.4924    9.8265   12.7264   -0.0000   -0.0000   -0.0000
C        16.0384   15.1842   12.7549   -0.0484    0.0212    0.0004
C        13.9324   16.4262   12.7720    0.0046    0.0553    0.0009
C        15.3413   16.3949   12.7682   -0.0022    0.0556    0.0002
H        12.0925   15.2624   12.7653    0.0489    0.0290    0.0001
H        17.1282   15.1517   12.7524   -0.0476    0.0304    0.0006
H        15.8945   17.3351   12.7765    0.0362    0.0336   -0.0001
H        13.4215   17.3900   12.7831   -0.0357    0.0342    0.0010
C        19.9141   11.1351   12.7666   -0.0188    0.0494   -0.0001
C        19.8494    8.2795   12.7644   -0.0213   -0.0484   -0.0004
C        21.0925   10.3847   12.7838   -0.0553    0.0047   -0.0011
C        21.0605    8.9757   12.7834   -0.0557   -0.0021   -0.0005
H        19.9307   12.2252   12.7677   -0.0289    0.0490   -0.0005
H        19.8161    7.1897   12.7642   -0.0305   -0.0476   -0.0008
H        22.0002    8.4217   12.7979   -0.0336    0.0362   -0.0006
H        22.0566   10.8949   12.7993   -0.0341   -0.0358   -0.0010
C         9.0706    8.5177   12.7651    0.0188   -0.0494   -0.0001
C         9.1350   11.3733   12.7663    0.0213    0.0484   -0.0002
C         7.8920    9.2680   12.7781    0.0553   -0.0047   -0.0008
C         7.9240   10.6769   12.7780    0.0557    0.0021   -0.0002
H         9.0541    7.4277   12.7650    0.0289   -0.0490   -0.0002
H         9.1683   12.4630   12.7667    0.0305    0.0476   -0.0005
H         6.9843   11.2312   12.7887    0.0337   -0.0362   -0.0003
H         6.9279    8.7580   12.7877    0.0341    0.0358   -0.0008
C        15.8019    4.4056   12.7477   -0.0493   -0.0189    0.0003
C        12.9464    4.4688   12.7613    0.0484   -0.0212   -0.0000
C        15.0523    3.2268   12.7611   -0.0046   -0.0553    0.0007
C        13.6434    3.2581   12.7682    0.0022   -0.0556    0.0002
H        16.8920    4.3900   12.7428   -0.0489   -0.0289    0.0004
H        11.8565    4.5005   12.7666    0.0476   -0.0304    0.0005
H        13.0902    2.3178   12.7803   -0.0362   -0.0336    0.0007
H        15.5632    2.2628   12.7676    0.0357   -0.0342    0.0006
    57
stable frequency at    566.503 1/cm IR int. is 8.482 a.m.u.; force const. is 1.604 mDyne/Ang.
C        10.3153   10.6255   12.7541   -0.0082    0.0091    0.0001
C        11.7250   11.0126   12.7436   -0.0117   -0.0107   -0.0001
C        13.4288   12.6432   12.7402    0.0023   -0.0163    0.0000
C        13.8774   14.0347   12.7489   -0.0115   -0.0127   -0.0000
C        10.2838    9.2117   12.7538   -0.0469    0.0040    0.0006
C        11.6752    8.7628   12.7434   -0.0604    0.0218    0.0005
C        13.3062    7.0594   12.7390   -0.0158    0.0622   -0.0002
C        13.6935    5.6496   12.7468   -0.0066    0.0477   -0.0004
N        12.1457   12.2786   12.7444    0.0038   -0.0200   -0.0000
N        12.0400    7.4796   12.7439   -0.0315    0.0390   -0.0000
C        15.2912   14.0035   12.7457   -0.0066    0.0475    0.0006
C        15.6785   12.5937   12.7355   -0.0158    0.0619    0.0004
C        17.3094   10.8903   12.7347   -0.0603    0.0217   -0.0005
C        18.7010   10.4413   12.7487   -0.0467    0.0040   -0.0010
C        17.2595    8.6406   12.7332   -0.0120   -0.0107    0.0001
C        18.6693    9.0275   12.7476   -0.0084    0.0091   -0.0001
C        15.1073    5.6184   12.7412   -0.0115   -0.0128    0.0002
C        15.5559    7.0099   12.7320    0.0022   -0.0164    0.0000
N        16.9446   12.1735   12.7365   -0.0314    0.0388    0.0002
N        16.8391    7.3745   12.7331    0.0036   -0.0201   -0.0000
N        12.4947    9.8701   12.7367   -0.0344   -0.0076    0.0003
N        14.5362   11.8239   12.7312    0.0140    0.0210    0.0001
N        16.4900    9.7831   12.7252   -0.0345   -0.0076   -0.0003
N        14.4485    7.8292   12.7301    0.0140    0.0211   -0.0002
C        13.1827   15.2473   12.7623   -0.0175   -0.0361   -0.0004
Zn       14.4924    9.8265   12.7264    0.0060   -0.0039   -0.0000
C        16.0384   15.1842   12.7549    0.0453    0.0205    0.0001
C        13.9324   16.4262   12.7720    0.0207   -0.0608   -0.0007
C        15.3413   16.3949   12.7682    0.0267    0.0019   -0.0001
H        12.0925   15.2624   12.7653   -0.0167   -0.0117   -0.0000
H        17.1282   15.1517   12.7524    0.0443   -0.0133    0.0001
H        15.8945   17.3351   12.7765   -0.0263    0.0328    0.0005
H        13.4215   17.3900   12.7831    0.0166   -0.0629    0.0000
C        19.9141   11.1351   12.7666   -0.0080   -0.0580   -0.0002
C        19.8494    8.2795   12.7644    0.0312    0.0396    0.0005
C        21.0925   10.3847   12.7838    0.0258   -0.0196    0.0005
C        21.0605    8.9757   12.7834    0.0658   -0.0131    0.0007
H        19.9307   12.2252   12.7677    0.0180   -0.0582    0.0005
H        19.8161    7.1897   12.7642    0.0197    0.0394    0.0008
H        22.0002    8.4217   12.7979    0.0541   -0.0335    0.0015
H        22.0566   10.8949   12.7993   -0.0053    0.0395    0.0007
C         9.0706    8.5177   12.7651   -0.0082   -0.0581    0.0001
C         9.1350   11.3733   12.7663    0.0314    0.0395   -0.0002
C         7.8920    9.2680   12.7781    0.0255   -0.0198   -0.0003
C         7.9240   10.6769   12.7780    0.0660   -0.0132   -0.0005
H         9.0541    7.4277   12.7650    0.0180   -0.0583   -0.0004
H         9.1683   12.4630   12.7667    0.0198    0.0393   -0.0005
H         6.9843   11.2312   12.7887    0.0544   -0.0334   -0.0012
H         6.9279    8.7580   12.7877   -0.0056    0.0396   -0.0003
C        15.8019    4.4056   12.7477   -0.0174   -0.0363    0.0004
C        12.9464    4.4688   12.7613    0.0455    0.0207   -0.0006
C        15.0523    3.2268   12.7611    0.0208   -0.0611    0.0004
C        13.6434    3.2581   12.7682    0.0269    0.0020   -0.0000
H        16.8920    4.3900   12.7428   -0.0166   -0.0118   -0.0001
H        11.8565    4.5005   12.7666    0.0445   -0.0132   -0.0002
H        13.0902    2.3178   12.7803   -0.0264    0.0331   -0.0001
H        15.5632    2.2628   12.7676    0.0166   -0.0632   -0.0001
    57
stable frequency at    566.570 1/cm IR int. is 8.483 a.m.u.; force const. is 1.604 mDyne/Ang.
C        10.3153   10.6255   12.7541    0.0477    0.0066   -0.0005
C        11.7250   11.0126   12.7436    0.0621    0.0159   -0.0004
C        13.4288   12.6432   12.7402    0.0218    0.0605    0.0003
C        13.8774   14.0347   12.7489    0.0040    0.0469    0.0006
C        10.2838    9.2117   12.7538   -0.0128    0.0116    0.0001
C        11.6752    8.7628   12.7434   -0.0165   -0.0022   -0.0000
C        13.3062    7.0594   12.7390   -0.0108    0.0119    0.0001
C        13.6935    5.6496   12.7468    0.0091    0.0084   -0.0002
N        12.1457   12.2786   12.7444    0.0389    0.0316   -0.0002
N        12.0400    7.4796   12.7439   -0.0202   -0.0036    0.0001
C        15.2912   14.0035   12.7457    0.0091    0.0082    0.0000
C        15.6785   12.5937   12.7355   -0.0107    0.0118   -0.0000
C        17.3094   10.8903   12.7347   -0.0163   -0.0023    0.0000
C        18.7010   10.4413   12.7487   -0.0126    0.0116   -0.0001
C        17.2595    8.6406   12.7332    0.0620    0.0157    0.0004
C        18.6693    9.0275   12.7476    0.0476    0.0066    0.0009
C        15.1073    5.6184   12.7412    0.0040    0.0467   -0.0006
C        15.5559    7.0099   12.7320    0.0217    0.0602   -0.0005
N        16.9446   12.1735   12.7365   -0.0200   -0.0037   -0.0000
N        16.8391    7.3745   12.7331    0.0388    0.0314   -0.0000
N        12.4947    9.8701   12.7367    0.0211   -0.0140   -0.0001
N        14.5362   11.8239   12.7312   -0.0076    0.0345    0.0003
N        16.4900    9.7831   12.7252    0.0211   -0.0140    0.0001
N        14.4485    7.8292   12.7301   -0.0076    0.0344   -0.0003
C        13.1827   15.2473   12.7623   -0.0581    0.0082    0.0003
Zn       14.4924    9.8265   12.7264   -0.0039   -0.0060    0.0000
C        16.0384   15.1842   12.7549    0.0395   -0.0313   -0.0004
C        13.9324   16.4262   12.7720   -0.0198   -0.0256   -0.0003
C        15.3413   16.3949   12.7682   -0.0132   -0.0660   -0.0004
H        12.0925   15.2624   12.7653   -0.0583   -0.0180   -0.0002
H        17.1282   15.1517   12.7524    0.0393   -0.0198   -0.0004
H        15.8945   17.3351   12.7765   -0.0334   -0.0545   -0.0009
H        13.4215   17.3900   12.7831    0.0395    0.0056   -0.0004
C        19.9141   11.1351   12.7666   -0.0361    0.0176   -0.0007
C        19.8494    8.2795   12.7644    0.0205   -0.0454    0.0005
C        21.0925   10.3847   12.7838   -0.0609   -0.0206   -0.0009
C        21.0605    8.9757   12.7834    0.0018   -0.0267   -0.0002
H        19.9307   12.2252   12.7677   -0.0117    0.0168   -0.0001
H        19.8161    7.1897   12.7642   -0.0133   -0.0443    0.0001
H        22.0002    8.4217   12.7979    0.0328    0.0263    0.0004
H        22.0566   10.8949   12.7993   -0.0629   -0.0167    0.0002
C         9.0706    8.5177   12.7651   -0.0363    0.0174    0.0004
C         9.1350   11.3733   12.7663    0.0207   -0.0454   -0.0003
C         7.8920    9.2680   12.7781   -0.0611   -0.0208    0.0007
C         7.9240   10.6769   12.7780    0.0021   -0.0269    0.0001
H         9.0541    7.4277   12.7650   -0.0118    0.0166   -0.0001
H         9.1683   12.4630   12.7667   -0.0133   -0.0444   -0.0001
H         6.9843   11.2312   12.7887    0.0332    0.0264   -0.0005
H         6.9279    8.7580   12.7877   -0.0633   -0.0165   -0.0000
C        15.8019    4.4056   12.7477   -0.0579    0.0080    0.0003
C        12.9464    4.4688   12.7613    0.0396   -0.0311    0.0000
C        15.0523    3.2268   12.7611   -0.0196   -0.0257    0.0003
C        13.6434    3.2581   12.7682   -0.0130   -0.0658    0.0004
H        16.8920    4.3900   12.7428   -0.0581   -0.0181    0.0006
H        11.8565    4.5005   12.7666    0.0394   -0.0196    0.0005
H        13.0902    2.3178   12.7803   -0.0334   -0.0541    0.0015
H        15.5632    2.2628   12.7676    0.0394    0.0053    0.0001
    57
stable frequency at    569.225 1/cm IR int. is 7.976 a.m.u.; force const. is 1.523 mDyne/Ang.
C        10.3153   10.6255   12.7541    0.0372   -0.0002   -0.0005
C        11.7250   11.0126   12.7436    0.0405    0.0199   -0.0003
C        13.4288   12.6432   12.7402    0.0210    0.0408    0.0001
C        13.8774   14.0347   12.7489    0.0013    0.0379    0.0003
C        10.2838    9.2117   12.7538   -0.0378    0.0013    0.0004
C        11.6752    8.7628   12.7434   -0.0407    0.0210    0.0002
C        13.3062    7.0594   12.7390   -0.0199    0.0404   -0.0001
C        13.6935    5.6496   12.7468    0.0001    0.0371   -0.0003
N        12.1457   12.2786   12.7444    0.0305    0.0305   -0.0000
N        12.0400    7.4796   12.7439   -0.0304    0.0305    0.0001
C        15.2912   14.0035   12.7457   -0.0002   -0.0373   -0.0005
C        15.6785   12.5937   12.7355    0.0200   -0.0407   -0.0003
C        17.3094   10.8903   12.7347    0.0410   -0.0211    0.0003
C        18.7010   10.4413   12.7487    0.0381   -0.0013    0.0005
C        17.2595    8.6406   12.7332   -0.0407   -0.0200   -0.0004
C        18.6693    9.0275   12.7476   -0.0373    0.0002   -0.0006
C        15.1073    5.6184   12.7412   -0.0012   -0.0381    0.0005
C        15.5559    7.0099   12.7320   -0.0211   -0.0411    0.0003
N        16.9446   12.1735   12.7365    0.0306   -0.0306   -0.0000
N        16.8391    7.3745   12.7331   -0.0307   -0.0306    0.0000
N        12.4947    9.8701   12.7367   -0.0006    0.0022    0.0000
N        14.5362   11.8239   12.7312    0.0022    0.0006    0.0000
N        16.4900    9.7831   12.7252    0.0006   -0.0021    0.0001
N        14.4485    7.8292   12.7301   -0.0022   -0.0009    0.0000
C        13.1827   15.2473   12.7623   -0.0246    0.0447    0.0006
Zn       14.4924    9.8265   12.7264   -0.0000    0.0000   -0.0000
C        16.0384   15.1842   12.7549   -0.0256   -0.0437   -0.0004
C        13.9324   16.4262   12.7720   -0.0277    0.0441    0.0005
C        15.3413   16.3949   12.7682   -0.0296   -0.0437   -0.0002
H        12.0925   15.2624   12.7653   -0.0254    0.0189    0.0002
H        17.1282   15.1517   12.7524   -0.0253   -0.0180   -0.0003
H        15.8945   17.3351   12.7765    0.0139   -0.0693   -0.0011
H        13.4215   17.3900   12.7831    0.0173    0.0677   -0.0003
C        19.9141   11.1351   12.7666    0.0447    0.0248    0.0007
C        19.8494    8.2795   12.7644   -0.0438    0.0255   -0.0006
C        21.0925   10.3847   12.7838    0.0440    0.0278    0.0008
C        21.0605    8.9757   12.7834   -0.0439    0.0297   -0.0004
H        19.9307   12.2252   12.7677    0.0189    0.0256   -0.0001
H        19.8161    7.1897   12.7642   -0.0180    0.0252   -0.0006
H        22.0002    8.4217   12.7979   -0.0694   -0.0137   -0.0018
H        22.0566   10.8949   12.7993    0.0678   -0.0175   -0.0001
C         9.0706    8.5177   12.7651   -0.0445   -0.0246    0.0005
C         9.1350   11.3733   12.7663    0.0435   -0.0254   -0.0005
C         7.8920    9.2680   12.7781   -0.0439   -0.0276    0.0005
C         7.9240   10.6769   12.7780    0.0436   -0.0295   -0.0002
H         9.0541    7.4277   12.7650   -0.0189   -0.0255   -0.0001
H         9.1683   12.4630   12.7667    0.0179   -0.0251   -0.0005
H         6.9843   11.2312   12.7887    0.0691    0.0137   -0.0012
H         6.9279    8.7580   12.7877   -0.0675    0.0174   -0.0002
C        15.8019    4.4056   12.7477    0.0250   -0.0445    0.0002
C        12.9464    4.4688   12.7613    0.0251    0.0437   -0.0006
C        15.0523    3.2268   12.7611    0.0277   -0.0436    0.0003
C        13.6434    3.2581   12.7682    0.0295    0.0440   -0.0003
H        16.8920    4.3900   12.7428    0.0258   -0.0187   -0.0005
H        11.8565    4.5005   12.7666    0.0249    0.0182   -0.0006
H        13.0902    2.3178   12.7803   -0.0135    0.0694   -0.0011
H        15.5632    2.2628   12.7676   -0.0176   -0.0675   -0.0000
    57
stable frequency at    583.038 1/cm IR int. is 9.304 a.m.u.; force const. is 1.863 mDyne/Ang.
C        10.3153   10.6255   12.7541    0.0229   -0.0086   -0.0002
C        11.7250   11.0126   12.7436    0.0379   -0.0233   -0.0001
C        13.4288   12.6432   12.7402    0.0226   -0.0380   -0.0003
C        13.8774   14.0347   12.7489    0.0072   -0.0223   -0.0003
C        10.2838    9.2117   12.7538    0.0223    0.0072   -0.0002
C        11.6752    8.7628   12.7434    0.0381    0.0226   -0.0005
C        13.3062    7.0594   12.7390    0.0232    0.0379    0.0001
C        13.6935    5.6496   12.7468    0.0086    0.0229   -0.0003
N        12.1457   12.2786   12.7444    0.0452   -0.0461   -0.0003
N        12.0400    7.4796   12.7439    0.0461    0.0452   -0.0003
C        15.2912   14.0035   12.7457   -0.0086   -0.0230   -0.0002
C        15.6785   12.5937   12.7355   -0.0232   -0.0379   -0.0001
C        17.3094   10.8903   12.7347   -0.0380   -0.0226   -0.0003
C        18.7010   10.4413   12.7487   -0.0223   -0.0071   -0.0006
C        17.2595    8.6406   12.7332   -0.0378    0.0233    0.0002
C        18.6693    9.0275   12.7476   -0.0229    0.0086   -0.0005
C        15.1073    5.6184   12.7412   -0.0071    0.0224   -0.0001
C        15.5559    7.0099   12.7320   -0.0226    0.0382   -0.0004
N        16.9446   12.1735   12.7365   -0.0461   -0.0453   -0.0001
N        16.8391    7.3745   12.7331   -0.0452    0.0462   -0.0000
N        12.4947    9.8701   12.7367    0.0454   -0.0006   -0.0001
N        14.5362   11.8239   12.7312   -0.0006   -0.0453    0.0000
N        16.4900    9.7831   12.7252   -0.0453    0.0006   -0.0001
N        14.4485    7.8292   12.7301    0.0005    0.0454    0.0000
C        13.1827   15.2473   12.7623    0.0444    0.0105   -0.0000
Zn       14.4924    9.8265   12.7264    0.0000   -0.0000    0.0000
C        16.0384   15.1842   12.7549   -0.0449    0.0109    0.0002
C        13.9324   16.4262   12.7720    0.0031    0.0430    0.0005
C        15.3413   16.3949   12.7682   -0.0020    0.0417    0.0004
H        12.0925   15.2624   12.7653    0.0442    0.0156    0.0001
H        17.1282   15.1517   12.7524   -0.0445    0.0158    0.0001
H        15.8945   17.3351   12.7765    0.0348    0.0204    0.0003
H        13.4215   17.3900   12.7831   -0.0338    0.0235    0.0002
C        19.9141   11.1351   12.7666    0.0104   -0.0444    0.0002
C        19.8494    8.2795   12.7644    0.0109    0.0449   -0.0000
C        21.0925   10.3847   12.7838    0.0429   -0.0032    0.0006
C        21.0605    8.9757   12.7834    0.0416    0.0020    0.0006
H        19.9307   12.2252   12.7677    0.0155   -0.0442    0.0006
H        19.8161    7.1897   12.7642    0.0157    0.0444    0.0003
H        22.0002    8.4217   12.7979    0.0203   -0.0348    0.0012
H        22.0566   10.8949   12.7993    0.0234    0.0338    0.0001
C         9.0706    8.5177   12.7651   -0.0104    0.0444    0.0002
C         9.1350   11.3733   12.7663   -0.0110   -0.0449   -0.0001
C         7.8920    9.2680   12.7781   -0.0429    0.0032    0.0004
C         7.9240   10.6769   12.7780   -0.0417   -0.0020    0.0005
H         9.0541    7.4277   12.7650   -0.0155    0.0442    0.0002
H         9.1683   12.4630   12.7667   -0.0157   -0.0445   -0.0001
H         6.9843   11.2312   12.7887   -0.0204    0.0347    0.0009
H         6.9279    8.7580   12.7877   -0.0235   -0.0338   -0.0002
C        15.8019    4.4056   12.7477   -0.0445   -0.0104    0.0006
C        12.9464    4.4688   12.7613    0.0450   -0.0110   -0.0005
C        15.0523    3.2268   12.7611   -0.0032   -0.0429    0.0001
C        13.6434    3.2581   12.7682    0.0020   -0.0418    0.0006
H        16.8920    4.3900   12.7428   -0.0443   -0.0156    0.0005
H        11.8565    4.5005   12.7666    0.0445   -0.0157   -0.0001
H        13.0902    2.3178   12.7803   -0.0348   -0.0205    0.0016
H        15.5632    2.2628   12.7676    0.0338   -0.0235   -0.0006
    57
stable frequency at    607.493 1/cm IR int. is 7.890 a.m.u.; force const. is 1.716 mDyne/Ang.
C        10.3153   10.6255   12.7541    0.0161    0.0458   -0.0001
C        11.7250   11.0126   12.7436    0.0396   -0.0348   -0.0011
C        13.4288   12.6432   12.7402   -0.0327    0.0407    0.0011
C        13.8774   14.0347   12.7489    0.0465    0.0138    0.0001
C        10.2838    9.2117   12.7538   -0.0138    0.0465    0.0001
C        11.6752    8.7628   12.7434   -0.0407   -0.0327    0.0010
C        13.3062    7.0594   12.7390    0.0348    0.0396   -0.0010
C        13.6935    5.6496   12.7468   -0.0458    0.0160   -0.0001
N        12.1457   12.2786   12.7444   -0.0138   -0.0138   -0.0000
N        12.0400    7.4796   12.7439    0.0139   -0.0138    0.0000
C        15.2912   14.0035   12.7457    0.0458   -0.0160   -0.0002
C        15.6785   12.5937   12.7355   -0.0348   -0.0396   -0.0011
C        17.3094   10.8903   12.7347    0.0407    0.0327    0.0010
C        18.7010   10.4413   12.7487    0.0138   -0.0465    0.0002
C        17.2595    8.6406   12.7332   -0.0396    0.0348   -0.0010
C        18.6693    9.0275   12.7476   -0.0161   -0.0458   -0.0003
C        15.1073    5.6184   12.7412   -0.0465   -0.0138    0.0001
C        15.5559    7.0099   12.7320    0.0327   -0.0407    0.0010
N        16.9446   12.1735   12.7365   -0.0139    0.0138   -0.0001
N        16.8391    7.3745   12.7331    0.0138    0.0138    0.0002
N        12.4947    9.8701   12.7367   -0.0015   -0.0766    0.0000
N        14.5362   11.8239   12.7312   -0.0767    0.0015    0.0002
N        16.4900    9.7831   12.7252    0.0015    0.0766    0.0001
N        14.4485    7.8292   12.7301    0.0766   -0.0015   -0.0003
C        13.1827   15.2473   12.7623    0.0242   -0.0147   -0.0008
Zn       14.4924    9.8265   12.7264    0.0000   -0.0000    0.0000
C        16.0384   15.1842   12.7549    0.0246    0.0137    0.0007
C        13.9324   16.4262   12.7720   -0.0175    0.0015    0.0008
C        15.3413   16.3949   12.7682   -0.0175   -0.0003   -0.0006
H        12.0925   15.2624   12.7653    0.0238   -0.0700   -0.0016
H        17.1282   15.1517   12.7524    0.0266    0.0694    0.0011
H        15.8945   17.3351   12.7765   -0.0307    0.0079   -0.0017
H        13.4215   17.3900   12.7831   -0.0312   -0.0062    0.0015
C        19.9141   11.1351   12.7666   -0.0147   -0.0242   -0.0006
C        19.8494    8.2795   12.7644    0.0137   -0.0246    0.0006
C        21.0925   10.3847   12.7838    0.0015    0.0175    0.0005
C        21.0605    8.9757   12.7834   -0.0003    0.0175   -0.0004
H        19.9307   12.2252   12.7677   -0.0699   -0.0237   -0.0014
H        19.8161    7.1897   12.7642    0.0694   -0.0266    0.0013
H        22.0002    8.4217   12.7979    0.0079    0.0307   -0.0010
H        22.0566   10.8949   12.7993   -0.0062    0.0312    0.0009
C         9.0706    8.5177   12.7651    0.0147    0.0242   -0.0007
C         9.1350   11.3733   12.7663   -0.0137    0.0246    0.0007
C         7.8920    9.2680   12.7781   -0.0015   -0.0175    0.0006
C         7.9240   10.6769   12.7780    0.0003   -0.0175   -0.0006
H         9.0541    7.4277   12.7650    0.0699    0.0237   -0.0013
H         9.1683   12.4630   12.7667   -0.0694    0.0266    0.0013
H         6.9843   11.2312   12.7887   -0.0079   -0.0307   -0.0015
H         6.9279    8.7580   12.7877    0.0062   -0.0312    0.0012
C        15.8019    4.4056   12.7477   -0.0242    0.0147   -0.0006
C        12.9464    4.4688   12.7613   -0.0246   -0.0137    0.0009
C        15.0523    3.2268   12.7611    0.0175   -0.0015    0.0006
C        13.6434    3.2581   12.7682    0.0175    0.0003   -0.0008
H        16.8920    4.3900   12.7428   -0.0238    0.0700   -0.0008
H        11.8565    4.5005   12.7666   -0.0265   -0.0694    0.0017
H        13.0902    2.3178   12.7803    0.0307   -0.0079   -0.0015
H        15.5632    2.2628   12.7676    0.0312    0.0063    0.0015
    57
stable frequency at    617.322 1/cm IR int. is 4.643 a.m.u.; force const. is 1.043 mDyne/Ang.
C        10.3153   10.6255   12.7541   -0.0001   -0.0006   -0.0028
C        11.7250   11.0126   12.7436   -0.0008    0.0005   -0.0630
C        13.4288   12.6432   12.7402    0.0007   -0.0010    0.0632
C        13.8774   14.0347   12.7489   -0.0005   -0.0002    0.0028
C        10.2838    9.2117   12.7538    0.0002   -0.0005    0.0028
C        11.6752    8.7628   12.7434    0.0011    0.0006    0.0632
C        13.3062    7.0594   12.7390   -0.0007   -0.0008   -0.0630
C        13.6935    5.6496   12.7468    0.0004   -0.0001   -0.0028
N        12.1457   12.2786   12.7444    0.0003   -0.0000   -0.0000
N        12.0400    7.4796   12.7439   -0.0000    0.0003   -0.0001
C        15.2912   14.0035   12.7457   -0.0006    0.0001   -0.0028
C        15.6785   12.5937   12.7355    0.0003    0.0008   -0.0630
C        17.3094   10.8903   12.7347   -0.0011   -0.0005    0.0630
C        18.7010   10.4413   12.7487   -0.0001    0.0003    0.0028
C        17.2595    8.6406   12.7332    0.0009   -0.0003   -0.0628
C        18.6693    9.0275   12.7476    0.0001    0.0003   -0.0027
C        15.1073    5.6184   12.7412    0.0005    0.0001    0.0028
C        15.5559    7.0099   12.7320   -0.0004    0.0008    0.0631
N        16.9446   12.1735   12.7365   -0.0002   -0.0002    0.0000
N        16.8391    7.3745   12.7331   -0.0001    0.0001   -0.0001
N        12.4947    9.8701   12.7367    0.0002    0.0011   -0.0001
N        14.5362   11.8239   12.7312    0.0010   -0.0002   -0.0001
N        16.4900    9.7831   12.7252   -0.0001   -0.0008   -0.0001
N        14.4485    7.8292   12.7301   -0.0010    0.0001   -0.0001
C        13.1827   15.2473   12.7623   -0.0002    0.0007   -0.0462
Zn       14.4924    9.8265   12.7264   -0.0000    0.0000    0.0000
C        16.0384   15.1842   12.7549   -0.0004   -0.0006    0.0461
C        13.9324   16.4262   12.7720    0.0003   -0.0004    0.0528
C        15.3413   16.3949   12.7682    0.0000    0.0006   -0.0528
H        12.0925   15.2624   12.7653   -0.0003    0.0015   -0.0636
H        17.1282   15.1517   12.7524   -0.0004   -0.0013    0.0638
H        15.8945   17.3351   12.7765    0.0002    0.0011   -0.1183
H        13.4215   17.3900   12.7831    0.0006   -0.0010    0.1182
C        19.9141   11.1351   12.7666    0.0009    0.0001   -0.0461
C        19.8494    8.2795   12.7644   -0.0008    0.0003    0.0461
C        21.0925   10.3847   12.7838   -0.0006   -0.0001    0.0527
C        21.0605    8.9757   12.7834    0.0009   -0.0001   -0.0528
H        19.9307   12.2252   12.7677    0.0016    0.0002   -0.0635
H        19.8161    7.1897   12.7642   -0.0014    0.0003    0.0637
H        22.0002    8.4217   12.7979    0.0017   -0.0003   -0.1179
H        22.0566   10.8949   12.7993   -0.0016   -0.0002    0.1182
C         9.0706    8.5177   12.7651   -0.0008   -0.0001   -0.0462
C         9.1350   11.3733   12.7663    0.0006   -0.0006    0.0461
C         7.8920    9.2680   12.7781    0.0003    0.0002    0.0527
C         7.9240   10.6769   12.7780   -0.0006    0.0001   -0.0528
H         9.0541    7.4277   12.7650   -0.0016   -0.0001   -0.0636
H         9.1683   12.4630   12.7667    0.0014   -0.0006    0.0639
H         6.9843   11.2312   12.7887   -0.0011    0.0006   -0.1180
H         6.9279    8.7580   12.7877    0.0010    0.0002    0.1186
C        15.8019    4.4056   12.7477    0.0000   -0.0007   -0.0462
C        12.9464    4.4688   12.7613    0.0006    0.0006    0.0461
C        15.0523    3.2268   12.7611    0.0001    0.0003    0.0527
C        13.6434    3.2581   12.7682   -0.0004   -0.0005   -0.0528
H        16.8920    4.3900   12.7428   -0.0001   -0.0014   -0.0636
H        11.8565    4.5005   12.7666    0.0007    0.0013    0.0637
H        13.0902    2.3178   12.7803   -0.0010   -0.0009   -0.1182
H        15.5632    2.2628   12.7676    0.0003    0.0008    0.1181
    57
stable frequency at    632.177 1/cm IR int. is 7.975 a.m.u.; force const. is 1.878 mDyne/Ang.
C        10.3153   10.6255   12.7541   -0.0248    0.0202    0.0001
C        11.7250   11.0126   12.7436   -0.0222    0.0258   -0.0006
C        13.4288   12.6432   12.7402    0.0274    0.0245    0.0009
C        13.8774   14.0347   12.7489    0.0245    0.0304    0.0002
C        10.2838    9.2117   12.7538   -0.0378   -0.0117    0.0005
C        11.6752    8.7628   12.7434   -0.0331   -0.0167    0.0005
C        13.3062    7.0594   12.7390    0.0190   -0.0352    0.0005
C        13.6935    5.6496   12.7468    0.0174   -0.0423    0.0005
N        12.1457   12.2786   12.7444    0.0311    0.0254   -0.0002
N        12.0400    7.4796   12.7439    0.0232   -0.0175   -0.0006
C        15.2912   14.0035   12.7457    0.0174   -0.0423   -0.0007
C        15.6785   12.5937   12.7355    0.0191   -0.0352   -0.0008
C        17.3094   10.8903   12.7347   -0.0331   -0.0167   -0.0004
C        18.7010   10.4413   12.7487   -0.0379   -0.0117   -0.0007
C        17.2595    8.6406   12.7332   -0.0222    0.0258    0.0007
C        18.6693    9.0275   12.7476   -0.0248    0.0202   -0.0002
C        15.1073    5.6184   12.7412    0.0245    0.0305   -0.0004
C        15.5559    7.0099   12.7320    0.0275    0.0245   -0.0010
N        16.9446   12.1735   12.7365    0.0233   -0.0174    0.0007
N        16.8391    7.3745   12.7331    0.0312    0.0254    0.0002
N        12.4947    9.8701   12.7367   -0.0520    0.0042    0.0004
N        14.5362   11.8239   12.7312    0.0177   -0.0094   -0.0001
N        16.4900    9.7831   12.7252   -0.0520    0.0042   -0.0003
N        14.4485    7.8292   12.7301    0.0177   -0.0094    0.0001
C        13.1827   15.2473   12.7623    0.0004    0.0391   -0.0001
Zn       14.4924    9.8265   12.7264    0.0113    0.0017   -0.0000
C        16.0384   15.1842   12.7549   -0.0225   -0.0395    0.0002
C        13.9324   16.4262   12.7720   -0.0312    0.0565    0.0013
C        15.3413   16.3949   12.7682   -0.0348   -0.0428   -0.0007
H        12.0925   15.2624   12.7653   -0.0007   -0.0091   -0.0010
H        17.1282   15.1517   12.7524   -0.0216    0.0078    0.0006
H        15.8945   17.3351   12.7765    0.0183   -0.0741   -0.0026
H        13.4215   17.3900   12.7831    0.0054    0.0757    0.0009
C        19.9141   11.1351   12.7666   -0.0111   -0.0625    0.0000
C        19.8494    8.2795   12.7644    0.0050    0.0589   -0.0003
C        21.0925   10.3847   12.7838    0.0262   -0.0102    0.0001
C        21.0605    8.9757   12.7834    0.0431   -0.0025    0.0008
H        19.9307   12.2252   12.7677   -0.0065   -0.0629    0.0006
H        19.8161    7.1897   12.7642   -0.0072    0.0594   -0.0002
H        22.0002    8.4217   12.7979    0.0191   -0.0431    0.0019
H        22.0566   10.8949   12.7993   -0.0046    0.0477   -0.0003
C         9.0706    8.5177   12.7651   -0.0111   -0.0625   -0.0002
C         9.1350   11.3733   12.7663    0.0050    0.0590    0.0004
C         7.8920    9.2680   12.7781    0.0262   -0.0102    0.0001
C         7.9240   10.6769   12.7780    0.0431   -0.0025   -0.0007
H         9.0541    7.4277   12.7650   -0.0065   -0.0629   -0.0006
H         9.1683   12.4630   12.7667   -0.0072    0.0595    0.0003
H         6.9843   11.2312   12.7887    0.0191   -0.0431   -0.0018
H         6.9279    8.7580   12.7877   -0.0046    0.0477    0.0005
C        15.8019    4.4056   12.7477    0.0005    0.0391    0.0001
C        12.9464    4.4688   12.7613   -0.0225   -0.0395    0.0001
C        15.0523    3.2268   12.7611   -0.0312    0.0565   -0.0009
C        13.6434    3.2581   12.7682   -0.0349   -0.0428    0.0008
H        16.8920    4.3900   12.7428   -0.0007   -0.0091    0.0011
H        11.8565    4.5005   12.7666   -0.0217    0.0078   -0.0005
H        13.0902    2.3178   12.7803    0.0183   -0.0741    0.0023
H        15.5632    2.2628   12.7676    0.0055    0.0757   -0.0010
    57
stable frequency at    632.201 1/cm IR int. is 7.976 a.m.u.; force const. is 1.878 mDyne/Ang.
C        10.3153   10.6255   12.7541   -0.0423   -0.0174    0.0007
C        11.7250   11.0126   12.7436   -0.0352   -0.0190    0.0009
C        13.4288   12.6432   12.7402   -0.0167    0.0331    0.0004
C        13.8774   14.0347   12.7489   -0.0117    0.0379    0.0006
C        10.2838    9.2117   12.7538    0.0304   -0.0245   -0.0003
C        11.6752    8.7628   12.7434    0.0244   -0.0274   -0.0011
C        13.3062    7.0594   12.7390    0.0258    0.0223    0.0007
C        13.6935    5.6496   12.7468    0.0201    0.0249   -0.0002
N        12.1457   12.2786   12.7444   -0.0174   -0.0232   -0.0006
N        12.0400    7.4796   12.7439    0.0254   -0.0311    0.0001
C        15.2912   14.0035   12.7457    0.0202    0.0249    0.0001
C        15.6785   12.5937   12.7355    0.0258    0.0222   -0.0007
C        17.3094   10.8903   12.7347    0.0245   -0.0275    0.0012
C        18.7010   10.4413   12.7487    0.0304   -0.0245    0.0004
C        17.2595    8.6406   12.7332   -0.0352   -0.0190   -0.0012
C        18.6693    9.0275   12.7476   -0.0423   -0.0174   -0.0010
C        15.1073    5.6184   12.7412   -0.0117    0.0378   -0.0005
C        15.5559    7.0099   12.7320   -0.0167    0.0331   -0.0002
N        16.9446   12.1735   12.7365    0.0254   -0.0312   -0.0004
N        16.8391    7.3745   12.7331   -0.0174   -0.0232    0.0009
N        12.4947    9.8701   12.7367   -0.0094   -0.0177    0.0001
N        14.5362   11.8239   12.7312    0.0042    0.0520    0.0003
N        16.4900    9.7831   12.7252   -0.0094   -0.0177   -0.0001
N        14.4485    7.8292   12.7301    0.0042    0.0520   -0.0004
C        13.1827   15.2473   12.7623   -0.0626    0.0111    0.0001
Zn       14.4924    9.8265   12.7264    0.0017   -0.0114   -0.0000
C        16.0384   15.1842   12.7549    0.0590   -0.0050    0.0002
C        13.9324   16.4262   12.7720   -0.0102   -0.0262    0.0001
C        15.3413   16.3949   12.7682   -0.0024   -0.0432   -0.0007
H        12.0925   15.2624   12.7653   -0.0630    0.0065   -0.0006
H        17.1282   15.1517   12.7524    0.0595    0.0072    0.0002
H        15.8945   17.3351   12.7765   -0.0431   -0.0192   -0.0014
H        13.4215   17.3900   12.7831    0.0477    0.0047    0.0003
C        19.9141   11.1351   12.7666    0.0391   -0.0004   -0.0001
C        19.8494    8.2795   12.7644   -0.0395    0.0225    0.0002
C        21.0925   10.3847   12.7838    0.0565    0.0312    0.0019
C        21.0605    8.9757   12.7834   -0.0428    0.0348   -0.0012
H        19.9307   12.2252   12.7677   -0.0090    0.0008   -0.0017
H        19.8161    7.1897   12.7642    0.0078    0.0216    0.0008
H        22.0002    8.4217   12.7979   -0.0740   -0.0182   -0.0040
H        22.0566   10.8949   12.7993    0.0757   -0.0055    0.0014
C         9.0706    8.5177   12.7651    0.0391   -0.0005    0.0001
C         9.1350   11.3733   12.7663   -0.0395    0.0225   -0.0001
C         7.8920    9.2680   12.7781    0.0565    0.0312   -0.0013
C         7.9240   10.6769   12.7780   -0.0428    0.0349    0.0009
H         9.0541    7.4277   12.7650   -0.0091    0.0007    0.0012
H         9.1683   12.4630   12.7667    0.0079    0.0216   -0.0006
H         6.9843   11.2312   12.7887   -0.0741   -0.0182    0.0030
H         6.9279    8.7580   12.7877    0.0757   -0.0056   -0.0010
C        15.8019    4.4056   12.7477   -0.0625    0.0111    0.0005
C        12.9464    4.4688   12.7613    0.0590   -0.0050   -0.0007
C        15.0523    3.2268   12.7611   -0.0102   -0.0262   -0.0001
C        13.6434    3.2581   12.7682   -0.0024   -0.0431    0.0006
H        16.8920    4.3900   12.7428   -0.0629    0.0065    0.0009
H        11.8565    4.5005   12.7666    0.0594    0.0073   -0.0000
H        13.0902    2.3178   12.7803   -0.0431   -0.0191    0.0022
H        15.5632    2.2628   12.7676    0.0477    0.0046   -0.0004
    57
stable frequency at    636.406 1/cm IR int. is 5.299 a.m.u.; force const. is 1.265 mDyne/Ang.
C        10.3153   10.6255   12.7541    0.0005   -0.0000    0.0209
C        11.7250   11.0126   12.7436    0.0001   -0.0001   -0.0268
C        13.4288   12.6432   12.7402    0.0003   -0.0009    0.0859
C        13.8774   14.0347   12.7489    0.0000   -0.0004    0.0199
C        10.2838    9.2117   12.7538    0.0002    0.0002    0.0173
C        11.6752    8.7628   12.7434   -0.0002    0.0003   -0.0442
C        13.3062    7.0594   12.7390    0.0002    0.0005    0.0924
C        13.6935    5.6496   12.7468   -0.0001    0.0000    0.0162
N        12.1457   12.2786   12.7444   -0.0002   -0.0002   -0.0302
N        12.0400    7.4796   12.7439   -0.0003    0.0005   -0.0248
C        15.2912   14.0035   12.7457   -0.0001    0.0003   -0.0162
C        15.6785   12.5937   12.7355   -0.0003    0.0008   -0.0925
C        17.3094   10.8903   12.7347   -0.0001    0.0003    0.0442
C        18.7010   10.4413   12.7487    0.0006    0.0003   -0.0173
C        17.2595    8.6406   12.7332    0.0002   -0.0002    0.0269
C        18.6693    9.0275   12.7476    0.0008   -0.0001   -0.0209
C        15.1073    5.6184   12.7412    0.0000   -0.0007   -0.0198
C        15.5559    7.0099   12.7320   -0.0003   -0.0009   -0.0859
N        16.9446   12.1735   12.7365   -0.0006    0.0003    0.0248
N        16.8391    7.3745   12.7331   -0.0006   -0.0001    0.0302
N        12.4947    9.8701   12.7367    0.0005    0.0001    0.0260
N        14.5362   11.8239   12.7312   -0.0001   -0.0002    0.0024
N        16.4900    9.7831   12.7252    0.0009    0.0001   -0.0261
N        14.4485    7.8292   12.7301   -0.0002   -0.0004   -0.0023
C        13.1827   15.2473   12.7623    0.0000    0.0003   -0.0562
Zn       14.4924    9.8265   12.7264   -0.0001    0.0001   -0.0000
C        16.0384   15.1842   12.7549    0.0001   -0.0003    0.0568
C        13.9324   16.4262   12.7720    0.0003   -0.0008    0.0621
C        15.3413   16.3949   12.7682    0.0000    0.0010   -0.0614
H        12.0925   15.2624   12.7653   -0.0000    0.0009   -0.0867
H        17.1282   15.1517   12.7524    0.0002   -0.0006    0.0772
H        15.8945   17.3351   12.7765   -0.0004    0.0018   -0.1373
H        13.4215   17.3900   12.7831    0.0002   -0.0017    0.1291
C        19.9141   11.1351   12.7666    0.0001    0.0008   -0.0091
C        19.8494    8.2795   12.7644    0.0001   -0.0008    0.0019
C        21.0925   10.3847   12.7838   -0.0007   -0.0001    0.0025
C        21.0605    8.9757   12.7834   -0.0001   -0.0002   -0.0095
H        19.9307   12.2252   12.7677   -0.0004    0.0008    0.0422
H        19.8161    7.1897   12.7642   -0.0009   -0.0008    0.0578
H        22.0002    8.4217   12.7979   -0.0003    0.0006    0.0290
H        22.0566   10.8949   12.7993   -0.0012   -0.0006    0.0548
C         9.0706    8.5177   12.7651   -0.0000    0.0003    0.0091
C         9.1350   11.3733   12.7663    0.0001   -0.0003   -0.0019
C         7.8920    9.2680   12.7781   -0.0005   -0.0001   -0.0025
C         7.9240   10.6769   12.7780    0.0001   -0.0002    0.0095
H         9.0541    7.4277   12.7650   -0.0003    0.0003   -0.0421
H         9.1683   12.4630   12.7667   -0.0006   -0.0003   -0.0578
H         6.9843   11.2312   12.7887   -0.0001    0.0003   -0.0288
H         6.9279    8.7580   12.7877   -0.0010   -0.0001   -0.0547
C        15.8019    4.4056   12.7477    0.0010    0.0001    0.0562
C        12.9464    4.4688   12.7613   -0.0008   -0.0002   -0.0568
C        15.0523    3.2268   12.7611   -0.0001   -0.0005   -0.0621
C        13.6434    3.2581   12.7682    0.0004    0.0012    0.0615
H        16.8920    4.3900   12.7428    0.0011    0.0006    0.0866
H        11.8565    4.5005   12.7666   -0.0009   -0.0006   -0.0773
H        13.0902    2.3178   12.7803    0.0011    0.0018    0.1371
H        15.5632    2.2628   12.7676   -0.0012   -0.0015   -0.1293
    57
stable frequency at    636.439 1/cm IR int. is 5.302 a.m.u.; force const. is 1.265 mDyne/Ang.
C        10.3153   10.6255   12.7541    0.0004    0.0002    0.0162
C        11.7250   11.0126   12.7436    0.0009    0.0002    0.0924
C        13.4288   12.6432   12.7402    0.0002   -0.0001   -0.0441
C        13.8774   14.0347   12.7489    0.0003   -0.0005    0.0173
C        10.2838    9.2117   12.7538   -0.0007    0.0001   -0.0199
C        11.6752    8.7628   12.7434   -0.0011    0.0001   -0.0858
C        13.3062    7.0594   12.7390   -0.0002   -0.0004    0.0268
C        13.6935    5.6496   12.7468   -0.0002   -0.0007   -0.0209
N        12.1457   12.2786   12.7444    0.0004    0.0005   -0.0248
N        12.0400    7.4796   12.7439   -0.0002    0.0004    0.0302
C        15.2912   14.0035   12.7457   -0.0002   -0.0006    0.0209
C        15.6785   12.5937   12.7355   -0.0003   -0.0002   -0.0269
C        17.3094   10.8903   12.7347   -0.0012    0.0001    0.0859
C        18.7010   10.4413   12.7487   -0.0006   -0.0002    0.0198
C        17.2595    8.6406   12.7332    0.0009    0.0003   -0.0925
C        18.6693    9.0275   12.7476    0.0002   -0.0000   -0.0161
C        15.1073    5.6184   12.7412    0.0003   -0.0003   -0.0174
C        15.5559    7.0099   12.7320    0.0005   -0.0000    0.0443
N        16.9446   12.1735   12.7365   -0.0003    0.0005   -0.0302
N        16.8391    7.3745   12.7331    0.0006    0.0005    0.0248
N        12.4947    9.8701   12.7367   -0.0002    0.0003   -0.0024
N        14.5362   11.8239   12.7312    0.0001   -0.0008    0.0260
N        16.4900    9.7831   12.7252   -0.0003    0.0004    0.0024
N        14.4485    7.8292   12.7301   -0.0001   -0.0008   -0.0261
C        13.1827   15.2473   12.7623    0.0008   -0.0001    0.0090
Zn       14.4924    9.8265   12.7264    0.0001    0.0002   -0.0000
C        16.0384   15.1842   12.7549   -0.0008   -0.0001   -0.0018
C        13.9324   16.4262   12.7720   -0.0000    0.0006   -0.0025
C        15.3413   16.3949   12.7682   -0.0001    0.0002    0.0095
H        12.0925   15.2624   12.7653    0.0006    0.0003   -0.0421
H        17.1282   15.1517   12.7524   -0.0009    0.0005   -0.0577
H        15.8945   17.3351   12.7765    0.0006    0.0002   -0.0288
H        13.4215   17.3900   12.7831   -0.0006    0.0008   -0.0545
C        19.9141   11.1351   12.7666    0.0005   -0.0005   -0.0562
C        19.8494    8.2795   12.7644   -0.0005    0.0001    0.0568
C        21.0925   10.3847   12.7838   -0.0011   -0.0002    0.0622
C        21.0605    8.9757   12.7834    0.0015   -0.0001   -0.0616
H        19.9307   12.2252   12.7677    0.0010   -0.0005   -0.0868
H        19.8161    7.1897   12.7642   -0.0007    0.0001    0.0774
H        22.0002    8.4217   12.7979    0.0027    0.0000   -0.1371
H        22.0566   10.8949   12.7993   -0.0025    0.0005    0.1293
C         9.0706    8.5177   12.7651    0.0002   -0.0005    0.0561
C         9.1350   11.3733   12.7663   -0.0001    0.0002   -0.0567
C         7.8920    9.2680   12.7781   -0.0010   -0.0003   -0.0620
C         7.9240   10.6769   12.7780    0.0013   -0.0003    0.0614
H         9.0541    7.4277   12.7650    0.0009   -0.0005    0.0866
H         9.1683   12.4630   12.7667   -0.0007    0.0002   -0.0774
H         6.9843   11.2312   12.7887    0.0022   -0.0001    0.1368
H         6.9279    8.7580   12.7877   -0.0021    0.0005   -0.1294
C        15.8019    4.4056   12.7477    0.0007    0.0000   -0.0091
C        12.9464    4.4688   12.7613   -0.0007   -0.0001    0.0019
C        15.0523    3.2268   12.7611   -0.0001    0.0007    0.0025
C        13.6434    3.2581   12.7682   -0.0003    0.0001   -0.0095
H        16.8920    4.3900   12.7428    0.0009    0.0001    0.0421
H        11.8565    4.5005   12.7666   -0.0004    0.0006    0.0578
H        13.0902    2.3178   12.7803    0.0007    0.0001    0.0287
H        15.5632    2.2628   12.7676   -0.0003    0.0009    0.0545
    57
stable frequency at    668.664 1/cm IR int. is 8.894 a.m.u.; force const. is 2.343 mDyne/Ang.
C        10.3153   10.6255   12.7541    0.0293   -0.0095   -0.0001
C        11.7250   11.0126   12.7436    0.0005    0.0254   -0.0005
C        13.4288   12.6432   12.7402   -0.0254    0.0008    0.0005
C        13.8774   14.0347   12.7489    0.0084   -0.0297   -0.0001
C        10.2838    9.2117   12.7538    0.0299    0.0081   -0.0000
C        11.6752    8.7628   12.7434   -0.0007   -0.0255   -0.0004
C        13.3062    7.0594   12.7390   -0.0255    0.0007    0.0006
C        13.6935    5.6496   12.7468    0.0093    0.0295   -0.0001
N        12.1457   12.2786   12.7444   -0.0643    0.0672    0.0006
N        12.0400    7.4796   12.7439   -0.0673   -0.0644    0.0005
C        15.2912   14.0035   12.7457   -0.0093   -0.0295   -0.0003
C        15.6785   12.5937   12.7355    0.0255   -0.0007   -0.0003
C        17.3094   10.8903   12.7347    0.0007    0.0255   -0.0003
C        18.7010   10.4413   12.7487   -0.0299   -0.0081   -0.0002
C        17.2595    8.6406   12.7332   -0.0005   -0.0254   -0.0004
C        18.6693    9.0275   12.7476   -0.0293    0.0095   -0.0001
C        15.1073    5.6184   12.7412   -0.0084    0.0297   -0.0003
C        15.5559    7.0099   12.7320    0.0254   -0.0008   -0.0003
N        16.9446   12.1735   12.7365    0.0673    0.0644    0.0007
N        16.8391    7.3745   12.7331    0.0643   -0.0673    0.0006
N        12.4947    9.8701   12.7367    0.0074   -0.0003    0.0002
N        14.5362   11.8239   12.7312   -0.0003   -0.0074   -0.0003
N        16.4900    9.7831   12.7252   -0.0074    0.0003    0.0002
N        14.4485    7.8292   12.7301    0.0003    0.0074   -0.0003
C        13.1827   15.2473   12.7623    0.0534   -0.0148   -0.0005
Zn       14.4924    9.8265   12.7264   -0.0000   -0.0000    0.0000
C        16.0384   15.1842   12.7549   -0.0539   -0.0125    0.0002
C        13.9324   16.4262   12.7720    0.0057    0.0148    0.0003
C        15.3413   16.3949   12.7682   -0.0054    0.0148   -0.0001
H        12.0925   15.2624   12.7653    0.0539   -0.0213   -0.0005
H        17.1282   15.1517   12.7524   -0.0547   -0.0190    0.0002
H        15.8945   17.3351   12.7765    0.0359   -0.0100   -0.0003
H        13.4215   17.3900   12.7831   -0.0369   -0.0083    0.0005
C        19.9141   11.1351   12.7666   -0.0150   -0.0534   -0.0002
C        19.8494    8.2795   12.7644   -0.0123    0.0539   -0.0001
C        21.0925   10.3847   12.7838    0.0145   -0.0060    0.0003
C        21.0605    8.9757   12.7834    0.0151    0.0051    0.0002
H        19.9307   12.2252   12.7677   -0.0211   -0.0539   -0.0009
H        19.8161    7.1897   12.7642   -0.0193    0.0548   -0.0008
H        22.0002    8.4217   12.7979   -0.0096   -0.0359   -0.0005
H        22.0566   10.8949   12.7993   -0.0087    0.0369   -0.0006
C         9.0706    8.5177   12.7651    0.0150    0.0534   -0.0001
C         9.1350   11.3733   12.7663    0.0123   -0.0540   -0.0001
C         7.8920    9.2680   12.7781   -0.0145    0.0060    0.0003
C         7.9240   10.6769   12.7780   -0.0151   -0.0051    0.0001
H         9.0541    7.4277   12.7650    0.0211    0.0539   -0.0010
H         9.1683   12.4630   12.7667    0.0193   -0.0548   -0.0007
H         6.9843   11.2312   12.7887    0.0096    0.0359   -0.0006
H         6.9279    8.7580   12.7877    0.0087   -0.0370   -0.0007
C        15.8019    4.4056   12.7477   -0.0534    0.0148    0.0003
C        12.9464    4.4688   12.7613    0.0540    0.0125   -0.0007
C        15.0523    3.2268   12.7611   -0.0057   -0.0149   -0.0000
C        13.6434    3.2581   12.7682    0.0054   -0.0148    0.0002
H        16.8920    4.3900   12.7428   -0.0540    0.0213    0.0004
H        11.8565    4.5005   12.7666    0.0547    0.0191   -0.0002
H        13.0902    2.3178   12.7803   -0.0359    0.0100    0.0011
H        15.5632    2.2628   12.7676    0.0369    0.0083   -0.0003
    57
stable frequency at    677.558 1/cm IR int. is 7.011 a.m.u.; force const. is 1.896 mDyne/Ang.
C        10.3153   10.6255   12.7541    0.0318    0.0368   -0.0174
C        11.7250   11.0126   12.7436    0.0222    0.0073   -0.0333
C        13.4288   12.6432   12.7402   -0.0083   -0.0218   -0.0305
C        13.8774   14.0347   12.7489   -0.0382   -0.0302   -0.0177
C        10.2838    9.2117   12.7538   -0.0300    0.0382    0.0178
C        11.6752    8.7628   12.7434   -0.0217    0.0081    0.0307
C        13.3062    7.0594   12.7390    0.0074   -0.0222    0.0329
C        13.6935    5.6496   12.7468    0.0369   -0.0317    0.0172
N        12.1457   12.2786   12.7444   -0.0116    0.0124    0.0285
N        12.0400    7.4796   12.7439    0.0119    0.0114   -0.0285
C        15.2912   14.0035   12.7457   -0.0369    0.0317    0.0173
C        15.6785   12.5937   12.7355   -0.0072    0.0222    0.0333
C        17.3094   10.8903   12.7347    0.0216   -0.0082    0.0305
C        18.7010   10.4413   12.7487    0.0300   -0.0383    0.0178
C        17.2595    8.6406   12.7332   -0.0221   -0.0073   -0.0332
C        18.6693    9.0275   12.7476   -0.0318   -0.0368   -0.0175
C        15.1073    5.6184   12.7412    0.0381    0.0302   -0.0178
C        15.5559    7.0099   12.7320    0.0082    0.0218   -0.0309
N        16.9446   12.1735   12.7365   -0.0120   -0.0113   -0.0286
N        16.8391    7.3745   12.7331    0.0117   -0.0123    0.0287
N        12.4947    9.8701   12.7367    0.0001    0.0006    0.0010
N        14.5362   11.8239   12.7312   -0.0006    0.0001   -0.0011
N        16.4900    9.7831   12.7252   -0.0001   -0.0005    0.0010
N        14.4485    7.8292   12.7301    0.0006   -0.0001   -0.0008
C        13.1827   15.2473   12.7623   -0.0075   -0.0277    0.0170
Zn       14.4924    9.8265   12.7264    0.0000    0.0000   -0.0000
C        16.0384   15.1842   12.7549   -0.0067    0.0277   -0.0178
C        13.9324   16.4262   12.7720    0.0330   -0.0477   -0.0197
C        15.3413   16.3949   12.7682    0.0351    0.0460    0.0187
H        12.0925   15.2624   12.7653   -0.0061    0.0373    0.0360
H        17.1282   15.1517   12.7524   -0.0082   -0.0380   -0.0301
H        15.8945   17.3351   12.7765   -0.0001    0.0664    0.0390
H        13.4215   17.3900   12.7831   -0.0028   -0.0661   -0.0307
C        19.9141   11.1351   12.7666    0.0277   -0.0079   -0.0168
C        19.8494    8.2795   12.7644   -0.0279   -0.0064    0.0176
C        21.0925   10.3847   12.7838    0.0477    0.0330    0.0199
C        21.0605    8.9757   12.7834   -0.0458    0.0351   -0.0189
H        19.9307   12.2252   12.7677   -0.0373   -0.0064   -0.0363
H        19.8161    7.1897   12.7642    0.0377   -0.0079    0.0302
H        22.0002    8.4217   12.7979   -0.0662   -0.0002   -0.0396
H        22.0566   10.8949   12.7993    0.0659   -0.0026    0.0306
C         9.0706    8.5177   12.7651   -0.0276    0.0079   -0.0170
C         9.1350   11.3733   12.7663    0.0278    0.0063    0.0178
C         7.8920    9.2680   12.7781   -0.0478   -0.0330    0.0197
C         7.9240   10.6769   12.7780    0.0459   -0.0351   -0.0188
H         9.0541    7.4277   12.7650    0.0375    0.0065   -0.0361
H         9.1683   12.4630   12.7667   -0.0379    0.0078    0.0303
H         6.9843   11.2312   12.7887    0.0664    0.0002   -0.0391
H         6.9279    8.7580   12.7877   -0.0661    0.0026    0.0309
C        15.8019    4.4056   12.7477    0.0078    0.0276    0.0171
C        12.9464    4.4688   12.7613    0.0064   -0.0277   -0.0178
C        15.0523    3.2268   12.7611   -0.0331    0.0477   -0.0193
C        13.6434    3.2581   12.7682   -0.0350   -0.0460    0.0189
H        16.8920    4.3900   12.7428    0.0065   -0.0375    0.0354
H        11.8565    4.5005   12.7666    0.0078    0.0378   -0.0308
H        13.0902    2.3178   12.7803    0.0004   -0.0664    0.0384
H        15.5632    2.2628   12.7676    0.0025    0.0661   -0.0317
    57
stable frequency at    678.228 1/cm IR int. is 6.891 a.m.u.; force const. is 1.868 mDyne/Ang.
C        10.3153   10.6255   12.7541   -0.0188   -0.0213   -0.0302
C        11.7250   11.0126   12.7436   -0.0133   -0.0041   -0.0523
C        13.4288   12.6432   12.7402    0.0046    0.0131   -0.0571
C        13.8774   14.0347   12.7489    0.0222    0.0178   -0.0292
C        10.2838    9.2117   12.7538    0.0177   -0.0222    0.0292
C        11.6752    8.7628   12.7434    0.0131   -0.0047    0.0569
C        13.3062    7.0594   12.7390   -0.0039    0.0133    0.0525
C        13.6935    5.6496   12.7468   -0.0213    0.0187    0.0303
N        12.1457   12.2786   12.7444    0.0072   -0.0073    0.0485
N        12.0400    7.4796   12.7439   -0.0073   -0.0068   -0.0485
C        15.2912   14.0035   12.7457    0.0214   -0.0188    0.0302
C        15.6785   12.5937   12.7355    0.0041   -0.0134    0.0522
C        17.3094   10.8903   12.7347   -0.0133    0.0046    0.0571
C        18.7010   10.4413   12.7487   -0.0179    0.0221    0.0292
C        17.2595    8.6406   12.7332    0.0135    0.0041   -0.0524
C        18.6693    9.0275   12.7476    0.0190    0.0213   -0.0302
C        15.1073    5.6184   12.7412   -0.0223   -0.0179   -0.0291
C        15.5559    7.0099   12.7320   -0.0048   -0.0131   -0.0569
N        16.9446   12.1735   12.7365    0.0072    0.0070   -0.0485
N        16.8391    7.3745   12.7331   -0.0071    0.0075    0.0484
N        12.4947    9.8701   12.7367   -0.0001   -0.0004   -0.0018
N        14.5362   11.8239   12.7312    0.0004   -0.0001    0.0019
N        16.4900    9.7831   12.7252    0.0001    0.0005   -0.0018
N        14.4485    7.8292   12.7301   -0.0004    0.0000    0.0017
C        13.1827   15.2473   12.7623    0.0047    0.0156    0.0310
Zn       14.4924    9.8265   12.7264    0.0000    0.0000    0.0000
C        16.0384   15.1842   12.7549    0.0037   -0.0158   -0.0299
C        13.9324   16.4262   12.7720   -0.0192    0.0282   -0.0313
C        15.3413   16.3949   12.7682   -0.0203   -0.0272    0.0324
H        12.0925   15.2624   12.7653    0.0040   -0.0226    0.0519
H        17.1282   15.1517   12.7524    0.0045    0.0227   -0.0603
H        15.8945   17.3351   12.7765    0.0003   -0.0394    0.0532
H        13.4215   17.3900   12.7831    0.0013    0.0392   -0.0633
C        19.9141   11.1351   12.7666   -0.0155    0.0046   -0.0312
C        19.8494    8.2795   12.7644    0.0156    0.0037    0.0300
C        21.0925   10.3847   12.7838   -0.0284   -0.0191    0.0313
C        21.0605    8.9757   12.7834    0.0273   -0.0204   -0.0324
H        19.9307   12.2252   12.7677    0.0227    0.0038   -0.0518
H        19.8161    7.1897   12.7642   -0.0229    0.0046    0.0604
H        22.0002    8.4217   12.7979    0.0397    0.0002   -0.0526
H        22.0566   10.8949   12.7993   -0.0396    0.0015    0.0636
C         9.0706    8.5177   12.7651    0.0156   -0.0046   -0.0310
C         9.1350   11.3733   12.7663   -0.0157   -0.0038    0.0298
C         7.8920    9.2680   12.7781    0.0282    0.0191    0.0313
C         7.9240   10.6769   12.7780   -0.0271    0.0204   -0.0324
H         9.0541    7.4277   12.7650   -0.0225   -0.0038   -0.0520
H         9.1683   12.4630   12.7667    0.0227   -0.0047    0.0603
H         6.9843   11.2312   12.7887   -0.0393   -0.0001   -0.0528
H         6.9279    8.7580   12.7877    0.0393   -0.0016    0.0636
C        15.8019    4.4056   12.7477   -0.0042   -0.0158    0.0310
C        12.9464    4.4688   12.7613   -0.0042    0.0157   -0.0299
C        15.0523    3.2268   12.7611    0.0190   -0.0281   -0.0316
C        13.6434    3.2581   12.7682    0.0205    0.0272    0.0323
H        16.8920    4.3900   12.7428   -0.0033    0.0223    0.0523
H        11.8565    4.5005   12.7666   -0.0052   -0.0228   -0.0599
H        13.0902    2.3178   12.7803    0.0003    0.0393    0.0534
H        15.5632    2.2628   12.7676   -0.0020   -0.0392   -0.0630
    57
stable frequency at    684.819 1/cm IR int. is 3.136 a.m.u.; force const. is 0.866 mDyne/Ang.
C        10.3153   10.6255   12.7541    0.0012    0.0015   -0.0179
C        11.7250   11.0126   12.7436    0.0014    0.0005    0.0734
C        13.4288   12.6432   12.7402   -0.0005   -0.0004   -0.0712
C        13.8774   14.0347   12.7489   -0.0014   -0.0015    0.0193
C        10.2838    9.2117   12.7538   -0.0013    0.0015   -0.0192
C        11.6752    8.7628   12.7434   -0.0005    0.0001    0.0711
C        13.3062    7.0594   12.7390    0.0001   -0.0012   -0.0733
C        13.6935    5.6496   12.7468    0.0016   -0.0009    0.0179
N        12.1457   12.2786   12.7444   -0.0005    0.0010   -0.0010
N        12.0400    7.4796   12.7439    0.0005   -0.0000    0.0010
C        15.2912   14.0035   12.7457   -0.0015    0.0010    0.0180
C        15.6785   12.5937   12.7355   -0.0003    0.0014   -0.0734
C        17.3094   10.8903   12.7347    0.0003   -0.0003    0.0711
C        18.7010   10.4413   12.7487    0.0015   -0.0014   -0.0193
C        17.2595    8.6406   12.7332   -0.0016   -0.0005    0.0734
C        18.6693    9.0275   12.7476   -0.0011   -0.0015   -0.0179
C        15.1073    5.6184   12.7412    0.0014    0.0015    0.0193
C        15.5559    7.0099   12.7320    0.0002    0.0005   -0.0710
N        16.9446   12.1735   12.7365   -0.0005   -0.0000    0.0010
N        16.8391    7.3745   12.7331    0.0004   -0.0010   -0.0011
N        12.4947    9.8701   12.7367   -0.0006    0.0000   -0.0540
N        14.5362   11.8239   12.7312    0.0002   -0.0004    0.0540
N        16.4900    9.7831   12.7252    0.0005    0.0000   -0.0540
N        14.4485    7.8292   12.7301    0.0003    0.0004    0.0539
C        13.1827   15.2473   12.7623   -0.0000   -0.0013    0.0154
Zn       14.4924    9.8265   12.7264   -0.0000   -0.0000    0.0000
C        16.0384   15.1842   12.7549   -0.0005    0.0009    0.0167
C        13.9324   16.4262   12.7720    0.0014   -0.0019    0.0129
C        15.3413   16.3949   12.7682    0.0014    0.0018    0.0116
H        12.0925   15.2624   12.7653   -0.0003    0.0027   -0.1199
H        17.1282   15.1517   12.7524   -0.0008   -0.0006   -0.1170
H        15.8945   17.3351   12.7765   -0.0001    0.0040   -0.1367
H        13.4215   17.3900   12.7831   -0.0006   -0.0013   -0.1342
C        19.9141   11.1351   12.7666    0.0014   -0.0002   -0.0155
C        19.8494    8.2795   12.7644   -0.0009   -0.0002   -0.0168
C        21.0925   10.3847   12.7838    0.0020    0.0013   -0.0130
C        21.0605    8.9757   12.7834   -0.0017    0.0014   -0.0115
H        19.9307   12.2252   12.7677   -0.0032   -0.0003    0.1201
H        19.8161    7.1897   12.7642   -0.0003   -0.0002    0.1170
H        22.0002    8.4217   12.7979   -0.0049    0.0000    0.1371
H        22.0566   10.8949   12.7993    0.0005   -0.0002    0.1347
C         9.0706    8.5177   12.7651   -0.0012    0.0004   -0.0155
C         9.1350   11.3733   12.7663    0.0010    0.0001   -0.0168
C         7.8920    9.2680   12.7781   -0.0020   -0.0013   -0.0131
C         7.9240   10.6769   12.7780    0.0017   -0.0014   -0.0115
H         9.0541    7.4277   12.7650    0.0028    0.0003    0.1201
H         9.1683   12.4630   12.7667   -0.0002    0.0000    0.1170
H         6.9843   11.2312   12.7887    0.0042    0.0000    0.1369
H         6.9279    8.7580   12.7877   -0.0011   -0.0001    0.1346
C        15.8019    4.4056   12.7477   -0.0001    0.0013    0.0154
C        12.9464    4.4688   12.7613    0.0006   -0.0009    0.0167
C        15.0523    3.2268   12.7611   -0.0012    0.0018    0.0130
C        13.6434    3.2581   12.7682   -0.0013   -0.0018    0.0115
H        16.8920    4.3900   12.7428   -0.0007   -0.0022   -0.1198
H        11.8565    4.5005   12.7666   -0.0000    0.0004   -0.1166
H        13.0902    2.3178   12.7803   -0.0009   -0.0039   -0.1365
H        15.5632    2.2628   12.7676   -0.0002    0.0014   -0.1336
    57
stable frequency at    710.692 1/cm IR int. is 2.947 a.m.u.; force const. is 0.877 mDyne/Ang.
C        10.3153   10.6255   12.7541   -0.0001   -0.0002   -0.0122
C        11.7250   11.0126   12.7436    0.0009   -0.0002    0.0898
C        13.4288   12.6432   12.7402    0.0004   -0.0002    0.0195
C        13.8774   14.0347   12.7489    0.0003   -0.0002    0.0292
C        10.2838    9.2117   12.7538   -0.0003   -0.0001   -0.0127
C        11.6752    8.7628   12.7434    0.0006    0.0005    0.0896
C        13.3062    7.0594   12.7390   -0.0001    0.0001    0.0190
C        13.6935    5.6496   12.7468    0.0001    0.0002    0.0293
N        12.1457   12.2786   12.7444    0.0003   -0.0001   -0.0369
N        12.0400    7.4796   12.7439   -0.0005    0.0004   -0.0367
C        15.2912   14.0035   12.7457   -0.0000    0.0002   -0.0293
C        15.6785   12.5937   12.7355   -0.0004    0.0000   -0.0193
C        17.3094   10.8903   12.7347    0.0007    0.0006   -0.0898
C        18.7010   10.4413   12.7487   -0.0004   -0.0001    0.0127
C        17.2595    8.6406   12.7332    0.0011   -0.0002   -0.0900
C        18.6693    9.0275   12.7476   -0.0002   -0.0002    0.0122
C        15.1073    5.6184   12.7412    0.0001   -0.0002   -0.0292
C        15.5559    7.0099   12.7320    0.0001   -0.0001   -0.0197
N        16.9446   12.1735   12.7365   -0.0007    0.0003    0.0369
N        16.8391    7.3745   12.7331    0.0001   -0.0000    0.0371
N        12.4947    9.8701   12.7367   -0.0003    0.0002   -0.0644
N        14.5362   11.8239   12.7312   -0.0003   -0.0003   -0.0001
N        16.4900    9.7831   12.7252   -0.0002    0.0001    0.0645
N        14.4485    7.8292   12.7301   -0.0003   -0.0001    0.0003
C        13.1827   15.2473   12.7623    0.0001    0.0002   -0.0147
Zn       14.4924    9.8265   12.7264   -0.0000    0.0000   -0.0000
C        16.0384   15.1842   12.7549    0.0001   -0.0001    0.0147
C        13.9324   16.4262   12.7720   -0.0000   -0.0001    0.0180
C        15.3413   16.3949   12.7682   -0.0001    0.0002   -0.0180
H        12.0925   15.2624   12.7653   -0.0000    0.0002   -0.0459
H        17.1282   15.1517   12.7524    0.0002   -0.0003    0.0457
H        15.8945   17.3351   12.7765   -0.0001    0.0002   -0.0230
H        13.4215   17.3900   12.7831   -0.0000   -0.0001    0.0227
C        19.9141   11.1351   12.7666   -0.0005   -0.0003    0.0235
C        19.8494    8.2795   12.7644   -0.0002   -0.0002    0.0236
C        21.0925   10.3847   12.7838   -0.0002   -0.0000    0.0189
C        21.0605    8.9757   12.7834   -0.0003    0.0000    0.0184
H        19.9307   12.2252   12.7677    0.0022   -0.0002   -0.1631
H        19.8161    7.1897   12.7642    0.0028   -0.0002   -0.1608
H        22.0002    8.4217   12.7979    0.0033    0.0001   -0.2048
H        22.0566   10.8949   12.7993    0.0032    0.0001   -0.2047
C         9.0706    8.5177   12.7651   -0.0003   -0.0003   -0.0234
C         9.1350   11.3733   12.7663   -0.0001   -0.0002   -0.0235
C         7.8920    9.2680   12.7781   -0.0001    0.0001   -0.0189
C         7.9240   10.6769   12.7780   -0.0003    0.0001   -0.0183
H         9.0541    7.4277   12.7650    0.0015   -0.0003    0.1626
H         9.1683   12.4630   12.7667    0.0020   -0.0003    0.1604
H         6.9843   11.2312   12.7887    0.0022   -0.0000    0.2038
H         6.9279    8.7580   12.7877    0.0022   -0.0000    0.2036
C        15.8019    4.4056   12.7477    0.0004    0.0000    0.0148
C        12.9464    4.4688   12.7613   -0.0002   -0.0002   -0.0146
C        15.0523    3.2268   12.7611   -0.0001   -0.0001   -0.0179
C        13.6434    3.2581   12.7682    0.0001    0.0002    0.0181
H        16.8920    4.3900   12.7428    0.0005    0.0000    0.0452
H        11.8565    4.5005   12.7666   -0.0004   -0.0005   -0.0463
H        13.0902    2.3178   12.7803    0.0002    0.0002    0.0221
H        15.5632    2.2628   12.7676   -0.0004   -0.0003   -0.0236
    57
stable frequency at    710.771 1/cm IR int. is 2.965 a.m.u.; force const. is 0.883 mDyne/Ang.
C        10.3153   10.6255   12.7541   -0.0002    0.0000   -0.0293
C        11.7250   11.0126   12.7436   -0.0002   -0.0001   -0.0193
C        13.4288   12.6432   12.7402   -0.0005    0.0004   -0.0900
C        13.8774   14.0347   12.7489   -0.0001   -0.0003    0.0128
C        10.2838    9.2117   12.7538    0.0002    0.0001    0.0293
C        11.6752    8.7628   12.7434    0.0002    0.0002    0.0194
C        13.3062    7.0594   12.7390    0.0004    0.0006    0.0901
C        13.6935    5.6496   12.7468    0.0002   -0.0002   -0.0124
N        12.1457   12.2786   12.7444   -0.0001   -0.0004    0.0369
N        12.0400    7.4796   12.7439   -0.0001    0.0001   -0.0370
C        15.2912   14.0035   12.7457    0.0001    0.0000    0.0123
C        15.6785   12.5937   12.7355    0.0000    0.0008   -0.0901
C        17.3094   10.8903   12.7347    0.0003    0.0002   -0.0197
C        18.7010   10.4413   12.7487    0.0004    0.0001   -0.0293
C        17.2595    8.6406   12.7332   -0.0003   -0.0001    0.0189
C        18.6693    9.0275   12.7476   -0.0004   -0.0001    0.0293
C        15.1073    5.6184   12.7412    0.0001   -0.0002   -0.0129
C        15.5559    7.0099   12.7320   -0.0001    0.0004    0.0899
N        16.9446   12.1735   12.7365   -0.0001   -0.0001    0.0371
N        16.8391    7.3745   12.7331   -0.0001   -0.0005   -0.0367
N        12.4947    9.8701   12.7367    0.0001   -0.0001   -0.0000
N        14.5362   11.8239   12.7312    0.0001   -0.0003    0.0646
N        16.4900    9.7831   12.7252    0.0001   -0.0003    0.0003
N        14.4485    7.8292   12.7301   -0.0004   -0.0002   -0.0645
C        13.1827   15.2473   12.7623    0.0001   -0.0003    0.0234
Zn       14.4924    9.8265   12.7264   -0.0000   -0.0000   -0.0000
C        16.0384   15.1842   12.7549    0.0002   -0.0000    0.0235
C        13.9324   16.4262   12.7720    0.0001   -0.0003    0.0187
C        15.3413   16.3949   12.7682    0.0002   -0.0001    0.0184
H        12.0925   15.2624   12.7653   -0.0004    0.0018   -0.1625
H        17.1282   15.1517   12.7524   -0.0001    0.0018   -0.1607
H        15.8945   17.3351   12.7765   -0.0005    0.0023   -0.2038
H        13.4215   17.3900   12.7831   -0.0005    0.0019   -0.2033
C        19.9141   11.1351   12.7666   -0.0001    0.0001    0.0148
C        19.8494    8.2795   12.7644    0.0002   -0.0001   -0.0146
C        21.0925   10.3847   12.7838    0.0003    0.0001   -0.0180
C        21.0605    8.9757   12.7834   -0.0004    0.0001    0.0181
H        19.9307   12.2252   12.7677   -0.0006    0.0001    0.0453
H        19.8161    7.1897   12.7642    0.0008   -0.0001   -0.0465
H        22.0002    8.4217   12.7979   -0.0005    0.0000    0.0221
H        22.0566   10.8949   12.7993    0.0005   -0.0001   -0.0236
C         9.0706    8.5177   12.7651   -0.0002    0.0001   -0.0147
C         9.1350   11.3733   12.7663    0.0002   -0.0000    0.0147
C         7.8920    9.2680   12.7781    0.0001   -0.0001    0.0180
C         7.9240   10.6769   12.7780   -0.0001   -0.0001   -0.0180
H         9.0541    7.4277   12.7650   -0.0003    0.0001   -0.0460
H         9.1683   12.4630   12.7667    0.0004   -0.0001    0.0460
H         6.9843   11.2312   12.7887   -0.0001    0.0001   -0.0229
H         6.9279    8.7580   12.7877    0.0001   -0.0001    0.0228
C        15.8019    4.4056   12.7477    0.0002   -0.0002   -0.0233
C        12.9464    4.4688   12.7613    0.0001   -0.0001   -0.0234
C        15.0523    3.2268   12.7611   -0.0002    0.0001   -0.0186
C        13.6434    3.2581   12.7682   -0.0002   -0.0003   -0.0183
H        16.8920    4.3900   12.7428    0.0010    0.0011    0.1623
H        11.8565    4.5005   12.7666    0.0011    0.0019    0.1601
H        13.0902    2.3178   12.7803    0.0010    0.0019    0.2032
H        15.5632    2.2628   12.7676    0.0009    0.0021    0.2021
    57
stable frequency at    721.670 1/cm IR int. is 2.274 a.m.u.; force const. is 0.698 mDyne/Ang.
C        10.3153   10.6255   12.7541    0.0002    0.0000   -0.0022
C        11.7250   11.0126   12.7436    0.0006    0.0001    0.0603
C        13.4288   12.6432   12.7402    0.0003   -0.0003    0.0602
C        13.8774   14.0347   12.7489   -0.0002   -0.0000   -0.0024
C        10.2838    9.2117   12.7538   -0.0001    0.0001   -0.0023
C        11.6752    8.7628   12.7434    0.0001   -0.0001    0.0604
C        13.3062    7.0594   12.7390    0.0003    0.0005    0.0606
C        13.6935    5.6496   12.7468   -0.0000    0.0001   -0.0022
N        12.1457   12.2786   12.7444   -0.0003    0.0006   -0.0373
N        12.0400    7.4796   12.7439   -0.0005   -0.0003   -0.0374
C        15.2912   14.0035   12.7457   -0.0002   -0.0000   -0.0023
C        15.6785   12.5937   12.7355    0.0002   -0.0004    0.0602
C        17.3094   10.8903   12.7347   -0.0003   -0.0005    0.0599
C        18.7010   10.4413   12.7487    0.0002   -0.0001   -0.0023
C        17.2595    8.6406   12.7332   -0.0008    0.0003    0.0599
C        18.6693    9.0275   12.7476   -0.0001    0.0000   -0.0020
C        15.1073    5.6184   12.7412   -0.0000   -0.0001   -0.0027
C        15.5559    7.0099   12.7320    0.0002    0.0000    0.0606
N        16.9446   12.1735   12.7365    0.0004   -0.0003   -0.0371
N        16.8391    7.3745   12.7331    0.0002    0.0000   -0.0373
N        12.4947    9.8701   12.7367   -0.0005   -0.0001   -0.0449
N        14.5362   11.8239   12.7312    0.0000    0.0003   -0.0448
N        16.4900    9.7831   12.7252    0.0001    0.0001   -0.0446
N        14.4485    7.8292   12.7301    0.0001   -0.0003   -0.0451
C        13.1827   15.2473   12.7623   -0.0001    0.0002   -0.0195
Zn       14.4924    9.8265   12.7264    0.0000   -0.0000    0.0012
C        16.0384   15.1842   12.7549   -0.0004    0.0001   -0.0194
C        13.9324   16.4262   12.7720    0.0001   -0.0000   -0.0173
C        15.3413   16.3949   12.7682    0.0001    0.0004   -0.0172
H        12.0925   15.2624   12.7653    0.0003   -0.0011    0.1308
H        17.1282   15.1517   12.7524   -0.0001   -0.0017    0.1299
H        15.8945   17.3351   12.7765    0.0005   -0.0017    0.1779
H        13.4215   17.3900   12.7831    0.0004   -0.0021    0.1777
C        19.9141   11.1351   12.7666    0.0004    0.0001   -0.0195
C        19.8494    8.2795   12.7644    0.0002    0.0001   -0.0195
C        21.0925   10.3847   12.7838    0.0003    0.0001   -0.0175
C        21.0605    8.9757   12.7834    0.0003    0.0000   -0.0172
H        19.9307   12.2252   12.7677   -0.0020    0.0000    0.1315
H        19.8161    7.1897   12.7642   -0.0021    0.0002    0.1296
H        22.0002    8.4217   12.7979   -0.0029   -0.0001    0.1787
H        22.0566   10.8949   12.7993   -0.0028    0.0000    0.1788
C         9.0706    8.5177   12.7651   -0.0002    0.0001   -0.0196
C         9.1350   11.3733   12.7663    0.0000   -0.0003   -0.0196
C         7.8920    9.2680   12.7781   -0.0002    0.0000   -0.0175
C         7.9240   10.6769   12.7780   -0.0002   -0.0000   -0.0172
H         9.0541    7.4277   12.7650    0.0015    0.0001    0.1318
H         9.1683   12.4630   12.7667    0.0015   -0.0004    0.1304
H         6.9843   11.2312   12.7887    0.0022    0.0001    0.1789
H         6.9279    8.7580   12.7877    0.0019   -0.0003    0.1791
C        15.8019    4.4056   12.7477   -0.0001   -0.0001   -0.0195
C        12.9464    4.4688   12.7613    0.0001   -0.0001   -0.0196
C        15.0523    3.2268   12.7611   -0.0001   -0.0000   -0.0174
C        13.6434    3.2581   12.7682   -0.0001   -0.0002   -0.0171
H        16.8920    4.3900   12.7428    0.0006    0.0012    0.1318
H        11.8565    4.5005   12.7666    0.0008    0.0013    0.1300
H        13.0902    2.3178   12.7803    0.0009    0.0017    0.1786
H        15.5632    2.2628   12.7676    0.0010    0.0018    0.1778
    57
stable frequency at    743.479 1/cm IR int. is 11.822 a.m.u.; force const. is 3.850 mDyne/Ang.
C        10.3153   10.6255   12.7541    0.0016    0.0208   -0.0002
C        11.7250   11.0126   12.7436   -0.0001    0.0581   -0.0000
C        13.4288   12.6432   12.7402    0.0577   -0.0025   -0.0000
C        13.8774   14.0347   12.7489    0.0203    0.0002    0.0001
C        10.2838    9.2117   12.7538    0.0005   -0.0206   -0.0002
C        11.6752    8.7628   12.7434   -0.0028   -0.0583   -0.0001
C        13.3062    7.0594   12.7390    0.0581    0.0002   -0.0002
C        13.6935    5.6496   12.7468    0.0202   -0.0012    0.0001
N        12.1457   12.2786   12.7444    0.0650    0.0635   -0.0001
N        12.0400    7.4796   12.7439    0.0630   -0.0662   -0.0001
C        15.2912   14.0035   12.7457   -0.0210    0.0015    0.0003
C        15.6785   12.5937   12.7355   -0.0571    0.0003    0.0003
C        17.3094   10.8903   12.7347    0.0022    0.0569   -0.0000
C        18.7010   10.4413   12.7487   -0.0004    0.0208   -0.0002
C        17.2595    8.6406   12.7332   -0.0002   -0.0572   -0.0001
C        18.6693    9.0275   12.7476   -0.0012   -0.0204   -0.0002
C        15.1073    5.6184   12.7412   -0.0211   -0.0007    0.0004
C        15.5559    7.0099   12.7320   -0.0576    0.0025    0.0005
N        16.9446   12.1735   12.7365   -0.0624    0.0646   -0.0000
N        16.8391    7.3745   12.7331   -0.0658   -0.0618   -0.0001
N        12.4947    9.8701   12.7367   -0.0489    0.0009    0.0003
N        14.5362   11.8239   12.7312   -0.0006   -0.0482   -0.0002
N        16.4900    9.7831   12.7252    0.0479   -0.0013    0.0002
N        14.4485    7.8292   12.7301    0.0015    0.0486   -0.0002
C        13.1827   15.2473   12.7623    0.0189   -0.0048   -0.0003
Zn       14.4924    9.8265   12.7264    0.0001   -0.0000   -0.0000
C        16.0384   15.1842   12.7549   -0.0197   -0.0038   -0.0002
C        13.9324   16.4262   12.7720   -0.0005    0.0042   -0.0002
C        15.3413   16.3949   12.7682    0.0012    0.0047   -0.0001
H        12.0925   15.2624   12.7653    0.0194   -0.0204    0.0009
H        17.1282   15.1517   12.7524   -0.0208   -0.0210    0.0007
H        15.8945   17.3351   12.7765    0.0170   -0.0049    0.0017
H        13.4215   17.3900   12.7831   -0.0170   -0.0048    0.0017
C        19.9141   11.1351   12.7666    0.0048    0.0195    0.0002
C        19.8494    8.2795   12.7644    0.0040   -0.0194    0.0001
C        21.0925   10.3847   12.7838   -0.0045   -0.0008    0.0000
C        21.0605    8.9757   12.7834   -0.0042    0.0008    0.0001
H        19.9307   12.2252   12.7677    0.0214    0.0199   -0.0001
H        19.8161    7.1897   12.7642    0.0201   -0.0206   -0.0003
H        22.0002    8.4217   12.7979    0.0055    0.0168   -0.0009
H        22.0566   10.8949   12.7993    0.0044   -0.0174   -0.0008
C         9.0706    8.5177   12.7651   -0.0046   -0.0187    0.0002
C         9.1350   11.3733   12.7663   -0.0037    0.0191    0.0002
C         7.8920    9.2680   12.7781    0.0044    0.0007    0.0001
C         7.9240   10.6769   12.7780    0.0046   -0.0011    0.0001
H         9.0541    7.4277   12.7650   -0.0205   -0.0191   -0.0005
H         9.1683   12.4630   12.7667   -0.0204    0.0203   -0.0006
H         6.9843   11.2312   12.7887   -0.0048   -0.0167   -0.0014
H         6.9279    8.7580   12.7877   -0.0044    0.0170   -0.0013
C        15.8019    4.4056   12.7477   -0.0193    0.0046   -0.0001
C        12.9464    4.4688   12.7613    0.0189    0.0039   -0.0003
C        15.0523    3.2268   12.7611    0.0011   -0.0048   -0.0001
C        13.6434    3.2581   12.7682   -0.0007   -0.0041   -0.0002
H        16.8920    4.3900   12.7428   -0.0197    0.0215    0.0006
H        11.8565    4.5005   12.7666    0.0200    0.0196    0.0011
H        13.0902    2.3178   12.7803   -0.0166    0.0055    0.0019
H        15.5632    2.2628   12.7676    0.0172    0.0039    0.0016
    57
stable frequency at    744.260 1/cm IR int. is 9.530 a.m.u.; force const. is 3.110 mDyne/Ang.
C        10.3153   10.6255   12.7541   -0.0089    0.0063    0.0002
C        11.7250   11.0126   12.7436    0.0232   -0.0613    0.0001
C        13.4288   12.6432   12.7402   -0.0406    0.0186    0.0008
C        13.8774   14.0347   12.7489    0.0372    0.0120   -0.0005
C        10.2838    9.2117   12.7538   -0.0181    0.0157   -0.0002
C        11.6752    8.7628   12.7434    0.0191    0.0457    0.0001
C        13.3062    7.0594   12.7390   -0.0107   -0.0057   -0.0005
C        13.6935    5.6496   12.7468    0.0392   -0.0215    0.0001
N        12.1457   12.2786   12.7444   -0.0172   -0.0740   -0.0004
N        12.0400    7.4796   12.7439    0.0291    0.0766   -0.0003
C        15.2912   14.0035   12.7457    0.0389   -0.0214   -0.0005
C        15.6785   12.5937   12.7355   -0.0117   -0.0057    0.0010
C        17.3094   10.8903   12.7347    0.0191    0.0467    0.0000
C        18.7010   10.4413   12.7487   -0.0182    0.0161    0.0007
C        17.2595    8.6406   12.7332    0.0231   -0.0624   -0.0002
C        18.6693    9.0275   12.7476   -0.0089    0.0060    0.0001
C        15.1073    5.6184   12.7412    0.0368    0.0120    0.0003
C        15.5559    7.0099   12.7320   -0.0416    0.0186   -0.0001
N        16.9446   12.1735   12.7365    0.0280    0.0778    0.0001
N        16.8391    7.3745   12.7331   -0.0183   -0.0752    0.0002
N        12.4947    9.8701   12.7367    0.0488   -0.0134   -0.0004
N        14.5362   11.8239   12.7312   -0.0438    0.0143   -0.0004
N        16.4900    9.7831   12.7252    0.0496   -0.0134    0.0002
N        14.4485    7.8292   12.7301   -0.0438    0.0152    0.0003
C        13.1827   15.2473   12.7623    0.0336    0.0012    0.0000
Zn       14.4924    9.8265   12.7264   -0.0080   -0.0021    0.0000
C        16.0384   15.1842   12.7549    0.0189   -0.0095   -0.0001
C        13.9324   16.4262   12.7720   -0.0230    0.0283    0.0005
C        15.3413   16.3949   12.7682   -0.0272   -0.0295    0.0001
H        12.0925   15.2624   12.7653    0.0328   -0.0645   -0.0008
H        17.1282   15.1517   12.7524    0.0205    0.0553   -0.0004
H        15.8945   17.3351   12.7765   -0.0116   -0.0385   -0.0020
H        13.4215   17.3900   12.7831   -0.0177    0.0304   -0.0014
C        19.9141   11.1351   12.7666   -0.0149   -0.0177   -0.0007
C        19.8494    8.2795   12.7644   -0.0105    0.0332   -0.0004
C        21.0925   10.3847   12.7838   -0.0131   -0.0122   -0.0006
C        21.0605    8.9757   12.7834    0.0036   -0.0018   -0.0006
H        19.9307   12.2252   12.7677    0.0012   -0.0186    0.0021
H        19.8161    7.1897   12.7642   -0.0315    0.0343    0.0024
H        22.0002    8.4217   12.7979   -0.0059   -0.0164    0.0041
H        22.0566   10.8949   12.7993   -0.0249    0.0091    0.0043
C         9.0706    8.5177   12.7651   -0.0150   -0.0181    0.0002
C         9.1350   11.3733   12.7663   -0.0106    0.0335    0.0001
C         7.8920    9.2680   12.7781   -0.0131   -0.0122    0.0001
C         7.9240   10.6769   12.7780    0.0036   -0.0018    0.0001
H         9.0541    7.4277   12.7650    0.0009   -0.0189    0.0002
H         9.1683   12.4630   12.7667   -0.0318    0.0347   -0.0001
H         6.9843   11.2312   12.7887   -0.0060   -0.0167   -0.0003
H         6.9279    8.7580   12.7877   -0.0250    0.0094   -0.0003
C        15.8019    4.4056   12.7477    0.0334    0.0012   -0.0003
C        12.9464    4.4688   12.7613    0.0192   -0.0095   -0.0000
C        15.0523    3.2268   12.7611   -0.0230    0.0282   -0.0002
C        13.6434    3.2581   12.7682   -0.0273   -0.0296    0.0000
H        16.8920    4.3900   12.7428    0.0324   -0.0643    0.0004
H        11.8565    4.5005   12.7666    0.0208    0.0556    0.0004
H        13.0902    2.3178   12.7803   -0.0119   -0.0384    0.0020
H        15.5632    2.2628   12.7676   -0.0174    0.0305    0.0012
    57
stable frequency at    744.276 1/cm IR int. is 9.534 a.m.u.; force const. is 3.112 mDyne/Ang.
C        10.3153   10.6255   12.7541    0.0214    0.0389   -0.0005
C        11.7250   11.0126   12.7436    0.0057   -0.0117    0.0009
C        13.4288   12.6432   12.7402   -0.0466    0.0190    0.0001
C        13.8774   14.0347   12.7489   -0.0161   -0.0182    0.0005
C        10.2838    9.2117   12.7538   -0.0120    0.0371   -0.0005
C        11.6752    8.7628   12.7434   -0.0185   -0.0407    0.0008
C        13.3062    7.0594   12.7390    0.0614    0.0232   -0.0003
C        13.6935    5.6496   12.7468   -0.0063   -0.0089    0.0003
N        12.1457   12.2786   12.7444   -0.0777    0.0282    0.0002
N        12.0400    7.4796   12.7439    0.0742   -0.0173   -0.0005
C        15.2912   14.0035   12.7457   -0.0060   -0.0089   -0.0002
C        15.6785   12.5937   12.7355    0.0622    0.0232   -0.0005
C        17.3094   10.8903   12.7347   -0.0186   -0.0415   -0.0010
C        18.7010   10.4413   12.7487   -0.0120    0.0369    0.0009
C        17.2595    8.6406   12.7332    0.0057   -0.0109   -0.0009
C        18.6693    9.0275   12.7476    0.0215    0.0392    0.0000
C        15.1073    5.6184   12.7412   -0.0158   -0.0181   -0.0004
C        15.5559    7.0099   12.7320   -0.0458    0.0190    0.0004
N        16.9446   12.1735   12.7365    0.0750   -0.0182    0.0006
N        16.8391    7.3745   12.7331   -0.0768    0.0290   -0.0001
N        12.4947    9.8701   12.7367   -0.0144   -0.0438   -0.0005
N        14.5362   11.8239   12.7312    0.0134    0.0495    0.0003
N        16.4900    9.7831   12.7252   -0.0150   -0.0438    0.0005
N        14.4485    7.8292   12.7301    0.0134    0.0488   -0.0002
C        13.1827   15.2473   12.7623    0.0177   -0.0149   -0.0004
Zn       14.4924    9.8265   12.7264    0.0021   -0.0081   -0.0000
C        16.0384   15.1842   12.7549   -0.0331   -0.0105    0.0001
C        13.9324   16.4262   12.7720    0.0122   -0.0131   -0.0001
C        15.3413   16.3949   12.7682    0.0018    0.0036   -0.0003
H        12.0925   15.2624   12.7653    0.0185    0.0013    0.0000
H        17.1282   15.1517   12.7524   -0.0343   -0.0315    0.0007
H        15.8945   17.3351   12.7765    0.0164   -0.0058    0.0008
H        13.4215   17.3900   12.7831   -0.0090   -0.0249    0.0011
C        19.9141   11.1351   12.7666   -0.0013    0.0333   -0.0002
C        19.8494    8.2795   12.7644    0.0095    0.0192    0.0004
C        21.0925   10.3847   12.7838   -0.0283   -0.0230   -0.0003
C        21.0605    8.9757   12.7834    0.0296   -0.0273   -0.0001
H        19.9307   12.2252   12.7677    0.0642    0.0324    0.0000
H        19.8161    7.1897   12.7642   -0.0556    0.0209    0.0003
H        22.0002    8.4217   12.7979    0.0384   -0.0120    0.0018
H        22.0566   10.8949   12.7993   -0.0305   -0.0175    0.0011
C         9.0706    8.5177   12.7651   -0.0012    0.0336    0.0002
C         9.1350   11.3733   12.7663    0.0095    0.0189   -0.0000
C         7.8920    9.2680   12.7781   -0.0283   -0.0230    0.0005
C         7.9240   10.6769   12.7780    0.0295   -0.0273    0.0001
H         9.0541    7.4277   12.7650    0.0646    0.0327   -0.0010
H         9.1683   12.4630   12.7667   -0.0554    0.0206   -0.0004
H         6.9843   11.2312   12.7887    0.0385   -0.0117   -0.0026
H         6.9279    8.7580   12.7877   -0.0305   -0.0177   -0.0019
C        15.8019    4.4056   12.7477    0.0180   -0.0150    0.0002
C        12.9464    4.4688   12.7613   -0.0334   -0.0106    0.0003
C        15.0523    3.2268   12.7611    0.0122   -0.0131    0.0000
C        13.6434    3.2581   12.7682    0.0018    0.0037    0.0002
H        16.8920    4.3900   12.7428    0.0188    0.0010    0.0001
H        11.8565    4.5005   12.7666   -0.0346   -0.0318   -0.0006
H        13.0902    2.3178   12.7803    0.0167   -0.0059   -0.0009
H        15.5632    2.2628   12.7676   -0.0093   -0.0250   -0.0007
    57
stable frequency at    756.896 1/cm IR int. is 1.685 a.m.u.; force const. is 0.569 mDyne/Ang.
C        10.3153   10.6255   12.7541    0.0007    0.0003    0.0349
C        11.7250   11.0126   12.7436   -0.0003    0.0006   -0.0429
C        13.4288   12.6432   12.7402    0.0005   -0.0006    0.0423
C        13.8774   14.0347   12.7489   -0.0004    0.0001   -0.0347
C        10.2838    9.2117   12.7538    0.0001    0.0001    0.0348
C        11.6752    8.7628   12.7434   -0.0007   -0.0005   -0.0429
C        13.3062    7.0594   12.7390    0.0006    0.0002    0.0416
C        13.6935    5.6496   12.7468   -0.0000   -0.0005   -0.0340
N        12.1457   12.2786   12.7444    0.0002    0.0007    0.0002
N        12.0400    7.4796   12.7439    0.0004   -0.0004    0.0003
C        15.2912   14.0035   12.7457   -0.0005    0.0007   -0.0348
C        15.6785   12.5937   12.7355   -0.0002   -0.0002    0.0424
C        17.3094   10.8903   12.7347    0.0006    0.0001   -0.0434
C        18.7010   10.4413   12.7487   -0.0002   -0.0002    0.0354
C        17.2595    8.6406   12.7332    0.0001   -0.0001   -0.0435
C        18.6693    9.0275   12.7476   -0.0007   -0.0003    0.0351
C        15.1073    5.6184   12.7412   -0.0001   -0.0001   -0.0346
C        15.5559    7.0099   12.7320   -0.0001    0.0004    0.0418
N        16.9446   12.1735   12.7365   -0.0004   -0.0003    0.0002
N        16.8391    7.3745   12.7331   -0.0002   -0.0001    0.0005
N        12.4947    9.8701   12.7367   -0.0004   -0.0000    0.0259
N        14.5362   11.8239   12.7312    0.0001   -0.0003   -0.0255
N        16.4900    9.7831   12.7252   -0.0001    0.0000    0.0262
N        14.4485    7.8292   12.7301    0.0001    0.0003   -0.0251
C        13.1827   15.2473   12.7623   -0.0002   -0.0003    0.0194
Zn       14.4924    9.8265   12.7264    0.0000   -0.0000   -0.0000
C        16.0384   15.1842   12.7549    0.0001    0.0001    0.0194
C        13.9324   16.4262   12.7720    0.0003   -0.0006    0.0278
C        15.3413   16.3949   12.7682    0.0005    0.0001    0.0278
H        12.0925   15.2624   12.7653   -0.0006    0.0018   -0.1230
H        17.1282   15.1517   12.7524   -0.0002    0.0008   -0.1223
H        15.8945   17.3351   12.7765   -0.0006    0.0031   -0.2339
H        13.4215   17.3900   12.7831   -0.0005    0.0019   -0.2337
C        19.9141   11.1351   12.7666    0.0005    0.0001   -0.0197
C        19.8494    8.2795   12.7644    0.0000    0.0000   -0.0195
C        21.0925   10.3847   12.7838    0.0007    0.0002   -0.0281
C        21.0605    8.9757   12.7834    0.0002    0.0003   -0.0280
H        19.9307   12.2252   12.7677   -0.0020    0.0000    0.1242
H        19.8161    7.1897   12.7642   -0.0017    0.0001    0.1231
H        22.0002    8.4217   12.7979   -0.0041    0.0000    0.2361
H        22.0566   10.8949   12.7993   -0.0034   -0.0001    0.2368
C         9.0706    8.5177   12.7651   -0.0002    0.0001   -0.0194
C         9.1350   11.3733   12.7663    0.0001   -0.0003   -0.0193
C         7.8920    9.2680   12.7781   -0.0004   -0.0001   -0.0280
C         7.9240   10.6769   12.7780   -0.0001   -0.0002   -0.0276
H         9.0541    7.4277   12.7650    0.0017    0.0001    0.1232
H         9.1683   12.4630   12.7667    0.0013   -0.0004    0.1217
H         6.9843   11.2312   12.7887    0.0030   -0.0000    0.2334
H         6.9279    8.7580   12.7877    0.0023   -0.0002    0.2341
C        15.8019    4.4056   12.7477    0.0000    0.0002    0.0193
C        12.9464    4.4688   12.7613   -0.0001   -0.0001    0.0191
C        15.0523    3.2268   12.7611    0.0000    0.0003    0.0273
C        13.6434    3.2581   12.7682   -0.0000    0.0001    0.0276
H        16.8920    4.3900   12.7428   -0.0006   -0.0012   -0.1214
H        11.8565    4.5005   12.7666   -0.0008   -0.0012   -0.1216
H        13.0902    2.3178   12.7803   -0.0012   -0.0026   -0.2315
H        15.5632    2.2628   12.7676   -0.0010   -0.0019   -0.2308
    57
stable frequency at    763.461 1/cm IR int. is 1.774 a.m.u.; force const. is 0.609 mDyne/Ang.
C        10.3153   10.6255   12.7541   -0.0006   -0.0004   -0.0456
C        11.7250   11.0126   12.7436   -0.0003    0.0003    0.0594
C        13.4288   12.6432   12.7402    0.0005   -0.0007   -0.0131
C        13.8774   14.0347   12.7489   -0.0004    0.0000    0.0325
C        10.2838    9.2117   12.7538    0.0001   -0.0002   -0.0436
C        11.6752    8.7628   12.7434    0.0007    0.0000    0.0583
C        13.3062    7.0594   12.7390   -0.0003   -0.0002   -0.0106
C        13.6935    5.6496   12.7468   -0.0000    0.0004    0.0304
N        12.1457   12.2786   12.7444    0.0004    0.0000   -0.0123
N        12.0400    7.4796   12.7439   -0.0007   -0.0006   -0.0126
C        15.2912   14.0035   12.7457    0.0001    0.0007   -0.0288
C        15.6785   12.5937   12.7355   -0.0003   -0.0008    0.0079
C        17.3094   10.8903   12.7347    0.0013    0.0001   -0.0601
C        18.7010   10.4413   12.7487   -0.0003   -0.0005    0.0444
C        17.2595    8.6406   12.7332    0.0002    0.0003   -0.0615
C        18.6693    9.0275   12.7476   -0.0011   -0.0001    0.0468
C        15.1073    5.6184   12.7412   -0.0003   -0.0002   -0.0309
C        15.5559    7.0099   12.7320    0.0005   -0.0002    0.0104
N        16.9446   12.1735   12.7365   -0.0006   -0.0008    0.0138
N        16.8391    7.3745   12.7331    0.0005    0.0001    0.0135
N        12.4947    9.8701   12.7367   -0.0007    0.0006   -0.0349
N        14.5362   11.8239   12.7312    0.0000   -0.0013    0.0016
N        16.4900    9.7831   12.7252    0.0001    0.0005    0.0362
N        14.4485    7.8292   12.7301    0.0001   -0.0002    0.0002
C        13.1827   15.2473   12.7623   -0.0015    0.0007   -0.0091
Zn       14.4924    9.8265   12.7264    0.0000    0.0001   -0.0000
C        16.0384   15.1842   12.7549    0.0012    0.0006    0.0072
C        13.9324   16.4262   12.7720   -0.0000   -0.0002    0.0093
C        15.3413   16.3949   12.7682    0.0003    0.0004   -0.0124
H        12.0925   15.2624   12.7653   -0.0016    0.0019   -0.0336
H        17.1282   15.1517   12.7524    0.0014    0.0004    0.0466
H        15.8945   17.3351   12.7765   -0.0007    0.0009    0.0089
H        13.4215   17.3900   12.7831    0.0009    0.0003    0.0167
C        19.9141   11.1351   12.7666    0.0003   -0.0004   -0.0246
C        19.8494    8.2795   12.7644    0.0000    0.0005   -0.0247
C        21.0925   10.3847   12.7838    0.0006    0.0001   -0.0384
C        21.0605    8.9757   12.7834    0.0005    0.0003   -0.0372
H        19.9307   12.2252   12.7677   -0.0034   -0.0006    0.1711
H        19.8161    7.1897   12.7642   -0.0027    0.0006    0.1647
H        22.0002    8.4217   12.7979   -0.0056   -0.0003    0.3215
H        22.0566   10.8949   12.7993   -0.0052    0.0004    0.3225
C         9.0706    8.5177   12.7651    0.0006    0.0006    0.0243
C         9.1350   11.3733   12.7663    0.0003   -0.0005    0.0244
C         7.8920    9.2680   12.7781    0.0005    0.0002    0.0377
C         7.9240   10.6769   12.7780    0.0004    0.0001    0.0365
H         9.0541    7.4277   12.7650   -0.0017    0.0006   -0.1682
H         9.1683   12.4630   12.7667   -0.0010   -0.0004   -0.1625
H         6.9843   11.2312   12.7887   -0.0034    0.0006   -0.3153
H         6.9279    8.7580   12.7877   -0.0029    0.0001   -0.3162
C        15.8019    4.4056   12.7477   -0.0003    0.0001    0.0084
C        12.9464    4.4688   12.7613    0.0000    0.0001   -0.0080
C        15.0523    3.2268   12.7611    0.0000   -0.0003   -0.0106
C        13.6434    3.2581   12.7682    0.0002    0.0003    0.0112
H        16.8920    4.3900   12.7428   -0.0001    0.0007    0.0388
H        11.8565    4.5005   12.7666   -0.0002   -0.0005   -0.0416
H        13.0902    2.3178   12.7803   -0.0000    0.0003    0.0013
H        15.5632    2.2628   12.7676    0.0001   -0.0002   -0.0066
    57
stable frequency at    763.697 1/cm IR int. is 1.768 a.m.u.; force const. is 0.608 mDyne/Ang.
C        10.3153   10.6255   12.7541   -0.0004    0.0001   -0.0292
C        11.7250   11.0126   12.7436    0.0004   -0.0002    0.0083
C        13.4288   12.6432   12.7402   -0.0003    0.0008   -0.0597
C        13.8774   14.0347   12.7489    0.0003   -0.0001    0.0444
C        10.2838    9.2117   12.7538    0.0002   -0.0002    0.0327
C        11.6752    8.7628   12.7434    0.0003    0.0003   -0.0133
C        13.3062    7.0594   12.7390    0.0001    0.0001    0.0590
C        13.6935    5.6496   12.7468    0.0000   -0.0007   -0.0453
N        12.1457   12.2786   12.7444    0.0004   -0.0005    0.0135
N        12.0400    7.4796   12.7439    0.0001    0.0003   -0.0121
C        15.2912   14.0035   12.7457    0.0003   -0.0006    0.0464
C        15.6785   12.5937   12.7355   -0.0002    0.0000   -0.0608
C        17.3094   10.8903   12.7347    0.0004    0.0004    0.0110
C        18.7010   10.4413   12.7487    0.0003   -0.0001   -0.0314
C        17.2595    8.6406   12.7332    0.0004   -0.0002   -0.0106
C        18.6693    9.0275   12.7476   -0.0006    0.0001    0.0306
C        15.1073    5.6184   12.7412    0.0001   -0.0001   -0.0439
C        15.5559    7.0099   12.7320   -0.0000    0.0007    0.0583
N        16.9446   12.1735   12.7365    0.0001    0.0002    0.0132
N        16.8391    7.3745   12.7331    0.0003   -0.0005   -0.0126
N        12.4947    9.8701   12.7367    0.0005   -0.0001    0.0015
N        14.5362   11.8239   12.7312   -0.0003   -0.0001    0.0358
N        16.4900    9.7831   12.7252    0.0006   -0.0000   -0.0000
N        14.4485    7.8292   12.7301   -0.0006    0.0000   -0.0347
C        13.1827   15.2473   12.7623   -0.0001    0.0003   -0.0246
Zn       14.4924    9.8265   12.7264   -0.0001   -0.0000   -0.0000
C        16.0384   15.1842   12.7549   -0.0002    0.0001   -0.0248
C        13.9324   16.4262   12.7720   -0.0002    0.0004   -0.0382
C        15.3413   16.3949   12.7682   -0.0002    0.0004   -0.0375
H        12.0925   15.2624   12.7653    0.0005   -0.0020    0.1709
H        17.1282   15.1517   12.7524    0.0002   -0.0015    0.1662
H        15.8945   17.3351   12.7765    0.0007   -0.0035    0.3218
H        13.4215   17.3900   12.7831    0.0007   -0.0032    0.3217
C        19.9141   11.1351   12.7666   -0.0004   -0.0007    0.0085
C        19.8494    8.2795   12.7644   -0.0002    0.0006   -0.0079
C        21.0925   10.3847   12.7838    0.0001   -0.0001   -0.0106
C        21.0605    8.9757   12.7834   -0.0003    0.0001    0.0114
H        19.9307   12.2252   12.7677   -0.0012   -0.0007    0.0388
H        19.8161    7.1897   12.7642    0.0002    0.0006   -0.0425
H        22.0002    8.4217   12.7979   -0.0003   -0.0003    0.0003
H        22.0566   10.8949   12.7993   -0.0002    0.0004   -0.0073
C         9.0706    8.5177   12.7651   -0.0003   -0.0006   -0.0091
C         9.1350   11.3733   12.7663   -0.0002    0.0005    0.0073
C         7.8920    9.2680   12.7781    0.0001   -0.0000    0.0095
C         7.9240   10.6769   12.7780   -0.0003    0.0002   -0.0124
H         9.0541    7.4277   12.7650   -0.0010   -0.0006   -0.0342
H         9.1683   12.4630   12.7667    0.0001    0.0005    0.0469
H         6.9843   11.2312   12.7887   -0.0003   -0.0003    0.0086
H         6.9279    8.7580   12.7877    0.0000    0.0003    0.0163
C        15.8019    4.4056   12.7477    0.0001    0.0002    0.0245
C        12.9464    4.4688   12.7613    0.0001    0.0001    0.0245
C        15.0523    3.2268   12.7611    0.0000    0.0004    0.0373
C        13.6434    3.2581   12.7682    0.0001    0.0003    0.0370
H        16.8920    4.3900   12.7428   -0.0008   -0.0018   -0.1682
H        11.8565    4.5005   12.7666   -0.0008   -0.0012   -0.1646
H        13.0902    2.3178   12.7803   -0.0018   -0.0033   -0.3174
H        15.5632    2.2628   12.7676   -0.0017   -0.0028   -0.3160
    57
stable frequency at    765.540 1/cm IR int. is 2.146 a.m.u.; force const. is 0.741 mDyne/Ang.
C        10.3153   10.6255   12.7541    0.0004   -0.0001    0.0331
C        11.7250   11.0126   12.7436   -0.0002    0.0002   -0.0558
C        13.4288   12.6432   12.7402   -0.0001    0.0005   -0.0536
C        13.8774   14.0347   12.7489   -0.0002   -0.0001    0.0306
C        10.2838    9.2117   12.7538    0.0002   -0.0000    0.0315
C        11.6752    8.7628   12.7434   -0.0008   -0.0001   -0.0550
C        13.3062    7.0594   12.7390   -0.0003    0.0000   -0.0555
C        13.6935    5.6496   12.7468    0.0001    0.0003    0.0318
N        12.1457   12.2786   12.7444    0.0003    0.0001    0.0278
N        12.0400    7.4796   12.7439   -0.0000    0.0002    0.0281
C        15.2912   14.0035   12.7457   -0.0000   -0.0002    0.0317
C        15.6785   12.5937   12.7355    0.0001   -0.0001   -0.0541
C        17.3094   10.8903   12.7347    0.0008   -0.0000   -0.0532
C        18.7010   10.4413   12.7487   -0.0002   -0.0000    0.0309
C        17.2595    8.6406   12.7332    0.0002   -0.0001   -0.0531
C        18.6693    9.0275   12.7476   -0.0005    0.0001    0.0301
C        15.1073    5.6184   12.7412    0.0002    0.0000    0.0337
C        15.5559    7.0099   12.7320   -0.0001   -0.0004   -0.0563
N        16.9446   12.1735   12.7365    0.0000   -0.0005    0.0272
N        16.8391    7.3745   12.7331   -0.0003    0.0001    0.0278
N        12.4947    9.8701   12.7367    0.0001   -0.0001    0.0363
N        14.5362   11.8239   12.7312    0.0000   -0.0004    0.0354
N        16.4900    9.7831   12.7252   -0.0002    0.0001    0.0350
N        14.4485    7.8292   12.7301    0.0003    0.0003    0.0366
C        13.1827   15.2473   12.7623   -0.0006    0.0003   -0.0140
Zn       14.4924    9.8265   12.7264    0.0000    0.0000   -0.0008
C        16.0384   15.1842   12.7549    0.0000    0.0003   -0.0142
C        13.9324   16.4262   12.7720    0.0001   -0.0001   -0.0247
C        15.3413   16.3949   12.7682    0.0001    0.0006   -0.0244
H        12.0925   15.2624   12.7653   -0.0003   -0.0004    0.1011
H        17.1282   15.1517   12.7524    0.0002   -0.0011    0.0988
H        15.8945   17.3351   12.7765    0.0003   -0.0015    0.2013
H        13.4215   17.3900   12.7831    0.0007   -0.0023    0.2010
C        19.9141   11.1351   12.7666    0.0002    0.0001   -0.0140
C        19.8494    8.2795   12.7644    0.0001    0.0003   -0.0135
C        21.0925   10.3847   12.7838    0.0002   -0.0001   -0.0239
C        21.0605    8.9757   12.7834    0.0005   -0.0000   -0.0240
H        19.9307   12.2252   12.7677   -0.0015   -0.0000    0.0975
H        19.8161    7.1897   12.7642   -0.0018    0.0004    0.0969
H        22.0002    8.4217   12.7979   -0.0030   -0.0001    0.1961
H        22.0566   10.8949   12.7993   -0.0034    0.0001    0.1969
C         9.0706    8.5177   12.7651   -0.0001   -0.0001   -0.0147
C         9.1350   11.3733   12.7663   -0.0000   -0.0003   -0.0148
C         7.8920    9.2680   12.7781   -0.0001    0.0001   -0.0259
C         7.9240   10.6769   12.7780   -0.0004    0.0001   -0.0250
H         9.0541    7.4277   12.7650    0.0011   -0.0001    0.1062
H         9.1683   12.4630   12.7667    0.0013   -0.0004    0.1022
H         6.9843   11.2312   12.7887    0.0022   -0.0001    0.2090
H         6.9279    8.7580   12.7877    0.0024   -0.0002    0.2097
C        15.8019    4.4056   12.7477    0.0004   -0.0003   -0.0154
C        12.9464    4.4688   12.7613   -0.0003   -0.0002   -0.0147
C        15.0523    3.2268   12.7611   -0.0001   -0.0001   -0.0255
C        13.6434    3.2581   12.7682   -0.0002   -0.0003   -0.0262
H        16.8920    4.3900   12.7428    0.0009    0.0007    0.1054
H        11.8565    4.5005   12.7666    0.0003    0.0008    0.1068
H        13.0902    2.3178   12.7803    0.0014    0.0019    0.2128
H        15.5632    2.2628   12.7676    0.0009    0.0019    0.2122
    57
stable frequency at    767.851 1/cm IR int. is 6.214 a.m.u.; force const. is 2.159 mDyne/Ang.
C        10.3153   10.6255   12.7541   -0.0159    0.0157   -0.0002
C        11.7250   11.0126   12.7436    0.0332   -0.0070    0.0002
C        13.4288   12.6432   12.7402   -0.0055    0.0335    0.0007
C        13.8774   14.0347   12.7489    0.0152   -0.0166   -0.0006
C        10.2838    9.2117   12.7538   -0.0166   -0.0152   -0.0003
C        11.6752    8.7628   12.7434    0.0336    0.0055    0.0004
C        13.3062    7.0594   12.7390   -0.0070   -0.0332    0.0015
C        13.6935    5.6496   12.7468    0.0157    0.0158   -0.0015
N        12.1457   12.2786   12.7444    0.0031    0.0030   -0.0003
N        12.0400    7.4796   12.7439    0.0030   -0.0032   -0.0005
C        15.2912   14.0035   12.7457   -0.0157   -0.0159    0.0006
C        15.6785   12.5937   12.7355    0.0070    0.0332   -0.0005
C        17.3094   10.8903   12.7347   -0.0336   -0.0055   -0.0019
C        18.7010   10.4413   12.7487    0.0166    0.0152    0.0011
C        17.2595    8.6406   12.7332   -0.0331    0.0070   -0.0014
C        18.6693    9.0275   12.7476    0.0159   -0.0157    0.0003
C        15.1073    5.6184   12.7412   -0.0152    0.0166    0.0014
C        15.5559    7.0099   12.7320    0.0055   -0.0335   -0.0009
N        16.9446   12.1735   12.7365   -0.0030    0.0032    0.0006
N        16.8391    7.3745   12.7331   -0.0031   -0.0030    0.0006
N        12.4947    9.8701   12.7367    0.0633   -0.0014   -0.0009
N        14.5362   11.8239   12.7312    0.0014    0.0633    0.0005
N        16.4900    9.7831   12.7252   -0.0633    0.0014    0.0004
N        14.4485    7.8292   12.7301   -0.0014   -0.0633    0.0003
C        13.1827   15.2473   12.7623    0.0659   -0.0317   -0.0004
Zn       14.4924    9.8265   12.7264    0.0000    0.0000   -0.0000
C        16.0384   15.1842   12.7549   -0.0671   -0.0287   -0.0001
C        13.9324   16.4262   12.7720    0.0098   -0.0063   -0.0004
C        15.3413   16.3949   12.7682   -0.0102   -0.0060    0.0002
H        12.0925   15.2624   12.7653    0.0673   -0.0595    0.0006
H        17.1282   15.1517   12.7524   -0.0698   -0.0568   -0.0017
H        15.8945   17.3351   12.7765    0.0390   -0.0366   -0.0006
H        13.4215   17.3900   12.7831   -0.0408   -0.0347    0.0002
C        19.9141   11.1351   12.7666    0.0318    0.0659    0.0001
C        19.8494    8.2795   12.7644    0.0287   -0.0672    0.0001
C        21.0925   10.3847   12.7838    0.0063    0.0098   -0.0002
C        21.0605    8.9757   12.7834    0.0059   -0.0102   -0.0007
H        19.9307   12.2252   12.7677    0.0595    0.0673    0.0023
H        19.8161    7.1897   12.7642    0.0568   -0.0699    0.0039
H        22.0002    8.4217   12.7979    0.0365    0.0390    0.0052
H        22.0566   10.8949   12.7993    0.0347   -0.0409    0.0046
C         9.0706    8.5177   12.7651   -0.0318   -0.0659    0.0004
C         9.1350   11.3733   12.7663   -0.0287    0.0672    0.0005
C         7.8920    9.2680   12.7781   -0.0063   -0.0098    0.0003
C         7.9240   10.6769   12.7780   -0.0059    0.0102    0.0003
H         9.0541    7.4277   12.7650   -0.0595   -0.0673   -0.0002
H         9.1683   12.4630   12.7667   -0.0569    0.0699   -0.0004
H         6.9843   11.2312   12.7887   -0.0366   -0.0390   -0.0014
H         6.9279    8.7580   12.7877   -0.0348    0.0409   -0.0014
C        15.8019    4.4056   12.7477   -0.0659    0.0318   -0.0001
C        12.9464    4.4688   12.7613    0.0671    0.0287   -0.0004
C        15.0523    3.2268   12.7611   -0.0098    0.0063    0.0006
C        13.6434    3.2581   12.7682    0.0102    0.0060   -0.0006
H        16.8920    4.3900   12.7428   -0.0673    0.0595   -0.0032
H        11.8565    4.5005   12.7666    0.0698    0.0569    0.0018
H        13.0902    2.3178   12.7803   -0.0390    0.0366   -0.0002
H        15.5632    2.2628   12.7676    0.0408    0.0347   -0.0010
    57
stable frequency at    770.951 1/cm IR int. is 5.486 a.m.u.; force const. is 1.921 mDyne/Ang.
C        10.3153   10.6255   12.7541    0.0007   -0.0000    0.0750
C        11.7250   11.0126   12.7436   -0.0004    0.0001   -0.0571
C        13.4288   12.6432   12.7402   -0.0003    0.0002   -0.0524
C        13.8774   14.0347   12.7489    0.0001   -0.0006    0.0674
C        10.2838    9.2117   12.7538   -0.0007    0.0001   -0.0750
C        11.6752    8.7628   12.7434    0.0003   -0.0000    0.0569
C        13.3062    7.0594   12.7390    0.0004    0.0002    0.0521
C        13.6935    5.6496   12.7468   -0.0004   -0.0006   -0.0666
N        12.1457   12.2786   12.7444   -0.0000   -0.0000    0.0289
N        12.0400    7.4796   12.7439    0.0000   -0.0001   -0.0288
C        15.2912   14.0035   12.7457   -0.0000    0.0006   -0.0674
C        15.6785   12.5937   12.7355    0.0001   -0.0004    0.0525
C        17.3094   10.8903   12.7347   -0.0004   -0.0003    0.0568
C        18.7010   10.4413   12.7487    0.0009    0.0003   -0.0746
C        17.2595    8.6406   12.7332    0.0005   -0.0002   -0.0563
C        18.6693    9.0275   12.7476   -0.0009    0.0002    0.0743
C        15.1073    5.6184   12.7412    0.0001    0.0004    0.0662
C        15.5559    7.0099   12.7320   -0.0002   -0.0002   -0.0513
N        16.9446   12.1735   12.7365    0.0003    0.0001   -0.0289
N        16.8391    7.3745   12.7331   -0.0003    0.0001    0.0284
N        12.4947    9.8701   12.7367   -0.0001   -0.0001    0.0001
N        14.5362   11.8239   12.7312    0.0001   -0.0001   -0.0000
N        16.4900    9.7831   12.7252    0.0001    0.0000   -0.0002
N        14.4485    7.8292   12.7301   -0.0000    0.0000   -0.0003
C        13.1827   15.2473   12.7623   -0.0002    0.0002   -0.0115
Zn       14.4924    9.8265   12.7264    0.0000    0.0000    0.0000
C        16.0384   15.1842   12.7549    0.0002   -0.0001    0.0114
C        13.9324   16.4262   12.7720    0.0000   -0.0002    0.0240
C        15.3413   16.3949   12.7682   -0.0000    0.0003   -0.0240
H        12.0925   15.2624   12.7653   -0.0005    0.0012   -0.1102
H        17.1282   15.1517   12.7524    0.0004   -0.0009    0.1100
H        15.8945   17.3351   12.7765   -0.0001   -0.0000    0.0088
H        13.4215   17.3900   12.7831    0.0001    0.0002   -0.0086
C        19.9141   11.1351   12.7666   -0.0002   -0.0000    0.0127
C        19.8494    8.2795   12.7644    0.0002    0.0002   -0.0125
C        21.0925   10.3847   12.7838    0.0002   -0.0002   -0.0265
C        21.0605    8.9757   12.7834   -0.0003   -0.0001    0.0268
H        19.9307   12.2252   12.7677   -0.0015   -0.0001    0.1215
H        19.8161    7.1897   12.7642    0.0015    0.0002   -0.1226
H        22.0002    8.4217   12.7979    0.0004   -0.0001   -0.0111
H        22.0566   10.8949   12.7993   -0.0004   -0.0000    0.0086
C         9.0706    8.5177   12.7651    0.0001    0.0002    0.0127
C         9.1350   11.3733   12.7663   -0.0001   -0.0000   -0.0126
C         7.8920    9.2680   12.7781   -0.0003   -0.0000   -0.0268
C         7.9240   10.6769   12.7780    0.0003   -0.0001    0.0269
H         9.0541    7.4277   12.7650    0.0014    0.0001    0.1233
H         9.1683   12.4630   12.7667   -0.0013    0.0000   -0.1234
H         6.9843   11.2312   12.7887   -0.0001    0.0000   -0.0102
H         6.9279    8.7580   12.7877    0.0001   -0.0001    0.0096
C        15.8019    4.4056   12.7477   -0.0000   -0.0001   -0.0112
C        12.9464    4.4688   12.7613   -0.0000    0.0001    0.0114
C        15.0523    3.2268   12.7611    0.0002    0.0002    0.0237
C        13.6434    3.2581   12.7682   -0.0001   -0.0001   -0.0235
H        16.8920    4.3900   12.7428   -0.0005   -0.0008   -0.1091
H        11.8565    4.5005   12.7666    0.0005    0.0009    0.1077
H        13.0902    2.3178   12.7803    0.0001    0.0002    0.0076
H        15.5632    2.2628   12.7676   -0.0000   -0.0001   -0.0094
    57
stable frequency at    771.336 1/cm IR int. is 4.794 a.m.u.; force const. is 1.681 mDyne/Ang.
C        10.3153   10.6255   12.7541    0.0006   -0.0001    0.0735
C        11.7250   11.0126   12.7436   -0.0001    0.0001   -0.0435
C        13.4288   12.6432   12.7402    0.0002    0.0001    0.0490
C        13.8774   14.0347   12.7489   -0.0002    0.0006   -0.0809
C        10.2838    9.2117   12.7538   -0.0007   -0.0001   -0.0737
C        11.6752    8.7628   12.7434    0.0004    0.0001    0.0437
C        13.3062    7.0594   12.7390   -0.0002   -0.0002   -0.0482
C        13.6935    5.6496   12.7468    0.0004    0.0007    0.0795
N        12.1457   12.2786   12.7444    0.0001    0.0000   -0.0014
N        12.0400    7.4796   12.7439   -0.0000   -0.0000    0.0012
C        15.2912   14.0035   12.7457   -0.0001   -0.0008    0.0809
C        15.6785   12.5937   12.7355    0.0001    0.0006   -0.0494
C        17.3094   10.8903   12.7347   -0.0004   -0.0001    0.0425
C        18.7010   10.4413   12.7487    0.0010    0.0001   -0.0722
C        17.2595    8.6406   12.7332    0.0002    0.0000   -0.0428
C        18.6693    9.0275   12.7476   -0.0009   -0.0000    0.0722
C        15.1073    5.6184   12.7412   -0.0002   -0.0006   -0.0795
C        15.5559    7.0099   12.7320    0.0000    0.0003    0.0482
N        16.9446   12.1735   12.7365   -0.0001   -0.0001    0.0018
N        16.8391    7.3745   12.7331    0.0001   -0.0001   -0.0014
N        12.4947    9.8701   12.7367    0.0003   -0.0000   -0.0001
N        14.5362   11.8239   12.7312    0.0000    0.0006    0.0002
N        16.4900    9.7831   12.7252   -0.0002   -0.0000    0.0002
N        14.4485    7.8292   12.7301   -0.0001    0.0001   -0.0000
C        13.1827   15.2473   12.7623    0.0006   -0.0004    0.0136
Zn       14.4924    9.8265   12.7264   -0.0000   -0.0000   -0.0000
C        16.0384   15.1842   12.7549   -0.0006   -0.0001   -0.0135
C        13.9324   16.4262   12.7720    0.0000    0.0002   -0.0300
C        15.3413   16.3949   12.7682    0.0000   -0.0003    0.0301
H        12.0925   15.2624   12.7653    0.0009   -0.0017    0.1371
H        17.1282   15.1517   12.7524   -0.0009    0.0008   -0.1373
H        15.8945   17.3351   12.7765    0.0003   -0.0001   -0.0122
H        13.4215   17.3900   12.7831   -0.0003   -0.0005    0.0114
C        19.9141   11.1351   12.7666   -0.0000    0.0001    0.0121
C        19.8494    8.2795   12.7644    0.0003   -0.0002   -0.0120
C        21.0925   10.3847   12.7838    0.0005    0.0000   -0.0269
C        21.0605    8.9757   12.7834   -0.0004    0.0000    0.0271
H        19.9307   12.2252   12.7677   -0.0016    0.0000    0.1228
H        19.8161    7.1897   12.7642    0.0021   -0.0002   -0.1233
H        22.0002    8.4217   12.7979    0.0003    0.0001   -0.0114
H        22.0566   10.8949   12.7993   -0.0000   -0.0002    0.0102
C         9.0706    8.5177   12.7651   -0.0000   -0.0003    0.0124
C         9.1350   11.3733   12.7663   -0.0003    0.0003   -0.0122
C         7.8920    9.2680   12.7781   -0.0003    0.0000   -0.0274
C         7.9240   10.6769   12.7780    0.0002    0.0001    0.0276
H         9.0541    7.4277   12.7650    0.0008   -0.0004    0.1252
H         9.1683   12.4630   12.7667   -0.0015    0.0003   -0.1259
H         6.9843   11.2312   12.7887   -0.0004   -0.0002   -0.0119
H         6.9279    8.7580   12.7877   -0.0000    0.0002    0.0100
C        15.8019    4.4056   12.7477    0.0000    0.0001    0.0133
C        12.9464    4.4688   12.7613   -0.0001   -0.0001   -0.0133
C        15.0523    3.2268   12.7611   -0.0002   -0.0004   -0.0295
C        13.6434    3.2581   12.7682    0.0002    0.0002    0.0296
H        16.8920    4.3900   12.7428    0.0006    0.0010    0.1349
H        11.8565    4.5005   12.7666   -0.0007   -0.0013   -0.1347
H        13.0902    2.3178   12.7803   -0.0001   -0.0002   -0.0119
H        15.5632    2.2628   12.7676    0.0000   -0.0000    0.0111
    57
stable frequency at    772.526 1/cm IR int. is 5.041 a.m.u.; force const. is 1.772 mDyne/Ang.
C        10.3153   10.6255   12.7541   -0.0008    0.0002   -0.0979
C        11.7250   11.0126   12.7436    0.0004   -0.0002    0.0736
C        13.4288   12.6432   12.7402    0.0000   -0.0003    0.0406
C        13.8774   14.0347   12.7489   -0.0001    0.0002   -0.0299
C        10.2838    9.2117   12.7538    0.0009    0.0002    0.0945
C        11.6752    8.7628   12.7434   -0.0005   -0.0003   -0.0631
C        13.3062    7.0594   12.7390    0.0001    0.0000   -0.0123
C        13.6935    5.6496   12.7468   -0.0001   -0.0001   -0.0102
N        12.1457   12.2786   12.7444   -0.0004    0.0002   -0.0291
N        12.0400    7.4796   12.7439    0.0002    0.0000    0.0192
C        15.2912   14.0035   12.7457   -0.0000   -0.0001    0.0104
C        15.6785   12.5937   12.7355    0.0002    0.0001    0.0122
C        17.3094   10.8903   12.7347   -0.0006   -0.0004    0.0641
C        18.7010   10.4413   12.7487    0.0013    0.0003   -0.0959
C        17.2595    8.6406   12.7332    0.0005   -0.0002   -0.0745
C        18.6693    9.0275   12.7476   -0.0012    0.0002    0.0993
C        15.1073    5.6184   12.7412    0.0001    0.0001    0.0297
C        15.5559    7.0099   12.7320   -0.0002   -0.0002   -0.0406
N        16.9446   12.1735   12.7365    0.0002   -0.0001   -0.0194
N        16.8391    7.3745   12.7331   -0.0003    0.0001    0.0293
N        12.4947    9.8701   12.7367   -0.0002   -0.0000   -0.0043
N        14.5362   11.8239   12.7312    0.0001    0.0004   -0.0213
N        16.4900    9.7831   12.7252   -0.0002    0.0001    0.0043
N        14.4485    7.8292   12.7301    0.0001    0.0002    0.0214
C        13.1827   15.2473   12.7623    0.0002   -0.0001    0.0062
Zn       14.4924    9.8265   12.7264    0.0000   -0.0000   -0.0000
C        16.0384   15.1842   12.7549   -0.0001   -0.0001   -0.0005
C        13.9324   16.4262   12.7720    0.0000    0.0000   -0.0006
C        15.3413   16.3949   12.7682    0.0000   -0.0002    0.0141
H        12.0925   15.2624   12.7653    0.0002   -0.0002    0.0112
H        17.1282   15.1517   12.7524   -0.0003    0.0004   -0.0567
H        15.8945   17.3351   12.7765   -0.0000    0.0004   -0.0542
H        13.4215   17.3900   12.7831   -0.0001    0.0004   -0.0478
C        19.9141   11.1351   12.7666   -0.0002    0.0002    0.0154
C        19.8494    8.2795   12.7644    0.0003    0.0000   -0.0162
C        21.0925   10.3847   12.7838    0.0004   -0.0001   -0.0368
C        21.0605    8.9757   12.7834   -0.0004   -0.0001    0.0346
H        19.9307   12.2252   12.7677   -0.0020    0.0000    0.1687
H        19.8161    7.1897   12.7642    0.0023    0.0000   -0.1617
H        22.0002    8.4217   12.7979    0.0004    0.0001   -0.0080
H        22.0566   10.8949   12.7993   -0.0005   -0.0002    0.0241
C         9.0706    8.5177   12.7651   -0.0000    0.0002   -0.0151
C         9.1350   11.3733   12.7663    0.0002   -0.0001    0.0159
C         7.8920    9.2680   12.7781    0.0003   -0.0001    0.0363
C         7.9240   10.6769   12.7780   -0.0002   -0.0001   -0.0340
H         9.0541    7.4277   12.7650   -0.0013    0.0003   -0.1667
H         9.1683   12.4630   12.7667    0.0016   -0.0001    0.1595
H         6.9843   11.2312   12.7887    0.0003    0.0000    0.0075
H         6.9279    8.7580   12.7877   -0.0002   -0.0001   -0.0240
C        15.8019    4.4056   12.7477    0.0001   -0.0001   -0.0062
C        12.9464    4.4688   12.7613   -0.0002   -0.0000    0.0004
C        15.0523    3.2268   12.7611    0.0001   -0.0000    0.0005
C        13.6434    3.2581   12.7682   -0.0001   -0.0001   -0.0140
H        16.8920    4.3900   12.7428    0.0001   -0.0001   -0.0106
H        11.8565    4.5005   12.7666    0.0001    0.0004    0.0564
H        13.0902    2.3178   12.7803    0.0004    0.0005    0.0545
H        15.5632    2.2628   12.7676    0.0002    0.0003    0.0481
    57
stable frequency at    772.564 1/cm IR int. is 5.055 a.m.u.; force const. is 1.778 mDyne/Ang.
C        10.3153   10.6255   12.7541   -0.0003    0.0003   -0.0100
C        11.7250   11.0126   12.7436    0.0005   -0.0002   -0.0122
C        13.4288   12.6432   12.7402   -0.0004    0.0009   -0.0629
C        13.8774   14.0347   12.7489    0.0006   -0.0011    0.0943
C        10.2838    9.2117   12.7538   -0.0000   -0.0002    0.0293
C        11.6752    8.7628   12.7434    0.0002    0.0001   -0.0404
C        13.3062    7.0594   12.7390   -0.0005   -0.0007   -0.0750
C        13.6935    5.6496   12.7468    0.0007    0.0010    0.0999
N        12.1457   12.2786   12.7444    0.0001   -0.0000    0.0191
N        12.0400    7.4796   12.7439    0.0002    0.0001    0.0294
C        15.2912   14.0035   12.7457   -0.0003    0.0005   -0.0980
C        15.6785   12.5937   12.7355    0.0000    0.0001    0.0736
C        17.3094   10.8903   12.7347   -0.0009   -0.0001    0.0404
C        18.7010   10.4413   12.7487    0.0005    0.0003   -0.0298
C        17.2595    8.6406   12.7332   -0.0005    0.0001    0.0119
C        18.6693    9.0275   12.7476    0.0001   -0.0002    0.0106
C        15.1073    5.6184   12.7412   -0.0004   -0.0005   -0.0960
C        15.5559    7.0099   12.7320   -0.0000    0.0001    0.0639
N        16.9446   12.1735   12.7365    0.0001    0.0003   -0.0290
N        16.8391    7.3745   12.7331    0.0001   -0.0002   -0.0193
N        12.4947    9.8701   12.7367    0.0012   -0.0001    0.0213
N        14.5362   11.8239   12.7312    0.0000    0.0010   -0.0043
N        16.4900    9.7831   12.7252   -0.0007   -0.0000   -0.0212
N        14.4485    7.8292   12.7301   -0.0000   -0.0005    0.0045
C        13.1827   15.2473   12.7623    0.0011   -0.0004   -0.0151
Zn       14.4924    9.8265   12.7264   -0.0000   -0.0000   -0.0000
C        16.0384   15.1842   12.7549   -0.0010   -0.0006    0.0160
C        13.9324   16.4262   12.7720    0.0002   -0.0004    0.0363
C        15.3413   16.3949   12.7682   -0.0003    0.0002   -0.0339
H        12.0925   15.2624   12.7653    0.0007    0.0005   -0.1667
H        17.1282   15.1517   12.7524   -0.0007   -0.0023    0.1585
H        15.8945   17.3351   12.7765    0.0006   -0.0007    0.0065
H        13.4215   17.3900   12.7831   -0.0008   -0.0002   -0.0247
C        19.9141   11.1351   12.7666    0.0003    0.0008    0.0061
C        19.8494    8.2795   12.7644    0.0004   -0.0009   -0.0005
C        21.0925   10.3847   12.7838    0.0001    0.0001   -0.0008
C        21.0605    8.9757   12.7834   -0.0002   -0.0001    0.0139
H        19.9307   12.2252   12.7677    0.0006    0.0008    0.0119
H        19.8161    7.1897   12.7642    0.0016   -0.0009   -0.0561
H        22.0002    8.4217   12.7979    0.0013    0.0005   -0.0531
H        22.0566   10.8949   12.7993    0.0013   -0.0005   -0.0467
C         9.0706    8.5177   12.7651   -0.0006   -0.0011   -0.0060
C         9.1350   11.3733   12.7663   -0.0005    0.0011    0.0004
C         7.8920    9.2680   12.7781   -0.0001   -0.0002    0.0005
C         7.9240   10.6769   12.7780   -0.0003    0.0002   -0.0138
H         9.0541    7.4277   12.7650   -0.0011   -0.0011   -0.0107
H         9.1683   12.4630   12.7667   -0.0004    0.0011    0.0555
H         6.9843   11.2312   12.7887   -0.0000   -0.0007    0.0533
H         6.9279    8.7580   12.7877   -0.0000    0.0006    0.0472
C        15.8019    4.4056   12.7477   -0.0006    0.0004    0.0153
C        12.9464    4.4688   12.7613    0.0006    0.0001   -0.0165
C        15.0523    3.2268   12.7611   -0.0003   -0.0003   -0.0370
C        13.6434    3.2581   12.7682    0.0003    0.0003    0.0345
H        16.8920    4.3900   12.7428    0.0001    0.0017    0.1701
H        11.8565    4.5005   12.7666   -0.0001   -0.0009   -0.1609
H        13.0902    2.3178   12.7803   -0.0005    0.0002   -0.0061
H        15.5632    2.2628   12.7676    0.0004    0.0005    0.0254
    57
stable frequency at    794.531 1/cm IR int. is 6.354 a.m.u.; force const. is 2.363 mDyne/Ang.
C        10.3153   10.6255   12.7541    0.0033   -0.0314   -0.0001
C        11.7250   11.0126   12.7436   -0.0306   -0.0033    0.0003
C        13.4288   12.6432   12.7402    0.0004    0.0125   -0.0003
C        13.8774   14.0347   12.7489    0.0306   -0.0013    0.0004
C        10.2838    9.2117   12.7538    0.0095    0.0082   -0.0002
C        11.6752    8.7628   12.7434   -0.0510    0.0108    0.0007
C        13.3062    7.0594   12.7390   -0.0078    0.0428   -0.0002
C        13.6935    5.6496   12.7468    0.0036   -0.0085   -0.0003
N        12.1457   12.2786   12.7444    0.0153   -0.0263   -0.0001
N        12.0400    7.4796   12.7439   -0.0208    0.0304   -0.0000
C        15.2912   14.0035   12.7457    0.0036   -0.0086   -0.0000
C        15.6785   12.5937   12.7355   -0.0078    0.0429    0.0004
C        17.3094   10.8903   12.7347   -0.0509    0.0108   -0.0010
C        18.7010   10.4413   12.7487    0.0095    0.0082    0.0001
C        17.2595    8.6406   12.7332   -0.0305   -0.0033   -0.0005
C        18.6693    9.0275   12.7476    0.0033   -0.0314    0.0001
C        15.1073    5.6184   12.7412    0.0306   -0.0013   -0.0001
C        15.5559    7.0099   12.7320    0.0004    0.0125    0.0001
N        16.9446   12.1735   12.7365   -0.0208    0.0303    0.0002
N        16.8391    7.3745   12.7331    0.0152   -0.0263    0.0002
N        12.4947    9.8701   12.7367   -0.0660   -0.0031    0.0004
N        14.5362   11.8239   12.7312    0.0075    0.0444    0.0004
N        16.4900    9.7831   12.7252   -0.0658   -0.0031   -0.0003
N        14.4485    7.8292   12.7301    0.0075    0.0443   -0.0003
C        13.1827   15.2473   12.7623    0.0596   -0.0128   -0.0005
Zn       14.4924    9.8265   12.7264    0.0067   -0.0047   -0.0000
C        16.0384   15.1842   12.7549   -0.0290   -0.0293   -0.0003
C        13.9324   16.4262   12.7720   -0.0100    0.0216    0.0002
C        15.3413   16.3949   12.7682   -0.0252   -0.0352   -0.0005
H        12.0925   15.2624   12.7653    0.0598   -0.0744   -0.0000
H        17.1282   15.1517   12.7524   -0.0305   -0.0162    0.0010
H        15.8945   17.3351   12.7765    0.0245   -0.0656    0.0006
H        13.4215   17.3900   12.7831   -0.0250    0.0122    0.0015
C        19.9141   11.1351   12.7666    0.0382    0.0535    0.0005
C        19.8494    8.2795   12.7644    0.0226   -0.0761    0.0001
C        21.0925   10.3847   12.7838    0.0304    0.0212    0.0003
C        21.0605    8.9757   12.7834   -0.0085    0.0016   -0.0003
H        19.9307   12.2252   12.7677    0.0488    0.0558    0.0017
H        19.8161    7.1897   12.7642    0.0843   -0.0798    0.0027
H        22.0002    8.4217   12.7979    0.0140    0.0366    0.0022
H        22.0566   10.8949   12.7993    0.0641   -0.0393    0.0023
C         9.0706    8.5177   12.7651    0.0382    0.0537   -0.0002
C         9.1350   11.3733   12.7663    0.0226   -0.0762   -0.0001
C         7.8920    9.2680   12.7781    0.0304    0.0212   -0.0002
C         7.9240   10.6769   12.7780   -0.0085    0.0016    0.0003
H         9.0541    7.4277   12.7650    0.0489    0.0560   -0.0015
H         9.1683   12.4630   12.7667    0.0844   -0.0799   -0.0020
H         6.9843   11.2312   12.7887    0.0141    0.0367   -0.0017
H         6.9279    8.7580   12.7877    0.0642   -0.0394   -0.0022
C        15.8019    4.4056   12.7477    0.0595   -0.0128   -0.0001
C        12.9464    4.4688   12.7613   -0.0289   -0.0293    0.0006
C        15.0523    3.2268   12.7611   -0.0100    0.0216    0.0001
C        13.6434    3.2581   12.7682   -0.0252   -0.0352    0.0004
H        16.8920    4.3900   12.7428    0.0596   -0.0744   -0.0006
H        11.8565    4.5005   12.7666   -0.0304   -0.0161   -0.0004
H        13.0902    2.3178   12.7803    0.0244   -0.0655   -0.0002
H        15.5632    2.2628   12.7676   -0.0249    0.0122   -0.0012
    57
stable frequency at    794.638 1/cm IR int. is 6.355 a.m.u.; force const. is 2.364 mDyne/Ang.
C        10.3153   10.6255   12.7541   -0.0085   -0.0036   -0.0003
C        11.7250   11.0126   12.7436    0.0429    0.0079   -0.0002
C        13.4288   12.6432   12.7402    0.0108    0.0509    0.0005
C        13.8774   14.0347   12.7489    0.0082   -0.0095    0.0002
C        10.2838    9.2117   12.7538   -0.0013   -0.0306   -0.0002
C        11.6752    8.7628   12.7434    0.0125   -0.0005    0.0002
C        13.3062    7.0594   12.7390   -0.0033    0.0306    0.0000
C        13.6935    5.6496   12.7468   -0.0314   -0.0033   -0.0003
N        12.1457   12.2786   12.7444    0.0303    0.0209   -0.0002
N        12.0400    7.4796   12.7439   -0.0264   -0.0154    0.0001
C        15.2912   14.0035   12.7457   -0.0314   -0.0033   -0.0003
C        15.6785   12.5937   12.7355   -0.0033    0.0306    0.0005
C        17.3094   10.8903   12.7347    0.0125   -0.0005   -0.0004
C        18.7010   10.4413   12.7487   -0.0013   -0.0306    0.0004
C        17.2595    8.6406   12.7332    0.0428    0.0078    0.0006
C        18.6693    9.0275   12.7476   -0.0085   -0.0036    0.0001
C        15.1073    5.6184   12.7412    0.0082   -0.0095    0.0005
C        15.5559    7.0099   12.7320    0.0108    0.0509   -0.0009
N        16.9446   12.1735   12.7365   -0.0263   -0.0153   -0.0001
N        16.8391    7.3745   12.7331    0.0303    0.0208    0.0001
N        12.4947    9.8701   12.7367    0.0444   -0.0075   -0.0005
N        14.5362   11.8239   12.7312   -0.0031    0.0658    0.0003
N        16.4900    9.7831   12.7252    0.0443   -0.0075    0.0004
N        14.4485    7.8292   12.7301   -0.0031    0.0659   -0.0003
C        13.1827   15.2473   12.7623    0.0536   -0.0381   -0.0005
Zn       14.4924    9.8265   12.7264   -0.0047   -0.0067    0.0000
C        16.0384   15.1842   12.7549   -0.0761   -0.0226    0.0002
C        13.9324   16.4262   12.7720    0.0213   -0.0304   -0.0001
C        15.3413   16.3949   12.7682    0.0016    0.0085    0.0002
H        12.0925   15.2624   12.7653    0.0559   -0.0488   -0.0018
H        17.1282   15.1517   12.7524   -0.0798   -0.0844   -0.0014
H        15.8945   17.3351   12.7765    0.0366   -0.0140   -0.0017
H        13.4215   17.3900   12.7831   -0.0392   -0.0641   -0.0018
C        19.9141   11.1351   12.7666   -0.0128   -0.0595   -0.0004
C        19.8494    8.2795   12.7644   -0.0293    0.0289   -0.0006
C        21.0925   10.3847   12.7838    0.0216    0.0100    0.0002
C        21.0605    8.9757   12.7834   -0.0352    0.0252   -0.0007
H        19.9307   12.2252   12.7677   -0.0744   -0.0596   -0.0001
H        19.8161    7.1897   12.7642   -0.0161    0.0304    0.0014
H        22.0002    8.4217   12.7979   -0.0656   -0.0243    0.0006
H        22.0566   10.8949   12.7993    0.0122    0.0250    0.0018
C         9.0706    8.5177   12.7651   -0.0128   -0.0595    0.0003
C         9.1350   11.3733   12.7663   -0.0293    0.0290    0.0005
C         7.8920    9.2680   12.7781    0.0216    0.0100   -0.0000
C         7.9240   10.6769   12.7780   -0.0352    0.0252    0.0005
H         9.0541    7.4277   12.7650   -0.0745   -0.0597   -0.0006
H         9.1683   12.4630   12.7667   -0.0162    0.0304   -0.0009
H         6.9843   11.2312   12.7887   -0.0656   -0.0243   -0.0008
H         6.9279    8.7580   12.7877    0.0122    0.0249   -0.0018
C        15.8019    4.4056   12.7477    0.0536   -0.0382   -0.0002
C        12.9464    4.4688   12.7613   -0.0762   -0.0227    0.0006
C        15.0523    3.2268   12.7611    0.0213   -0.0304    0.0001
C        13.6434    3.2581   12.7682    0.0016    0.0085   -0.0003
H        16.8920    4.3900   12.7428    0.0559   -0.0488    0.0006
H        11.8565    4.5005   12.7666   -0.0798   -0.0845    0.0023
H        13.0902    2.3178   12.7803    0.0367   -0.0141    0.0011
H        15.5632    2.2628   12.7676   -0.0393   -0.0642    0.0018
    57
stable frequency at    828.810 1/cm IR int. is 7.742 a.m.u.; force const. is 3.133 mDyne/Ang.
C        10.3153   10.6255   12.7541    0.0026    0.0125   -0.0001
C        11.7250   11.0126   12.7436    0.0353   -0.0023   -0.0002
C        13.4288   12.6432   12.7402    0.0006   -0.0362   -0.0001
C        13.8774   14.0347   12.7489   -0.0124   -0.0020   -0.0003
C        10.2838    9.2117   12.7538    0.0021   -0.0124   -0.0001
C        11.6752    8.7628   12.7434    0.0361    0.0006   -0.0002
C        13.3062    7.0594   12.7390    0.0023    0.0354   -0.0001
C        13.6935    5.6496   12.7468   -0.0126    0.0026   -0.0002
N        12.1457   12.2786   12.7444   -0.0368    0.0380    0.0003
N        12.0400    7.4796   12.7439   -0.0380   -0.0368    0.0003
C        15.2912   14.0035   12.7457    0.0126   -0.0026    0.0000
C        15.6785   12.5937   12.7355   -0.0023   -0.0353   -0.0003
C        17.3094   10.8903   12.7347   -0.0362   -0.0006   -0.0002
C        18.7010   10.4413   12.7487   -0.0020    0.0125   -0.0003
C        17.2595    8.6406   12.7332   -0.0353    0.0023   -0.0003
C        18.6693    9.0275   12.7476   -0.0025   -0.0126   -0.0001
C        15.1073    5.6184   12.7412    0.0125    0.0020   -0.0001
C        15.5559    7.0099   12.7320   -0.0006    0.0361   -0.0002
N        16.9446   12.1735   12.7365    0.0380    0.0368    0.0003
N        16.8391    7.3745   12.7331    0.0367   -0.0380    0.0002
N        12.4947    9.8701   12.7367    0.0796   -0.0016   -0.0006
N        14.5362   11.8239   12.7312   -0.0015   -0.0797   -0.0005
N        16.4900    9.7831   12.7252   -0.0798    0.0015   -0.0006
N        14.4485    7.8292   12.7301    0.0016    0.0797   -0.0004
C        13.1827   15.2473   12.7623   -0.0464    0.0248    0.0004
Zn       14.4924    9.8265   12.7264    0.0000   -0.0000    0.0000
C        16.0384   15.1842   12.7549    0.0480    0.0223   -0.0000
C        13.9324   16.4262   12.7720   -0.0095    0.0134    0.0002
C        15.3413   16.3949   12.7682    0.0096    0.0121    0.0000
H        12.0925   15.2624   12.7653   -0.0478    0.0557    0.0006
H        17.1282   15.1517   12.7524    0.0507    0.0546    0.0007
H        15.8945   17.3351   12.7765   -0.0227    0.0329    0.0009
H        13.4215   17.3900   12.7831    0.0242    0.0329    0.0002
C        19.9141   11.1351   12.7666    0.0248    0.0465    0.0005
C        19.8494    8.2795   12.7644    0.0223   -0.0480    0.0002
C        21.0925   10.3847   12.7838    0.0133    0.0095    0.0003
C        21.0605    8.9757   12.7834    0.0121   -0.0096    0.0001
H        19.9307   12.2252   12.7677    0.0560    0.0478    0.0004
H        19.8161    7.1897   12.7642    0.0547   -0.0508    0.0014
H        22.0002    8.4217   12.7979    0.0328    0.0225    0.0012
H        22.0566   10.8949   12.7993    0.0328   -0.0241   -0.0002
C         9.0706    8.5177   12.7651   -0.0247   -0.0463    0.0002
C         9.1350   11.3733   12.7663   -0.0223    0.0477    0.0002
C         7.8920    9.2680   12.7781   -0.0133   -0.0094    0.0002
C         7.9240   10.6769   12.7780   -0.0121    0.0096    0.0000
H         9.0541    7.4277   12.7650   -0.0554   -0.0476    0.0004
H         9.1683   12.4630   12.7667   -0.0542    0.0505    0.0009
H         6.9843   11.2312   12.7887   -0.0330   -0.0228    0.0009
H         6.9279    8.7580   12.7877   -0.0329    0.0245    0.0002
C        15.8019    4.4056   12.7477    0.0464   -0.0247   -0.0000
C        12.9464    4.4688   12.7613   -0.0479   -0.0224    0.0005
C        15.0523    3.2268   12.7611    0.0095   -0.0133    0.0001
C        13.6434    3.2581   12.7682   -0.0096   -0.0121    0.0000
H        16.8920    4.3900   12.7428    0.0478   -0.0558    0.0000
H        11.8565    4.5005   12.7666   -0.0507   -0.0546    0.0009
H        13.0902    2.3178   12.7803    0.0227   -0.0329    0.0007
H        15.5632    2.2628   12.7676   -0.0242   -0.0328    0.0001
    57
stable frequency at    838.689 1/cm IR int. is 6.925 a.m.u.; force const. is 2.870 mDyne/Ang.
C        10.3153   10.6255   12.7541   -0.0063    0.0208    0.0003
C        11.7250   11.0126   12.7436   -0.0476   -0.0097    0.0003
C        13.4288   12.6432   12.7402   -0.0118   -0.0466   -0.0005
C        13.8774   14.0347   12.7489    0.0206   -0.0071   -0.0001
C        10.2838    9.2117   12.7538    0.0071    0.0207   -0.0000
C        11.6752    8.7628   12.7434    0.0466   -0.0118   -0.0005
C        13.3062    7.0594   12.7390    0.0096   -0.0476    0.0004
C        13.6935    5.6496   12.7468   -0.0208   -0.0063    0.0002
N        12.1457   12.2786   12.7444   -0.0303   -0.0294    0.0001
N        12.0400    7.4796   12.7439    0.0294   -0.0302   -0.0001
C        15.2912   14.0035   12.7457    0.0208    0.0063    0.0003
C        15.6785   12.5937   12.7355   -0.0097    0.0475    0.0003
C        17.3094   10.8903   12.7347   -0.0466    0.0118   -0.0007
C        18.7010   10.4413   12.7487   -0.0071   -0.0207   -0.0002
C        17.2595    8.6406   12.7332    0.0476    0.0097    0.0005
C        18.6693    9.0275   12.7476    0.0063   -0.0207    0.0005
C        15.1073    5.6184   12.7412   -0.0206    0.0071    0.0001
C        15.5559    7.0099   12.7320    0.0118    0.0466   -0.0006
N        16.9446   12.1735   12.7365   -0.0294    0.0303    0.0001
N        16.8391    7.3745   12.7331    0.0303    0.0294    0.0000
N        12.4947    9.8701   12.7367   -0.0000    0.0289    0.0001
N        14.5362   11.8239   12.7312    0.0289   -0.0001    0.0000
N        16.4900    9.7831   12.7252    0.0000   -0.0290    0.0001
N        14.4485    7.8292   12.7301   -0.0290    0.0001    0.0001
C        13.1827   15.2473   12.7623    0.0341    0.0137   -0.0002
Zn       14.4924    9.8265   12.7264   -0.0000    0.0000   -0.0000
C        16.0384   15.1842   12.7549    0.0328   -0.0154   -0.0005
C        13.9324   16.4262   12.7720   -0.0298    0.0558    0.0006
C        15.3413   16.3949   12.7682   -0.0324   -0.0546   -0.0005
H        12.0925   15.2624   12.7653    0.0326   -0.0451    0.0009
H        17.1282   15.1517   12.7524    0.0338    0.0440    0.0016
H        15.8945   17.3351   12.7765    0.0018   -0.0747    0.0002
H        13.4215   17.3900   12.7831    0.0039    0.0734    0.0014
C        19.9141   11.1351   12.7666    0.0136   -0.0343   -0.0001
C        19.8494    8.2795   12.7644   -0.0155   -0.0327   -0.0006
C        21.0925   10.3847   12.7838    0.0558    0.0298    0.0008
C        21.0605    8.9757   12.7834   -0.0546    0.0325   -0.0008
H        19.9307   12.2252   12.7677   -0.0453   -0.0326    0.0010
H        19.8161    7.1897   12.7642    0.0437   -0.0337    0.0025
H        22.0002    8.4217   12.7979   -0.0747   -0.0017    0.0000
H        22.0566   10.8949   12.7993    0.0733   -0.0039    0.0021
C         9.0706    8.5177   12.7651   -0.0136    0.0342   -0.0001
C         9.1350   11.3733   12.7663    0.0155    0.0327   -0.0004
C         7.8920    9.2680   12.7781   -0.0558   -0.0298    0.0004
C         7.9240   10.6769   12.7780    0.0546   -0.0325   -0.0006
H         9.0541    7.4277   12.7650    0.0453    0.0326    0.0012
H         9.1683   12.4630   12.7667   -0.0438    0.0337    0.0018
H         6.9843   11.2312   12.7887    0.0747    0.0017    0.0001
H         6.9279    8.7580   12.7877   -0.0734    0.0040    0.0020
C        15.8019    4.4056   12.7477   -0.0342   -0.0137   -0.0001
C        12.9464    4.4688   12.7613   -0.0328    0.0154    0.0000
C        15.0523    3.2268   12.7611    0.0298   -0.0559    0.0001
C        13.6434    3.2581   12.7682    0.0324    0.0546   -0.0005
H        16.8920    4.3900   12.7428   -0.0326    0.0452    0.0018
H        11.8565    4.5005   12.7666   -0.0337   -0.0439    0.0007
H        13.0902    2.3178   12.7803   -0.0018    0.0747   -0.0008
H        15.5632    2.2628   12.7676   -0.0039   -0.0734    0.0026
    57
stable frequency at    860.330 1/cm IR int. is 1.456 a.m.u.; force const. is 0.635 mDyne/Ang.
C        10.3153   10.6255   12.7541   -0.0003   -0.0000   -0.0363
C        11.7250   11.0126   12.7436    0.0003   -0.0000    0.0204
C        13.4288   12.6432   12.7402   -0.0000    0.0001   -0.0138
C        13.8774   14.0347   12.7489    0.0000   -0.0001    0.0240
C        10.2838    9.2117   12.7538    0.0003   -0.0001    0.0362
C        11.6752    8.7628   12.7434   -0.0002   -0.0000   -0.0203
C        13.3062    7.0594   12.7390    0.0000    0.0001    0.0135
C        13.6935    5.6496   12.7468   -0.0001   -0.0002   -0.0235
N        12.1457   12.2786   12.7444    0.0000    0.0001   -0.0011
N        12.0400    7.4796   12.7439    0.0000    0.0001    0.0011
C        15.2912   14.0035   12.7457   -0.0001    0.0002   -0.0239
C        15.6785   12.5937   12.7355   -0.0000   -0.0002    0.0138
C        17.3094   10.8903   12.7347   -0.0000    0.0000   -0.0158
C        18.7010   10.4413   12.7487   -0.0003    0.0000    0.0281
C        17.2595    8.6406   12.7332   -0.0002   -0.0000    0.0159
C        18.6693    9.0275   12.7476    0.0004   -0.0000   -0.0282
C        15.1073    5.6184   12.7412    0.0002    0.0002    0.0236
C        15.5559    7.0099   12.7320   -0.0000    0.0001   -0.0136
N        16.9446   12.1735   12.7365    0.0002    0.0001    0.0003
N        16.8391    7.3745   12.7331    0.0001   -0.0001   -0.0003
N        12.4947    9.8701   12.7367    0.0001   -0.0001   -0.0000
N        14.5362   11.8239   12.7312   -0.0001   -0.0002   -0.0002
N        16.4900    9.7831   12.7252   -0.0003   -0.0001   -0.0000
N        14.4485    7.8292   12.7301   -0.0001    0.0001    0.0003
C        13.1827   15.2473   12.7623   -0.0002    0.0005   -0.0358
Zn       14.4924    9.8265   12.7264    0.0000    0.0000   -0.0000
C        16.0384   15.1842   12.7549    0.0001   -0.0002    0.0356
C        13.9324   16.4262   12.7720    0.0000    0.0001   -0.0193
C        15.3413   16.3949   12.7682    0.0001   -0.0001    0.0198
H        12.0925   15.2624   12.7653    0.0004   -0.0016    0.2007
H        17.1282   15.1517   12.7524   -0.0004    0.0022   -0.2002
H        15.8945   17.3351   12.7765   -0.0005    0.0015   -0.1270
H        13.4215   17.3900   12.7831    0.0004   -0.0013    0.1231
C        19.9141   11.1351   12.7666    0.0008    0.0001   -0.0430
C        19.8494    8.2795   12.7644   -0.0005    0.0000    0.0428
C        21.0925   10.3847   12.7838    0.0004   -0.0001   -0.0235
C        21.0605    8.9757   12.7834   -0.0003    0.0000    0.0239
H        19.9307   12.2252   12.7677   -0.0031   -0.0001    0.2423
H        19.8161    7.1897   12.7642    0.0042   -0.0001   -0.2416
H        22.0002    8.4217   12.7979    0.0025    0.0002   -0.1529
H        22.0566   10.8949   12.7993   -0.0023   -0.0003    0.1499
C         9.0706    8.5177   12.7651   -0.0007    0.0000   -0.0558
C         9.1350   11.3733   12.7663    0.0004   -0.0002    0.0556
C         7.8920    9.2680   12.7781   -0.0002    0.0002   -0.0308
C         7.9240   10.6769   12.7780    0.0002   -0.0000    0.0312
H         9.0541    7.4277   12.7650    0.0028   -0.0001    0.3155
H         9.1683   12.4630   12.7667   -0.0035    0.0000   -0.3150
H         6.9843   11.2312   12.7887   -0.0024   -0.0000   -0.1987
H         6.9279    8.7580   12.7877    0.0021   -0.0000    0.1953
C        15.8019    4.4056   12.7477   -0.0002   -0.0003   -0.0352
C        12.9464    4.4688   12.7613    0.0002    0.0003    0.0349
C        15.0523    3.2268   12.7611   -0.0002   -0.0002   -0.0190
C        13.6434    3.2581   12.7682    0.0001    0.0001    0.0192
H        16.8920    4.3900   12.7428    0.0008    0.0014    0.1980
H        11.8565    4.5005   12.7666   -0.0009   -0.0018   -0.1956
H        13.0902    2.3178   12.7803   -0.0007   -0.0012   -0.1227
H        15.5632    2.2628   12.7676    0.0005    0.0011    0.1225
    57
stable frequency at    860.692 1/cm IR int. is 1.428 a.m.u.; force const. is 0.623 mDyne/Ang.
C        10.3153   10.6255   12.7541    0.0003   -0.0000    0.0372
C        11.7250   11.0126   12.7436   -0.0001    0.0001   -0.0201
C        13.4288   12.6432   12.7402   -0.0001    0.0001   -0.0142
C        13.8774   14.0347   12.7489    0.0000   -0.0001    0.0262
C        10.2838    9.2117   12.7538   -0.0003    0.0000   -0.0371
C        11.6752    8.7628   12.7434    0.0000    0.0000    0.0200
C        13.3062    7.0594   12.7390    0.0001    0.0001    0.0136
C        13.6935    5.6496   12.7468   -0.0000   -0.0002   -0.0250
N        12.1457   12.2786   12.7444    0.0001   -0.0000    0.0055
N        12.0400    7.4796   12.7439   -0.0000    0.0000   -0.0054
C        15.2912   14.0035   12.7457   -0.0001    0.0002   -0.0264
C        15.6785   12.5937   12.7355   -0.0000   -0.0002    0.0139
C        17.3094   10.8903   12.7347    0.0000   -0.0000   -0.0050
C        18.7010   10.4413   12.7487   -0.0001    0.0000    0.0076
C        17.2595    8.6406   12.7332   -0.0001   -0.0000    0.0050
C        18.6693    9.0275   12.7476    0.0001    0.0000   -0.0076
C        15.1073    5.6184   12.7412    0.0001    0.0002    0.0255
C        15.5559    7.0099   12.7320   -0.0000    0.0000   -0.0134
N        16.9446   12.1735   12.7365    0.0002    0.0001   -0.0013
N        16.8391    7.3745   12.7331   -0.0000   -0.0001    0.0012
N        12.4947    9.8701   12.7367   -0.0001   -0.0001    0.0001
N        14.5362   11.8239   12.7312   -0.0001   -0.0001    0.0013
N        16.4900    9.7831   12.7252   -0.0001   -0.0000   -0.0000
N        14.4485    7.8292   12.7301   -0.0000    0.0000   -0.0013
C        13.1827   15.2473   12.7623   -0.0002    0.0005   -0.0427
Zn       14.4924    9.8265   12.7264    0.0000    0.0000   -0.0000
C        16.0384   15.1842   12.7549    0.0000   -0.0003    0.0428
C        13.9324   16.4262   12.7720    0.0000    0.0001   -0.0251
C        15.3413   16.3949   12.7682    0.0001   -0.0002    0.0241
H        12.0925   15.2624   12.7653    0.0006   -0.0021    0.2476
H        17.1282   15.1517   12.7524   -0.0005    0.0027   -0.2437
H        15.8945   17.3351   12.7765   -0.0005    0.0017   -0.1490
H        13.4215   17.3900   12.7831    0.0005   -0.0017    0.1583
C        19.9141   11.1351   12.7666    0.0002    0.0001   -0.0103
C        19.8494    8.2795   12.7644   -0.0001    0.0000    0.0103
C        21.0925   10.3847   12.7838    0.0000   -0.0001   -0.0053
C        21.0605    8.9757   12.7834   -0.0000   -0.0000    0.0054
H        19.9307   12.2252   12.7677   -0.0006    0.0000    0.0567
H        19.8161    7.1897   12.7642    0.0010    0.0000   -0.0568
H        22.0002    8.4217   12.7979    0.0007    0.0001   -0.0361
H        22.0566   10.8949   12.7993   -0.0006   -0.0001    0.0347
C         9.0706    8.5177   12.7651    0.0007   -0.0001    0.0609
C         9.1350   11.3733   12.7663   -0.0005    0.0001   -0.0608
C         7.8920    9.2680   12.7781    0.0004   -0.0001    0.0348
C         7.9240   10.6769   12.7780   -0.0004    0.0001   -0.0354
H         9.0541    7.4277   12.7650   -0.0032   -0.0000   -0.3504
H         9.1683   12.4630   12.7667    0.0040   -0.0001    0.3499
H         6.9843   11.2312   12.7887    0.0025    0.0000    0.2213
H         6.9279    8.7580   12.7877   -0.0022   -0.0000   -0.2172
C        15.8019    4.4056   12.7477   -0.0003   -0.0004   -0.0415
C        12.9464    4.4688   12.7613    0.0003    0.0003    0.0407
C        15.0523    3.2268   12.7611   -0.0002   -0.0003   -0.0228
C        13.6434    3.2581   12.7682    0.0002    0.0002    0.0245
H        16.8920    4.3900   12.7428    0.0009    0.0018    0.2362
H        11.8565    4.5005   12.7666   -0.0011   -0.0021   -0.2363
H        13.0902    2.3178   12.7803   -0.0008   -0.0016   -0.1543
H        15.5632    2.2628   12.7676    0.0007    0.0013    0.1412
    57
stable frequency at    860.790 1/cm IR int. is 1.431 a.m.u.; force const. is 0.625 mDyne/Ang.
C        10.3153   10.6255   12.7541   -0.0001   -0.0000   -0.0154
C        11.7250   11.0126   12.7436    0.0001   -0.0000    0.0090
C        13.4288   12.6432   12.7402   -0.0000    0.0002   -0.0119
C        13.8774   14.0347   12.7489    0.0000   -0.0001    0.0227
C        10.2838    9.2117   12.7538    0.0001   -0.0000    0.0152
C        11.6752    8.7628   12.7434   -0.0002   -0.0000   -0.0091
C        13.3062    7.0594   12.7390   -0.0000   -0.0001    0.0039
C        13.6935    5.6496   12.7468   -0.0000   -0.0001   -0.0084
N        12.1457   12.2786   12.7444    0.0002   -0.0000    0.0003
N        12.0400    7.4796   12.7439    0.0002    0.0002    0.0010
C        15.2912   14.0035   12.7457   -0.0001    0.0001   -0.0222
C        15.6785   12.5937   12.7355   -0.0000   -0.0003    0.0122
C        17.3094   10.8903   12.7347   -0.0001   -0.0001    0.0245
C        18.7010   10.4413   12.7487    0.0005    0.0000   -0.0447
C        17.2595    8.6406   12.7332    0.0003   -0.0001   -0.0245
C        18.6693    9.0275   12.7476   -0.0006    0.0000    0.0449
C        15.1073    5.6184   12.7412    0.0000    0.0001    0.0081
C        15.5559    7.0099   12.7320   -0.0000    0.0001   -0.0043
N        16.9446   12.1735   12.7365    0.0002    0.0001   -0.0059
N        16.8391    7.3745   12.7331    0.0000    0.0000    0.0046
N        12.4947    9.8701   12.7367   -0.0001   -0.0000    0.0004
N        14.5362   11.8239   12.7312   -0.0001   -0.0001   -0.0018
N        16.4900    9.7831   12.7252    0.0001    0.0001   -0.0004
N        14.4485    7.8292   12.7301   -0.0001   -0.0001    0.0018
C        13.1827   15.2473   12.7623   -0.0002    0.0004   -0.0371
Zn       14.4924    9.8265   12.7264    0.0000    0.0000   -0.0000
C        16.0384   15.1842   12.7549   -0.0000   -0.0002    0.0363
C        13.9324   16.4262   12.7720    0.0001   -0.0000   -0.0202
C        15.3413   16.3949   12.7682    0.0001   -0.0001    0.0222
H        12.0925   15.2624   12.7653    0.0005   -0.0017    0.2102
H        17.1282   15.1517   12.7524   -0.0005    0.0023   -0.2122
H        15.8945   17.3351   12.7765   -0.0005    0.0018   -0.1404
H        13.4215   17.3900   12.7831    0.0004   -0.0015    0.1242
C        19.9141   11.1351   12.7666   -0.0013    0.0001    0.0724
C        19.8494    8.2795   12.7644    0.0009   -0.0002   -0.0723
C        21.0925   10.3847   12.7838   -0.0006    0.0002    0.0413
C        21.0605    8.9757   12.7834    0.0007   -0.0002   -0.0416
H        19.9307   12.2252   12.7677    0.0055    0.0005   -0.4160
H        19.8161    7.1897   12.7642   -0.0072   -0.0000    0.4141
H        22.0002    8.4217   12.7979   -0.0042   -0.0004    0.2610
H        22.0566   10.8949   12.7993    0.0041    0.0004   -0.2595
C         9.0706    8.5177   12.7651   -0.0002    0.0001   -0.0233
C         9.1350   11.3733   12.7663    0.0002   -0.0002    0.0234
C         7.8920    9.2680   12.7781   -0.0000    0.0001   -0.0131
C         7.9240   10.6769   12.7780    0.0001   -0.0000    0.0129
H         9.0541    7.4277   12.7650    0.0012    0.0000    0.1327
H         9.1683   12.4630   12.7667   -0.0015   -0.0001   -0.1320
H         6.9843   11.2312   12.7887   -0.0010   -0.0000   -0.0819
H         6.9279    8.7580   12.7877    0.0010    0.0000    0.0834
C        15.8019    4.4056   12.7477   -0.0002   -0.0001   -0.0140
C        12.9464    4.4688   12.7613    0.0001    0.0001    0.0144
C        15.0523    3.2268   12.7611   -0.0000   -0.0002   -0.0091
C        13.6434    3.2581   12.7682    0.0001    0.0002    0.0075
H        16.8920    4.3900   12.7428    0.0003    0.0007    0.0845
H        11.8565    4.5005   12.7666   -0.0003   -0.0008   -0.0802
H        13.0902    2.3178   12.7803   -0.0004   -0.0002   -0.0441
H        15.5632    2.2628   12.7676    0.0002    0.0004    0.0584
    57
stable frequency at    860.869 1/cm IR int. is 1.435 a.m.u.; force const. is 0.627 mDyne/Ang.
C        10.3153   10.6255   12.7541    0.0000   -0.0000   -0.0023
C        11.7250   11.0126   12.7436    0.0002   -0.0000    0.0018
C        13.4288   12.6432   12.7402    0.0001    0.0001    0.0191
C        13.8774   14.0347   12.7489   -0.0001    0.0003   -0.0340
C        10.2838    9.2117   12.7538   -0.0000   -0.0000    0.0029
C        11.6752    8.7628   12.7434   -0.0002    0.0000   -0.0013
C        13.3062    7.0594   12.7390    0.0001    0.0001    0.0225
C        13.6935    5.6496   12.7468   -0.0000   -0.0004   -0.0406
N        12.1457   12.2786   12.7444    0.0000    0.0001   -0.0035
N        12.0400    7.4796   12.7439    0.0000    0.0002   -0.0035
C        15.2912   14.0035   12.7457    0.0000   -0.0003    0.0340
C        15.6785   12.5937   12.7355    0.0000    0.0000   -0.0190
C        17.3094   10.8903   12.7347    0.0000    0.0000    0.0043
C        18.7010   10.4413   12.7487    0.0001    0.0001   -0.0085
C        17.2595    8.6406   12.7332   -0.0000   -0.0001   -0.0047
C        18.6693    9.0275   12.7476   -0.0001   -0.0000    0.0079
C        15.1073    5.6184   12.7412    0.0002    0.0004    0.0408
C        15.5559    7.0099   12.7320   -0.0000   -0.0001   -0.0227
N        16.9446   12.1735   12.7365    0.0001    0.0001    0.0025
N        16.8391    7.3745   12.7331   -0.0001   -0.0001    0.0045
N        12.4947    9.8701   12.7367   -0.0001   -0.0001   -0.0022
N        14.5362   11.8239   12.7312   -0.0002    0.0000   -0.0003
N        16.4900    9.7831   12.7252   -0.0000    0.0000    0.0022
N        14.4485    7.8292   12.7301   -0.0001   -0.0000    0.0004
C        13.1827   15.2473   12.7623    0.0001   -0.0007    0.0540
Zn       14.4924    9.8265   12.7264    0.0000    0.0000    0.0000
C        16.0384   15.1842   12.7549   -0.0001    0.0004   -0.0538
C        13.9324   16.4262   12.7720    0.0000   -0.0003    0.0306
C        15.3413   16.3949   12.7682    0.0001    0.0005   -0.0307
H        12.0925   15.2624   12.7653   -0.0009    0.0027   -0.3095
H        17.1282   15.1517   12.7524    0.0006   -0.0036    0.3072
H        15.8945   17.3351   12.7765    0.0007   -0.0019    0.1928
H        13.4215   17.3900   12.7831   -0.0007    0.0018   -0.1928
C        19.9141   11.1351   12.7666   -0.0002    0.0001    0.0137
C        19.8494    8.2795   12.7644    0.0002    0.0000   -0.0129
C        21.0925   10.3847   12.7838   -0.0001    0.0000    0.0065
C        21.0605    8.9757   12.7834    0.0002   -0.0000   -0.0088
H        19.9307   12.2252   12.7677    0.0011    0.0002   -0.0748
H        19.8161    7.1897   12.7642   -0.0013    0.0000    0.0780
H        22.0002    8.4217   12.7979   -0.0009   -0.0001    0.0577
H        22.0566   10.8949   12.7993    0.0006    0.0000   -0.0384
C         9.0706    8.5177   12.7651    0.0000   -0.0000   -0.0042
C         9.1350   11.3733   12.7663    0.0000   -0.0001    0.0035
C         7.8920    9.2680   12.7781    0.0002    0.0001   -0.0011
C         7.9240   10.6769   12.7780   -0.0001    0.0001    0.0033
H         9.0541    7.4277   12.7650    0.0001   -0.0000    0.0199
H         9.1683   12.4630   12.7667   -0.0001   -0.0001   -0.0238
H         6.9843   11.2312   12.7887   -0.0005   -0.0001   -0.0232
H         6.9279    8.7580   12.7877    0.0003   -0.0000    0.0045
C        15.8019    4.4056   12.7477   -0.0005   -0.0005   -0.0654
C        12.9464    4.4688   12.7613    0.0006    0.0005    0.0648
C        15.0523    3.2268   12.7611   -0.0004   -0.0003   -0.0369
C        13.6434    3.2581   12.7682    0.0003    0.0003    0.0372
H        16.8920    4.3900   12.7428    0.0015    0.0028    0.3752
H        11.8565    4.5005   12.7666   -0.0016   -0.0034   -0.3710
H        13.0902    2.3178   12.7803   -0.0013   -0.0024   -0.2338
H        15.5632    2.2628   12.7676    0.0010    0.0022    0.2322
    57
stable frequency at    877.665 1/cm IR int. is 9.403 a.m.u.; force const. is 4.267 mDyne/Ang.
C        10.3153   10.6255   12.7541    0.0140   -0.0056   -0.0003
C        11.7250   11.0126   12.7436    0.0440   -0.0091   -0.0003
C        13.4288   12.6432   12.7402    0.0086   -0.0579   -0.0005
C        13.8774   14.0347   12.7489    0.0055   -0.0189   -0.0001
C        10.2838    9.2117   12.7538   -0.0127   -0.0010    0.0001
C        11.6752    8.7628   12.7434   -0.0361   -0.0036    0.0003
C        13.3062    7.0594   12.7390    0.0083    0.0515   -0.0004
C        13.6935    5.6496   12.7468    0.0034    0.0176   -0.0003
N        12.1457   12.2786   12.7444   -0.0675    0.0630    0.0006
N        12.0400    7.4796   12.7439   -0.0337    0.0148    0.0002
C        15.2912   14.0035   12.7457    0.0034    0.0177    0.0003
C        15.6785   12.5937   12.7355    0.0083    0.0515    0.0003
C        17.3094   10.8903   12.7347   -0.0361   -0.0036   -0.0004
C        18.7010   10.4413   12.7487   -0.0127   -0.0010   -0.0002
C        17.2595    8.6406   12.7332    0.0441   -0.0091    0.0002
C        18.6693    9.0275   12.7476    0.0140   -0.0056    0.0005
C        15.1073    5.6184   12.7412    0.0055   -0.0189    0.0001
C        15.5559    7.0099   12.7320    0.0086   -0.0579    0.0005
N        16.9446   12.1735   12.7365   -0.0337    0.0148    0.0000
N        16.8391    7.3745   12.7331   -0.0675    0.0630   -0.0004
N        12.4947    9.8701   12.7367    0.0431   -0.0372   -0.0004
N        14.5362   11.8239   12.7312    0.0487   -0.0332   -0.0003
N        16.4900    9.7831   12.7252    0.0431   -0.0372    0.0004
N        14.4485    7.8292   12.7301    0.0487   -0.0332    0.0001
C        13.1827   15.2473   12.7623    0.0164    0.0153   -0.0002
Zn       14.4924    9.8265   12.7264   -0.0043    0.0033    0.0000
C        16.0384   15.1842   12.7549    0.0295   -0.0088   -0.0003
C        13.9324   16.4262   12.7720   -0.0233    0.0485    0.0005
C        15.3413   16.3949   12.7682   -0.0205   -0.0424   -0.0003
H        12.0925   15.2624   12.7653    0.0152   -0.0076    0.0018
H        17.1282   15.1517   12.7524    0.0298    0.0209    0.0007
H        15.8945   17.3351   12.7765    0.0079   -0.0590   -0.0008
H        13.4215   17.3900   12.7831    0.0135    0.0682    0.0009
C        19.9141   11.1351   12.7666    0.0031   -0.0263   -0.0001
C        19.8494    8.2795   12.7644   -0.0139   -0.0071   -0.0005
C        21.0925   10.3847   12.7838    0.0300    0.0120    0.0005
C        21.0605    8.9757   12.7834   -0.0364    0.0203   -0.0005
H        19.9307   12.2252   12.7677   -0.0198   -0.0256    0.0004
H        19.8161    7.1897   12.7642    0.0016   -0.0067    0.0015
H        22.0002    8.4217   12.7979   -0.0544   -0.0092   -0.0008
H        22.0566   10.8949   12.7993    0.0391   -0.0059    0.0007
C         9.0706    8.5177   12.7651    0.0031   -0.0262    0.0001
C         9.1350   11.3733   12.7663   -0.0139   -0.0071    0.0003
C         7.8920    9.2680   12.7781    0.0300    0.0120   -0.0003
C         7.9240   10.6769   12.7780   -0.0364    0.0203    0.0003
H         9.0541    7.4277   12.7650   -0.0198   -0.0256   -0.0007
H         9.1683   12.4630   12.7667    0.0017   -0.0067   -0.0010
H         6.9843   11.2312   12.7887   -0.0543   -0.0092    0.0006
H         6.9279    8.7580   12.7877    0.0392   -0.0060   -0.0007
C        15.8019    4.4056   12.7477    0.0164    0.0153   -0.0002
C        12.9464    4.4688   12.7613    0.0295   -0.0088    0.0002
C        15.0523    3.2268   12.7611   -0.0233    0.0485   -0.0003
C        13.6434    3.2581   12.7682   -0.0205   -0.0424    0.0005
H        16.8920    4.3900   12.7428    0.0151   -0.0076   -0.0001
H        11.8565    4.5005   12.7666    0.0297    0.0210   -0.0018
H        13.0902    2.3178   12.7803    0.0079   -0.0589    0.0001
H        15.5632    2.2628   12.7676    0.0135    0.0682   -0.0012
    57
stable frequency at    877.692 1/cm IR int. is 9.403 a.m.u.; force const. is 4.268 mDyne/Ang.
C        10.3153   10.6255   12.7541    0.0177   -0.0034   -0.0003
C        11.7250   11.0126   12.7436    0.0516   -0.0083   -0.0004
C        13.4288   12.6432   12.7402   -0.0036    0.0361    0.0004
C        13.8774   14.0347   12.7489   -0.0010    0.0127    0.0000
C        10.2838    9.2117   12.7538   -0.0189   -0.0055    0.0001
C        11.6752    8.7628   12.7434   -0.0579   -0.0086    0.0006
C        13.3062    7.0594   12.7390   -0.0091   -0.0441    0.0002
C        13.6935    5.6496   12.7468   -0.0056   -0.0140    0.0004
N        12.1457   12.2786   12.7444    0.0148    0.0337   -0.0000
N        12.0400    7.4796   12.7439    0.0630    0.0676   -0.0006
C        15.2912   14.0035   12.7457   -0.0056   -0.0140   -0.0002
C        15.6785   12.5937   12.7355   -0.0091   -0.0441   -0.0004
C        17.3094   10.8903   12.7347   -0.0579   -0.0086   -0.0006
C        18.7010   10.4413   12.7487   -0.0189   -0.0055   -0.0003
C        17.2595    8.6406   12.7332    0.0516   -0.0083    0.0005
C        18.6693    9.0275   12.7476    0.0177   -0.0034    0.0005
C        15.1073    5.6184   12.7412   -0.0010    0.0127   -0.0003
C        15.5559    7.0099   12.7320   -0.0036    0.0361   -0.0001
N        16.9446   12.1735   12.7365    0.0630    0.0675    0.0005
N        16.8391    7.3745   12.7331    0.0148    0.0337   -0.0001
N        12.4947    9.8701   12.7367   -0.0332   -0.0487    0.0002
N        14.5362   11.8239   12.7312   -0.0372   -0.0431   -0.0003
N        16.4900    9.7831   12.7252   -0.0331   -0.0486   -0.0003
N        14.4485    7.8292   12.7301   -0.0372   -0.0431    0.0003
C        13.1827   15.2473   12.7623   -0.0263   -0.0031    0.0003
Zn       14.4924    9.8265   12.7264    0.0033    0.0044   -0.0000
C        16.0384   15.1842   12.7549   -0.0071    0.0139    0.0002
C        13.9324   16.4262   12.7720    0.0121   -0.0301   -0.0003
C        15.3413   16.3949   12.7682    0.0203    0.0364    0.0002
H        12.0925   15.2624   12.7653   -0.0256    0.0198   -0.0010
H        17.1282   15.1517   12.7524   -0.0068   -0.0017   -0.0005
H        15.8945   17.3351   12.7765   -0.0093    0.0544    0.0010
H        13.4215   17.3900   12.7831   -0.0059   -0.0392   -0.0006
C        19.9141   11.1351   12.7666    0.0152   -0.0165   -0.0002
C        19.8494    8.2795   12.7644   -0.0089   -0.0294   -0.0003
C        21.0925   10.3847   12.7838    0.0485    0.0232    0.0007
C        21.0605    8.9757   12.7834   -0.0424    0.0205   -0.0005
H        19.9307   12.2252   12.7677   -0.0077   -0.0152    0.0022
H        19.8161    7.1897   12.7642    0.0208   -0.0297    0.0012
H        22.0002    8.4217   12.7979   -0.0589   -0.0078   -0.0011
H        22.0566   10.8949   12.7993    0.0681   -0.0135    0.0014
C         9.0706    8.5177   12.7651    0.0152   -0.0165    0.0002
C         9.1350   11.3733   12.7663   -0.0089   -0.0294    0.0002
C         7.8920    9.2680   12.7781    0.0485    0.0232   -0.0004
C         7.9240   10.6769   12.7780   -0.0424    0.0205    0.0004
H         9.0541    7.4277   12.7650   -0.0077   -0.0152   -0.0017
H         9.1683   12.4630   12.7667    0.0208   -0.0297   -0.0010
H         6.9843   11.2312   12.7887   -0.0589   -0.0078    0.0007
H         6.9279    8.7580   12.7877    0.0682   -0.0136   -0.0015
C        15.8019    4.4056   12.7477   -0.0262   -0.0031    0.0003
C        12.9464    4.4688   12.7613   -0.0071    0.0139   -0.0004
C        15.0523    3.2268   12.7611    0.0121   -0.0300    0.0002
C        13.6434    3.2581   12.7682    0.0202    0.0364   -0.0004
H        16.8920    4.3900   12.7428   -0.0256    0.0198   -0.0007
H        11.8565    4.5005   12.7666   -0.0067   -0.0017    0.0021
H        13.0902    2.3178   12.7803   -0.0093    0.0544   -0.0000
H        15.5632    2.2628   12.7676   -0.0059   -0.0391    0.0003
    57
stable frequency at    927.007 1/cm IR int. is 10.247 a.m.u.; force const. is 5.188 mDyne/Ang.
C        10.3153   10.6255   12.7541    0.0244    0.0052   -0.0005
C        11.7250   11.0126   12.7436    0.0482   -0.0130   -0.0002
C        13.4288   12.6432   12.7402    0.0109   -0.0488   -0.0005
C        13.8774   14.0347   12.7489   -0.0063   -0.0241    0.0001
C        10.2838    9.2117   12.7538   -0.0241    0.0063   -0.0000
C        11.6752    8.7628   12.7434   -0.0488   -0.0109    0.0005
C        13.3062    7.0594   12.7390   -0.0130   -0.0482    0.0002
C        13.6935    5.6496   12.7468    0.0052   -0.0244    0.0003
N        12.1457   12.2786   12.7444   -0.0550    0.0574    0.0005
N        12.0400    7.4796   12.7439    0.0574    0.0550   -0.0005
C        15.2912   14.0035   12.7457   -0.0052    0.0244    0.0005
C        15.6785   12.5937   12.7355    0.0130    0.0482    0.0001
C        17.3094   10.8903   12.7347    0.0488    0.0109    0.0005
C        18.7010   10.4413   12.7487    0.0241   -0.0063    0.0001
C        17.2595    8.6406   12.7332   -0.0482    0.0130   -0.0001
C        18.6693    9.0275   12.7476   -0.0244   -0.0052   -0.0008
C        15.1073    5.6184   12.7412    0.0063    0.0241   -0.0001
C        15.5559    7.0099   12.7320   -0.0109    0.0488   -0.0003
N        16.9446   12.1735   12.7365   -0.0574   -0.0550   -0.0004
N        16.8391    7.3745   12.7331    0.0550   -0.0574    0.0003
N        12.4947    9.8701   12.7367   -0.0011   -0.0525   -0.0001
N        14.5362   11.8239   12.7312    0.0524   -0.0011   -0.0000
N        16.4900    9.7831   12.7252    0.0011    0.0525   -0.0001
N        14.4485    7.8292   12.7301   -0.0525    0.0011    0.0002
C        13.1827   15.2473   12.7623    0.0179    0.0063   -0.0011
Zn       14.4924    9.8265   12.7264    0.0000    0.0000   -0.0000
C        16.0384   15.1842   12.7549    0.0176   -0.0070   -0.0011
C        13.9324   16.4262   12.7720   -0.0145    0.0345    0.0011
C        15.3413   16.3949   12.7682   -0.0161   -0.0339    0.0004
H        12.0925   15.2624   12.7653    0.0173    0.0017    0.0061
H        17.1282   15.1517   12.7524    0.0172   -0.0014    0.0056
H        15.8945   17.3351   12.7765    0.0091   -0.0490   -0.0042
H        13.4215   17.3900   12.7831    0.0105    0.0479   -0.0032
C        19.9141   11.1351   12.7666   -0.0063    0.0179    0.0012
C        19.8494    8.2795   12.7644    0.0070    0.0176    0.0013
C        21.0925   10.3847   12.7838   -0.0345   -0.0145   -0.0013
C        21.0605    8.9757   12.7834    0.0339   -0.0161   -0.0003
H        19.9307   12.2252   12.7677   -0.0015    0.0173   -0.0068
H        19.8161    7.1897   12.7642    0.0015    0.0171   -0.0066
H        22.0002    8.4217   12.7979    0.0489    0.0090    0.0048
H        22.0566   10.8949   12.7993   -0.0479    0.0106    0.0032
C         9.0706    8.5177   12.7651    0.0063   -0.0179    0.0009
C         9.1350   11.3733   12.7663   -0.0070   -0.0176    0.0010
C         7.8920    9.2680   12.7781    0.0345    0.0145   -0.0009
C         7.9240   10.6769   12.7780   -0.0339    0.0161   -0.0002
H         9.0541    7.4277   12.7650    0.0016   -0.0173   -0.0050
H         9.1683   12.4630   12.7667   -0.0015   -0.0171   -0.0049
H         6.9843   11.2312   12.7887   -0.0489   -0.0090    0.0036
H         6.9279    8.7580   12.7877    0.0479   -0.0107    0.0020
C        15.8019    4.4056   12.7477   -0.0179   -0.0063   -0.0002
C        12.9464    4.4688   12.7613   -0.0176    0.0070   -0.0005
C        15.0523    3.2268   12.7611    0.0145   -0.0345    0.0004
C        13.6434    3.2581   12.7682    0.0161    0.0339   -0.0000
H        16.8920    4.3900   12.7428   -0.0172   -0.0017    0.0018
H        11.8565    4.5005   12.7666   -0.0171    0.0013    0.0030
H        13.0902    2.3178   12.7803   -0.0091    0.0490   -0.0021
H        15.5632    2.2628   12.7676   -0.0106   -0.0479   -0.0001
    57
stable frequency at    933.808 1/cm IR int. is 1.398 a.m.u.; force const. is 0.718 mDyne/Ang.
C        10.3153   10.6255   12.7541   -0.0005    0.0000   -0.0146
C        11.7250   11.0126   12.7436   -0.0009    0.0003    0.0085
C        13.4288   12.6432   12.7402   -0.0003    0.0010   -0.0073
C        13.8774   14.0347   12.7489    0.0001    0.0003    0.0124
C        10.2838    9.2117   12.7538    0.0003   -0.0001   -0.0144
C        11.6752    8.7628   12.7434    0.0010    0.0002    0.0085
C        13.3062    7.0594   12.7390    0.0002    0.0008   -0.0062
C        13.6935    5.6496   12.7468   -0.0001    0.0005    0.0106
N        12.1457   12.2786   12.7444    0.0011   -0.0012   -0.0002
N        12.0400    7.4796   12.7439   -0.0011   -0.0011   -0.0003
C        15.2912   14.0035   12.7457    0.0000   -0.0005    0.0125
C        15.6785   12.5937   12.7355   -0.0003   -0.0009   -0.0073
C        17.3094   10.8903   12.7347   -0.0010   -0.0003    0.0063
C        18.7010   10.4413   12.7487   -0.0003    0.0001   -0.0108
C        17.2595    8.6406   12.7332    0.0009   -0.0003    0.0063
C        18.6693    9.0275   12.7476    0.0005    0.0000   -0.0109
C        15.1073    5.6184   12.7412   -0.0001   -0.0004    0.0104
C        15.5559    7.0099   12.7320    0.0002   -0.0008   -0.0061
N        16.9446   12.1735   12.7365    0.0012    0.0011    0.0001
N        16.8391    7.3745   12.7331   -0.0010    0.0012   -0.0000
N        12.4947    9.8701   12.7367   -0.0001    0.0011   -0.0039
N        14.5362   11.8239   12.7312   -0.0011   -0.0000    0.0033
N        16.4900    9.7831   12.7252   -0.0000   -0.0011   -0.0029
N        14.4485    7.8292   12.7301    0.0010    0.0000    0.0028
C        13.1827   15.2473   12.7623   -0.0004    0.0002   -0.0460
Zn       14.4924    9.8265   12.7264    0.0000   -0.0000   -0.0000
C        16.0384   15.1842   12.7549   -0.0003    0.0006   -0.0462
C        13.9324   16.4262   12.7720    0.0003   -0.0010    0.0315
C        15.3413   16.3949   12.7682    0.0005    0.0004    0.0309
H        12.0925   15.2624   12.7653    0.0004   -0.0028    0.2463
H        17.1282   15.1517   12.7524    0.0003   -0.0028    0.2472
H        15.8945   17.3351   12.7765   -0.0006    0.0029   -0.1692
H        13.4215   17.3900   12.7831   -0.0008    0.0008   -0.1732
C        19.9141   11.1351   12.7666   -0.0004   -0.0003    0.0400
C        19.8494    8.2795   12.7644   -0.0008   -0.0003    0.0399
C        21.0925   10.3847   12.7838    0.0011    0.0003   -0.0275
C        21.0605    8.9757   12.7834   -0.0003    0.0004   -0.0266
H        19.9307   12.2252   12.7677    0.0034   -0.0001   -0.2145
H        19.8161    7.1897   12.7642    0.0035   -0.0004   -0.2136
H        22.0002    8.4217   12.7979   -0.0034   -0.0003    0.1455
H        22.0566   10.8949   12.7993   -0.0014   -0.0003    0.1514
C         9.0706    8.5177   12.7651    0.0003    0.0003    0.0540
C         9.1350   11.3733   12.7663    0.0008    0.0003    0.0537
C         7.8920    9.2680   12.7781   -0.0011   -0.0003   -0.0370
C         7.9240   10.6769   12.7780    0.0004   -0.0004   -0.0358
H         9.0541    7.4277   12.7650   -0.0032    0.0004   -0.2897
H         9.1683   12.4630   12.7667   -0.0032    0.0005   -0.2870
H         6.9843   11.2312   12.7887    0.0033    0.0000    0.1960
H         6.9279    8.7580   12.7877    0.0011    0.0000    0.2029
C        15.8019    4.4056   12.7477    0.0001   -0.0002   -0.0386
C        12.9464    4.4688   12.7613    0.0001   -0.0005   -0.0389
C        15.0523    3.2268   12.7611   -0.0002    0.0009    0.0265
C        13.6434    3.2581   12.7682   -0.0002   -0.0004    0.0261
H        16.8920    4.3900   12.7428    0.0012    0.0018    0.2066
H        11.8565    4.5005   12.7666    0.0014    0.0016    0.2078
H        13.0902    2.3178   12.7803   -0.0007   -0.0023   -0.1434
H        15.5632    2.2628   12.7676   -0.0007   -0.0005   -0.1456
    57
stable frequency at    934.183 1/cm IR int. is 1.397 a.m.u.; force const. is 0.718 mDyne/Ang.
C        10.3153   10.6255   12.7541   -0.0000   -0.0001    0.0164
C        11.7250   11.0126   12.7436   -0.0001    0.0000   -0.0095
C        13.4288   12.6432   12.7402   -0.0000    0.0003   -0.0017
C        13.8774   14.0347   12.7489    0.0001    0.0001    0.0029
C        10.2838    9.2117   12.7538    0.0002   -0.0001    0.0162
C        11.6752    8.7628   12.7434   -0.0000    0.0000   -0.0094
C        13.3062    7.0594   12.7390    0.0000    0.0002   -0.0005
C        13.6935    5.6496   12.7468   -0.0001    0.0001    0.0008
N        12.1457   12.2786   12.7444    0.0003   -0.0001    0.0015
N        12.0400    7.4796   12.7439   -0.0002   -0.0001    0.0014
C        15.2912   14.0035   12.7457   -0.0000   -0.0001    0.0030
C        15.6785   12.5937   12.7355   -0.0001   -0.0002   -0.0017
C        17.3094   10.8903   12.7347   -0.0005   -0.0001    0.0102
C        18.7010   10.4413   12.7487    0.0001   -0.0001   -0.0176
C        17.2595    8.6406   12.7332    0.0004   -0.0001    0.0103
C        18.6693    9.0275   12.7476    0.0002   -0.0001   -0.0178
C        15.1073    5.6184   12.7412    0.0000   -0.0001    0.0010
C        15.5559    7.0099   12.7320    0.0001   -0.0002   -0.0005
N        16.9446   12.1735   12.7365    0.0003    0.0005   -0.0012
N        16.8391    7.3745   12.7331   -0.0003    0.0005   -0.0013
N        12.4947    9.8701   12.7367    0.0001    0.0000    0.0044
N        14.5362   11.8239   12.7312   -0.0003   -0.0002    0.0008
N        16.4900    9.7831   12.7252    0.0001   -0.0005   -0.0048
N        14.4485    7.8292   12.7301    0.0002   -0.0002    0.0002
C        13.1827   15.2473   12.7623   -0.0001    0.0001   -0.0110
Zn       14.4924    9.8265   12.7264   -0.0000    0.0000   -0.0000
C        16.0384   15.1842   12.7549   -0.0001    0.0001   -0.0109
C        13.9324   16.4262   12.7720    0.0001   -0.0003    0.0065
C        15.3413   16.3949   12.7682    0.0001    0.0001    0.0083
H        12.0925   15.2624   12.7653    0.0001   -0.0006    0.0608
H        17.1282   15.1517   12.7524    0.0000   -0.0006    0.0573
H        15.8945   17.3351   12.7765   -0.0002    0.0007   -0.0456
H        13.4215   17.3900   12.7831   -0.0002    0.0001   -0.0352
C        19.9141   11.1351   12.7666   -0.0007   -0.0002    0.0658
C        19.8494    8.2795   12.7644   -0.0011   -0.0001    0.0656
C        21.0925   10.3847   12.7838    0.0011    0.0002   -0.0451
C        21.0605    8.9757   12.7834    0.0002    0.0003   -0.0435
H        19.9307   12.2252   12.7677    0.0055    0.0001   -0.3545
H        19.8161    7.1897   12.7642    0.0060   -0.0002   -0.3529
H        22.0002    8.4217   12.7979   -0.0045   -0.0001    0.2363
H        22.0566   10.8949   12.7993   -0.0033   -0.0002    0.2457
C         9.0706    8.5177   12.7651   -0.0005    0.0000   -0.0609
C         9.1350   11.3733   12.7663   -0.0007    0.0000   -0.0605
C         7.8920    9.2680   12.7781    0.0005    0.0000    0.0417
C         7.9240   10.6769   12.7780    0.0003    0.0001    0.0401
H         9.0541    7.4277   12.7650    0.0035   -0.0001    0.3283
H         9.1683   12.4630   12.7667    0.0036   -0.0002    0.3257
H         6.9843   11.2312   12.7887   -0.0026    0.0002   -0.2176
H         6.9279    8.7580   12.7877   -0.0023    0.0003   -0.2270
C        15.8019    4.4056   12.7477    0.0001    0.0000   -0.0033
C        12.9464    4.4688   12.7613    0.0000   -0.0001   -0.0035
C        15.0523    3.2268   12.7611   -0.0000    0.0001    0.0033
C        13.6434    3.2581   12.7682   -0.0001   -0.0001    0.0013
H        16.8920    4.3900   12.7428    0.0002    0.0002    0.0163
H        11.8565    4.5005   12.7666    0.0001    0.0002    0.0200
H        13.0902    2.3178   12.7803   -0.0000   -0.0003   -0.0071
H        15.5632    2.2628   12.7676   -0.0000    0.0000   -0.0186
    57
stable frequency at    934.295 1/cm IR int. is 1.396 a.m.u.; force const. is 0.718 mDyne/Ang.
C        10.3153   10.6255   12.7541    0.0001    0.0000   -0.0003
C        11.7250   11.0126   12.7436    0.0001   -0.0001    0.0002
C        13.4288   12.6432   12.7402    0.0001   -0.0004    0.0097
C        13.8774   14.0347   12.7489    0.0000    0.0001   -0.0168
C        10.2838    9.2117   12.7538   -0.0001    0.0001   -0.0005
C        11.6752    8.7628   12.7434   -0.0002   -0.0000    0.0002
C        13.3062    7.0594   12.7390   -0.0001   -0.0001   -0.0100
C        13.6935    5.6496   12.7468    0.0001    0.0000    0.0173
N        12.1457   12.2786   12.7444   -0.0004    0.0002   -0.0014
N        12.0400    7.4796   12.7439    0.0001    0.0002    0.0013
C        15.2912   14.0035   12.7457    0.0001    0.0002   -0.0170
C        15.6785   12.5937   12.7355    0.0001    0.0003    0.0098
C        17.3094   10.8903   12.7347    0.0001    0.0001    0.0013
C        18.7010   10.4413   12.7487    0.0001   -0.0000   -0.0022
C        17.2595    8.6406   12.7332   -0.0002    0.0000    0.0013
C        18.6693    9.0275   12.7476   -0.0001   -0.0001   -0.0024
C        15.1073    5.6184   12.7412    0.0001    0.0002    0.0171
C        15.5559    7.0099   12.7320   -0.0000    0.0001   -0.0099
N        16.9446   12.1735   12.7365   -0.0004   -0.0002   -0.0015
N        16.8391    7.3745   12.7331    0.0001   -0.0002    0.0012
N        12.4947    9.8701   12.7367    0.0001   -0.0002   -0.0001
N        14.5362   11.8239   12.7312    0.0004    0.0000   -0.0046
N        16.4900    9.7831   12.7252    0.0001    0.0002   -0.0006
N        14.4485    7.8292   12.7301   -0.0000    0.0001    0.0046
C        13.1827   15.2473   12.7623    0.0003   -0.0004    0.0627
Zn       14.4924    9.8265   12.7264   -0.0000   -0.0000   -0.0000
C        16.0384   15.1842   12.7549    0.0002   -0.0007    0.0630
C        13.9324   16.4262   12.7720   -0.0002    0.0007   -0.0428
C        15.3413   16.3949   12.7682   -0.0003    0.0001   -0.0420
H        12.0925   15.2624   12.7653   -0.0008    0.0036   -0.3382
H        17.1282   15.1517   12.7524   -0.0006    0.0039   -0.3393
H        15.8945   17.3351   12.7765    0.0007   -0.0029    0.2281
H        13.4215   17.3900   12.7831    0.0008   -0.0019    0.2331
C        19.9141   11.1351   12.7666   -0.0001    0.0001    0.0086
C        19.8494    8.2795   12.7644   -0.0001    0.0000    0.0084
C        21.0925   10.3847   12.7838    0.0000    0.0000   -0.0048
C        21.0605    8.9757   12.7834    0.0002   -0.0000   -0.0066
H        19.9307   12.2252   12.7677    0.0006    0.0001   -0.0476
H        19.8161    7.1897   12.7642    0.0007    0.0000   -0.0441
H        22.0002    8.4217   12.7979   -0.0005   -0.0001    0.0360
H        22.0566   10.8949   12.7993   -0.0005    0.0000    0.0262
C         9.0706    8.5177   12.7651    0.0000   -0.0000    0.0013
C         9.1350   11.3733   12.7663   -0.0000   -0.0001    0.0015
C         7.8920    9.2680   12.7781    0.0001    0.0000   -0.0020
C         7.9240   10.6769   12.7780   -0.0001    0.0000    0.0000
H         9.0541    7.4277   12.7650   -0.0001   -0.0000   -0.0059
H         9.1683   12.4630   12.7667   -0.0002   -0.0001   -0.0091
H         6.9843   11.2312   12.7887   -0.0001   -0.0001   -0.0002
H         6.9279    8.7580   12.7877    0.0003    0.0000    0.0109
C        15.8019    4.4056   12.7477   -0.0002   -0.0005   -0.0638
C        12.9464    4.4688   12.7613   -0.0003   -0.0007   -0.0642
C        15.0523    3.2268   12.7611    0.0001    0.0004    0.0438
C        13.6434    3.2581   12.7682    0.0001    0.0003    0.0427
H        16.8920    4.3900   12.7428    0.0016    0.0029    0.3433
H        11.8565    4.5005   12.7666    0.0018    0.0029    0.3460
H        13.0902    2.3178   12.7803   -0.0016   -0.0023   -0.2323
H        15.5632    2.2628   12.7676   -0.0015   -0.0023   -0.2387
    57
stable frequency at    934.917 1/cm IR int. is 1.394 a.m.u.; force const. is 0.718 mDyne/Ang.
C        10.3153   10.6255   12.7541    0.0001   -0.0000    0.0105
C        11.7250   11.0126   12.7436    0.0002    0.0000   -0.0060
C        13.4288   12.6432   12.7402    0.0000    0.0000   -0.0066
C        13.8774   14.0347   12.7489   -0.0001   -0.0002    0.0116
C        10.2838    9.2117   12.7538    0.0001   -0.0000    0.0104
C        11.6752    8.7628   12.7434   -0.0002   -0.0000   -0.0059
C        13.3062    7.0594   12.7390   -0.0001   -0.0001   -0.0077
C        13.6935    5.6496   12.7468    0.0001    0.0000    0.0134
N        12.1457   12.2786   12.7444   -0.0000    0.0002    0.0017
N        12.0400    7.4796   12.7439    0.0002    0.0002    0.0018
C        15.2912   14.0035   12.7457   -0.0001    0.0000    0.0117
C        15.6785   12.5937   12.7355    0.0001    0.0000   -0.0067
C        17.3094   10.8903   12.7347    0.0003    0.0000   -0.0070
C        18.7010   10.4413   12.7487   -0.0001    0.0000    0.0122
C        17.2595    8.6406   12.7332   -0.0002    0.0000   -0.0071
C        18.6693    9.0275   12.7476   -0.0001    0.0001    0.0124
C        15.1073    5.6184   12.7412    0.0001    0.0001    0.0132
C        15.5559    7.0099   12.7320   -0.0001    0.0001   -0.0076
N        16.9446   12.1735   12.7365   -0.0001   -0.0003    0.0018
N        16.8391    7.3745   12.7331    0.0002   -0.0003    0.0020
N        12.4947    9.8701   12.7367    0.0000   -0.0002    0.0029
N        14.5362   11.8239   12.7312    0.0000   -0.0000    0.0032
N        16.4900    9.7831   12.7252   -0.0001    0.0003    0.0034
N        14.4485    7.8292   12.7301   -0.0001    0.0001    0.0037
C        13.1827   15.2473   12.7623   -0.0002    0.0003   -0.0438
Zn       14.4924    9.8265   12.7264    0.0000   -0.0000    0.0000
C        16.0384   15.1842   12.7549   -0.0001    0.0005   -0.0440
C        13.9324   16.4262   12.7720    0.0001   -0.0003    0.0298
C        15.3413   16.3949   12.7682    0.0002   -0.0002    0.0292
H        12.0925   15.2624   12.7653    0.0006   -0.0026    0.2371
H        17.1282   15.1517   12.7524    0.0005   -0.0029    0.2379
H        15.8945   17.3351   12.7765   -0.0003    0.0018   -0.1583
H        13.4215   17.3900   12.7831   -0.0005    0.0016   -0.1623
C        19.9141   11.1351   12.7666    0.0005    0.0002   -0.0463
C        19.8494    8.2795   12.7644    0.0008    0.0001   -0.0462
C        21.0925   10.3847   12.7838   -0.0007   -0.0001    0.0316
C        21.0605    8.9757   12.7834   -0.0001   -0.0002    0.0304
H        19.9307   12.2252   12.7677   -0.0040   -0.0001    0.2511
H        19.8161    7.1897   12.7642   -0.0043    0.0002    0.2497
H        22.0002    8.4217   12.7979    0.0031   -0.0000   -0.1652
H        22.0566   10.8949   12.7993    0.0024    0.0001   -0.1722
C         9.0706    8.5177   12.7651   -0.0003   -0.0001   -0.0395
C         9.1350   11.3733   12.7663   -0.0005   -0.0001   -0.0392
C         7.8920    9.2680   12.7781    0.0005    0.0001    0.0269
C         7.9240   10.6769   12.7780    0.0001    0.0001    0.0259
H         9.0541    7.4277   12.7650    0.0022   -0.0001    0.2139
H         9.1683   12.4630   12.7667    0.0023   -0.0002    0.2117
H         6.9843   11.2312   12.7887   -0.0018    0.0001   -0.1407
H         6.9279    8.7580   12.7877   -0.0013    0.0002   -0.1462
C        15.8019    4.4056   12.7477   -0.0002   -0.0004   -0.0499
C        12.9464    4.4688   12.7613   -0.0002   -0.0006   -0.0502
C        15.0523    3.2268   12.7611    0.0001    0.0003    0.0341
C        13.6434    3.2581   12.7682    0.0001    0.0003    0.0333
H        16.8920    4.3900   12.7428    0.0013    0.0022    0.2702
H        11.8565    4.5005   12.7666    0.0015    0.0022    0.2714
H        13.0902    2.3178   12.7803   -0.0013   -0.0017   -0.1812
H        15.5632    2.2628   12.7676   -0.0012   -0.0018   -0.1854
    57
stable frequency at    962.759 1/cm IR int. is 1.310 a.m.u.; force const. is 0.715 mDyne/Ang.
C        10.3153   10.6255   12.7541   -0.0001    0.0000   -0.0022
C        11.7250   11.0126   12.7436    0.0001   -0.0000   -0.0018
C        13.4288   12.6432   12.7402    0.0000   -0.0000    0.0012
C        13.8774   14.0347   12.7489    0.0000    0.0000    0.0018
C        10.2838    9.2117   12.7538   -0.0001   -0.0000    0.0025
C        11.6752    8.7628   12.7434    0.0000    0.0000    0.0017
C        13.3062    7.0594   12.7390    0.0000    0.0001   -0.0007
C        13.6935    5.6496   12.7468   -0.0000   -0.0001   -0.0010
N        12.1457   12.2786   12.7444   -0.0000    0.0000    0.0001
N        12.0400    7.4796   12.7439   -0.0001   -0.0000   -0.0001
C        15.2912   14.0035   12.7457    0.0000    0.0001   -0.0016
C        15.6785   12.5937   12.7355   -0.0000   -0.0000   -0.0012
C        17.3094   10.8903   12.7347   -0.0001   -0.0000    0.0014
C        18.7010   10.4413   12.7487    0.0001    0.0000    0.0020
C        17.2595    8.6406   12.7332   -0.0001   -0.0000   -0.0015
C        18.6693    9.0275   12.7476    0.0001   -0.0001   -0.0018
C        15.1073    5.6184   12.7412    0.0001   -0.0000    0.0011
C        15.5559    7.0099   12.7320   -0.0000    0.0000    0.0007
N        16.9446   12.1735   12.7365    0.0000    0.0000   -0.0000
N        16.8391    7.3745   12.7331   -0.0000   -0.0000    0.0001
N        12.4947    9.8701   12.7367    0.0002   -0.0000    0.0001
N        14.5362   11.8239   12.7312    0.0000   -0.0001    0.0000
N        16.4900    9.7831   12.7252   -0.0002    0.0000    0.0000
N        14.4485    7.8292   12.7301    0.0000    0.0001    0.0000
C        13.1827   15.2473   12.7623    0.0003    0.0000    0.0236
Zn       14.4924    9.8265   12.7264   -0.0000    0.0000    0.0000
C        16.0384   15.1842   12.7549   -0.0002    0.0004   -0.0242
C        13.9324   16.4262   12.7720    0.0001    0.0002   -0.0416
C        15.3413   16.3949   12.7682   -0.0002   -0.0006    0.0418
H        12.0925   15.2624   12.7653   -0.0002    0.0027   -0.1494
H        17.1282   15.1517   12.7524    0.0001   -0.0004    0.1525
H        15.8945   17.3351   12.7765   -0.0012    0.0025   -0.2435
H        13.4215   17.3900   12.7831    0.0011   -0.0025    0.2427
C        19.9141   11.1351   12.7666    0.0000   -0.0004    0.0262
C        19.8494    8.2795   12.7644    0.0008    0.0003   -0.0273
C        21.0925   10.3847   12.7838    0.0003   -0.0004   -0.0462
C        21.0605    8.9757   12.7834   -0.0011    0.0005    0.0469
H        19.9307   12.2252   12.7677    0.0047   -0.0003   -0.1665
H        19.8161    7.1897   12.7642   -0.0007    0.0003    0.1727
H        22.0002    8.4217   12.7979    0.0043    0.0012   -0.2735
H        22.0566   10.8949   12.7993   -0.0045   -0.0009    0.2699
C         9.0706    8.5177   12.7651   -0.0000    0.0003    0.0321
C         9.1350   11.3733   12.7663   -0.0007   -0.0003   -0.0333
C         7.8920    9.2680   12.7781   -0.0002    0.0005   -0.0565
C         7.9240   10.6769   12.7780    0.0009   -0.0005    0.0573
H         9.0541    7.4277   12.7650   -0.0041    0.0004   -0.2040
H         9.1683   12.4630   12.7667    0.0004   -0.0004    0.2101
H         6.9843   11.2312   12.7887   -0.0037   -0.0009   -0.3342
H         6.9279    8.7580   12.7877    0.0036    0.0006    0.3297
C        15.8019    4.4056   12.7477   -0.0000   -0.0000    0.0151
C        12.9464    4.4688   12.7613    0.0000   -0.0003   -0.0154
C        15.0523    3.2268   12.7611   -0.0003   -0.0000   -0.0267
C        13.6434    3.2581   12.7682    0.0003    0.0004    0.0268
H        16.8920    4.3900   12.7428   -0.0006   -0.0017   -0.0955
H        11.8565    4.5005   12.7666    0.0006    0.0000    0.0970
H        13.0902    2.3178   12.7803   -0.0004   -0.0016   -0.1561
H        15.5632    2.2628   12.7676    0.0004    0.0016    0.1560
    57
stable frequency at    962.895 1/cm IR int. is 1.309 a.m.u.; force const. is 0.715 mDyne/Ang.
C        10.3153   10.6255   12.7541    0.0001   -0.0001    0.0023
C        11.7250   11.0126   12.7436   -0.0001    0.0000    0.0020
C        13.4288   12.6432   12.7402   -0.0000    0.0000    0.0001
C        13.8774   14.0347   12.7489   -0.0000    0.0000    0.0001
C        10.2838    9.2117   12.7538    0.0000    0.0001   -0.0026
C        11.6752    8.7628   12.7434   -0.0000   -0.0000   -0.0018
C        13.3062    7.0594   12.7390    0.0000   -0.0000   -0.0000
C        13.6935    5.6496   12.7468   -0.0000   -0.0000   -0.0000
N        12.1457   12.2786   12.7444    0.0000   -0.0000   -0.0003
N        12.0400    7.4796   12.7439   -0.0000   -0.0000    0.0003
C        15.2912   14.0035   12.7457   -0.0000    0.0000   -0.0003
C        15.6785   12.5937   12.7355   -0.0000   -0.0000   -0.0002
C        17.3094   10.8903   12.7347   -0.0001   -0.0000    0.0020
C        18.7010   10.4413   12.7487    0.0001    0.0001    0.0029
C        17.2595    8.6406   12.7332   -0.0001    0.0000   -0.0022
C        18.6693    9.0275   12.7476    0.0001   -0.0001   -0.0025
C        15.1073    5.6184   12.7412   -0.0000   -0.0000    0.0002
C        15.5559    7.0099   12.7320   -0.0000    0.0000    0.0001
N        16.9446   12.1735   12.7365    0.0000    0.0000   -0.0003
N        16.8391    7.3745   12.7331    0.0000   -0.0000    0.0003
N        12.4947    9.8701   12.7367   -0.0002    0.0001   -0.0000
N        14.5362   11.8239   12.7312   -0.0000   -0.0000    0.0001
N        16.4900    9.7831   12.7252   -0.0003    0.0000    0.0000
N        14.4485    7.8292   12.7301   -0.0000    0.0000   -0.0001
C        13.1827   15.2473   12.7623   -0.0000   -0.0000    0.0036
Zn       14.4924    9.8265   12.7264    0.0000   -0.0000   -0.0000
C        16.0384   15.1842   12.7549   -0.0001    0.0001   -0.0024
C        13.9324   16.4262   12.7720    0.0000    0.0000   -0.0055
C        15.3413   16.3949   12.7682   -0.0000   -0.0001    0.0048
H        12.0925   15.2624   12.7653   -0.0001    0.0004   -0.0229
H        17.1282   15.1517   12.7524   -0.0000    0.0001    0.0151
H        15.8945   17.3351   12.7765   -0.0000    0.0002   -0.0288
H        13.4215   17.3900   12.7831    0.0003   -0.0003    0.0313
C        19.9141   11.1351   12.7666    0.0001   -0.0006    0.0373
C        19.8494    8.2795   12.7644    0.0012    0.0005   -0.0387
C        21.0925   10.3847   12.7838    0.0003   -0.0007   -0.0653
C        21.0605    8.9757   12.7834   -0.0016    0.0008    0.0661
H        19.9307   12.2252   12.7677    0.0071   -0.0005   -0.2375
H        19.8161    7.1897   12.7642   -0.0005    0.0006    0.2449
H        22.0002    8.4217   12.7979    0.0060    0.0019   -0.3857
H        22.0566   10.8949   12.7993   -0.0064   -0.0015    0.3816
C         9.0706    8.5177   12.7651    0.0001   -0.0004   -0.0333
C         9.1350   11.3733   12.7663    0.0008    0.0003    0.0347
C         7.8920    9.2680   12.7781    0.0001   -0.0006    0.0584
C         7.9240   10.6769   12.7780   -0.0011    0.0006   -0.0593
H         9.0541    7.4277   12.7650    0.0048   -0.0005    0.2120
H         9.1683   12.4630   12.7667    0.0002    0.0005   -0.2194
H         6.9843   11.2312   12.7887    0.0038    0.0011    0.3457
H         6.9279    8.7580   12.7877   -0.0038   -0.0008   -0.3410
C        15.8019    4.4056   12.7477   -0.0000   -0.0000    0.0009
C        12.9464    4.4688   12.7613   -0.0000   -0.0000   -0.0022
C        15.0523    3.2268   12.7611   -0.0001   -0.0000   -0.0024
C        13.6434    3.2581   12.7682    0.0000    0.0000    0.0031
H        16.8920    4.3900   12.7428   -0.0001   -0.0002   -0.0056
H        11.8565    4.5005   12.7666    0.0000    0.0001    0.0137
H        13.0902    2.3178   12.7803    0.0001   -0.0002   -0.0173
H        15.5632    2.2628   12.7676    0.0002    0.0002    0.0146
    57
stable frequency at    963.047 1/cm IR int. is 1.309 a.m.u.; force const. is 0.715 mDyne/Ang.
C        10.3153   10.6255   12.7541   -0.0000    0.0000   -0.0006
C        11.7250   11.0126   12.7436    0.0000    0.0000   -0.0006
C        13.4288   12.6432   12.7402   -0.0000    0.0001   -0.0024
C        13.8774   14.0347   12.7489    0.0000   -0.0000   -0.0032
C        10.2838    9.2117   12.7538   -0.0000   -0.0000    0.0009
C        11.6752    8.7628   12.7434    0.0000    0.0000    0.0007
C        13.3062    7.0594   12.7390    0.0000    0.0001   -0.0012
C        13.6935    5.6496   12.7468   -0.0000   -0.0001   -0.0016
N        12.1457   12.2786   12.7444    0.0000   -0.0000    0.0005
N        12.0400    7.4796   12.7439   -0.0001   -0.0000    0.0001
C        15.2912   14.0035   12.7457   -0.0001   -0.0001    0.0030
C        15.6785   12.5937   12.7355    0.0000    0.0000    0.0025
C        17.3094   10.8903   12.7347   -0.0000   -0.0000    0.0006
C        18.7010   10.4413   12.7487    0.0000    0.0000    0.0008
C        17.2595    8.6406   12.7332   -0.0000   -0.0000   -0.0008
C        18.6693    9.0275   12.7476    0.0001   -0.0000   -0.0009
C        15.1073    5.6184   12.7412    0.0001   -0.0000    0.0017
C        15.5559    7.0099   12.7320   -0.0000    0.0000    0.0012
N        16.9446   12.1735   12.7365    0.0000    0.0000   -0.0005
N        16.8391    7.3745   12.7331   -0.0001    0.0000   -0.0000
N        12.4947    9.8701   12.7367    0.0001    0.0001   -0.0001
N        14.5362   11.8239   12.7312   -0.0000    0.0002   -0.0000
N        16.4900    9.7831   12.7252   -0.0001   -0.0000    0.0001
N        14.4485    7.8292   12.7301    0.0001    0.0002    0.0000
C        13.1827   15.2473   12.7623   -0.0005   -0.0000   -0.0423
Zn       14.4924    9.8265   12.7264   -0.0000   -0.0000    0.0000
C        16.0384   15.1842   12.7549    0.0005   -0.0008    0.0430
C        13.9324   16.4262   12.7720   -0.0003   -0.0003    0.0737
C        15.3413   16.3949   12.7682    0.0004    0.0012   -0.0739
H        12.0925   15.2624   12.7653    0.0002   -0.0051    0.2690
H        17.1282   15.1517   12.7524   -0.0002    0.0005   -0.2727
H        15.8945   17.3351   12.7765    0.0022   -0.0043    0.4310
H        13.4215   17.3900   12.7831   -0.0020    0.0045   -0.4303
C        19.9141   11.1351   12.7666   -0.0000   -0.0001    0.0123
C        19.8494    8.2795   12.7644    0.0004    0.0002   -0.0116
C        21.0925   10.3847   12.7838    0.0001   -0.0002   -0.0207
C        21.0605    8.9757   12.7834   -0.0005    0.0002    0.0203
H        19.9307   12.2252   12.7677    0.0021   -0.0001   -0.0784
H        19.8161    7.1897   12.7642   -0.0002    0.0002    0.0733
H        22.0002    8.4217   12.7979    0.0018    0.0004   -0.1193
H        22.0566   10.8949   12.7993   -0.0020   -0.0005    0.1203
C         9.0706    8.5177   12.7651   -0.0000    0.0001    0.0098
C         9.1350   11.3733   12.7663   -0.0002   -0.0001   -0.0114
C         7.8920    9.2680   12.7781   -0.0001    0.0002   -0.0179
C         7.9240   10.6769   12.7780    0.0003   -0.0001    0.0188
H         9.0541    7.4277   12.7650   -0.0013    0.0001   -0.0626
H         9.1683   12.4630   12.7667    0.0002   -0.0001    0.0720
H         6.9843   11.2312   12.7887   -0.0012   -0.0003   -0.1091
H         6.9279    8.7580   12.7877    0.0012    0.0001    0.1051
C        15.8019    4.4056   12.7477   -0.0001   -0.0001    0.0229
C        12.9464    4.4688   12.7613    0.0001   -0.0006   -0.0234
C        15.0523    3.2268   12.7611   -0.0006    0.0001   -0.0401
C        13.6434    3.2581   12.7682    0.0006    0.0006    0.0402
H        16.8920    4.3900   12.7428   -0.0010   -0.0031   -0.1452
H        11.8565    4.5005   12.7666    0.0010   -0.0004    0.1482
H        13.0902    2.3178   12.7803   -0.0004   -0.0024   -0.2345
H        15.5632    2.2628   12.7676    0.0004    0.0024    0.2345
    57
stable frequency at    963.196 1/cm IR int. is 1.309 a.m.u.; force const. is 0.715 mDyne/Ang.
C        10.3153   10.6255   12.7541    0.0001   -0.0000    0.0012
C        11.7250   11.0126   12.7436   -0.0001    0.0000    0.0011
C        13.4288   12.6432   12.7402   -0.0000    0.0000    0.0009
C        13.8774   14.0347   12.7489    0.0000    0.0000    0.0011
C        10.2838    9.2117   12.7538    0.0000    0.0000   -0.0012
C        11.6752    8.7628   12.7434   -0.0000    0.0001   -0.0010
C        13.3062    7.0594   12.7390    0.0000    0.0002   -0.0025
C        13.6935    5.6496   12.7468   -0.0000   -0.0002   -0.0030
N        12.1457   12.2786   12.7444    0.0000   -0.0001   -0.0004
N        12.0400    7.4796   12.7439   -0.0002   -0.0001    0.0006
C        15.2912   14.0035   12.7457    0.0000    0.0000   -0.0010
C        15.6785   12.5937   12.7355   -0.0000   -0.0000   -0.0009
C        17.3094   10.8903   12.7347    0.0000   -0.0000   -0.0011
C        18.7010   10.4413   12.7487   -0.0001   -0.0000   -0.0014
C        17.2595    8.6406   12.7332    0.0000   -0.0000    0.0011
C        18.6693    9.0275   12.7476   -0.0001    0.0000    0.0012
C        15.1073    5.6184   12.7412    0.0002   -0.0001    0.0032
C        15.5559    7.0099   12.7320    0.0000   -0.0000    0.0024
N        16.9446   12.1735   12.7365    0.0000    0.0000    0.0004
N        16.8391    7.3745   12.7331   -0.0001    0.0001   -0.0006
N        12.4947    9.8701   12.7367   -0.0000    0.0001   -0.0001
N        14.5362   11.8239   12.7312   -0.0000   -0.0000    0.0000
N        16.4900    9.7831   12.7252    0.0002   -0.0001    0.0000
N        14.4485    7.8292   12.7301    0.0002    0.0003    0.0000
C        13.1827   15.2473   12.7623    0.0002   -0.0000    0.0143
Zn       14.4924    9.8265   12.7264   -0.0000   -0.0000    0.0000
C        16.0384   15.1842   12.7549   -0.0001    0.0003   -0.0145
C        13.9324   16.4262   12.7720    0.0001    0.0002   -0.0248
C        15.3413   16.3949   12.7682   -0.0001   -0.0003    0.0249
H        12.0925   15.2624   12.7653   -0.0001    0.0014   -0.0910
H        17.1282   15.1517   12.7524    0.0001   -0.0004    0.0920
H        15.8945   17.3351   12.7765   -0.0007    0.0015   -0.1454
H        13.4215   17.3900   12.7831    0.0006   -0.0015    0.1447
C        19.9141   11.1351   12.7666   -0.0000    0.0003   -0.0170
C        19.8494    8.2795   12.7644   -0.0005   -0.0002    0.0180
C        21.0925   10.3847   12.7838   -0.0002    0.0003    0.0298
C        21.0605    8.9757   12.7834    0.0007   -0.0003   -0.0304
H        19.9307   12.2252   12.7677   -0.0031    0.0002    0.1087
H        19.8161    7.1897   12.7642    0.0004   -0.0002   -0.1146
H        22.0002    8.4217   12.7979   -0.0028   -0.0009    0.1777
H        22.0566   10.8949   12.7993    0.0030    0.0006   -0.1744
C         9.0706    8.5177   12.7651    0.0000   -0.0001   -0.0163
C         9.1350   11.3733   12.7663    0.0004    0.0001    0.0164
C         7.8920    9.2680   12.7781    0.0001   -0.0002    0.0280
C         7.9240   10.6769   12.7780   -0.0004    0.0002   -0.0282
H         9.0541    7.4277   12.7650    0.0020   -0.0002    0.1043
H         9.1683   12.4630   12.7667   -0.0001    0.0002   -0.1042
H         6.9843   11.2312   12.7887    0.0018    0.0004    0.1648
H         6.9279    8.7580   12.7877   -0.0018   -0.0003   -0.1634
C        15.8019    4.4056   12.7477   -0.0002   -0.0001    0.0424
C        12.9464    4.4688   12.7613    0.0001   -0.0010   -0.0432
C        15.0523    3.2268   12.7611   -0.0010    0.0001   -0.0740
C        13.6434    3.2581   12.7682    0.0010    0.0011    0.0742
H        16.8920    4.3900   12.7428   -0.0017   -0.0052   -0.2694
H        11.8565    4.5005   12.7666    0.0017   -0.0003    0.2739
H        13.0902    2.3178   12.7803   -0.0009   -0.0044   -0.4328
H        15.5632    2.2628   12.7676    0.0009    0.0045    0.4323
    57
stable frequency at   1007.212 1/cm IR int. is 2.058 a.m.u.; force const. is 1.230 mDyne/Ang.
C        10.3153   10.6255   12.7541   -0.0045    0.0065    0.0001
C        11.7250   11.0126   12.7436    0.0010   -0.0015   -0.0000
C        13.4288   12.6432   12.7402   -0.0009    0.0014    0.0000
C        13.8774   14.0347   12.7489    0.0074   -0.0044   -0.0000
C        10.2838    9.2117   12.7538   -0.0042   -0.0070    0.0000
C        11.6752    8.7628   12.7434    0.0013    0.0008   -0.0000
C        13.3062    7.0594   12.7390   -0.0013   -0.0008    0.0000
C        13.6935    5.6496   12.7468    0.0059    0.0042   -0.0001
N        12.1457   12.2786   12.7444   -0.0016   -0.0007    0.0000
N        12.0400    7.4796   12.7439   -0.0007    0.0016    0.0000
C        15.2912   14.0035   12.7457   -0.0069   -0.0046   -0.0001
C        15.6785   12.5937   12.7355    0.0015    0.0010    0.0000
C        17.3094   10.8903   12.7347   -0.0014   -0.0011   -0.0000
C        18.7010   10.4413   12.7487    0.0044    0.0072    0.0000
C        17.2595    8.6406   12.7332   -0.0011    0.0013   -0.0000
C        18.6693    9.0275   12.7476    0.0045   -0.0068    0.0001
C        15.1073    5.6184   12.7412   -0.0064    0.0040    0.0000
C        15.5559    7.0099   12.7320    0.0009   -0.0011    0.0000
N        16.9446   12.1735   12.7365    0.0007   -0.0016    0.0000
N        16.8391    7.3745   12.7331    0.0015    0.0007    0.0000
N        12.4947    9.8701   12.7367    0.0091   -0.0007   -0.0001
N        14.5362   11.8239   12.7312    0.0008    0.0095    0.0001
N        16.4900    9.7831   12.7252   -0.0094    0.0008   -0.0001
N        14.4485    7.8292   12.7301   -0.0008   -0.0085    0.0000
C        13.1827   15.2473   12.7623   -0.0303   -0.0303   -0.0001
Zn       14.4924    9.8265   12.7264    0.0000   -0.0000    0.0000
C        16.0384   15.1842   12.7549    0.0276   -0.0315   -0.0004
C        13.9324   16.4262   12.7720   -0.0455    0.0478    0.0002
C        15.3413   16.3949   12.7682    0.0483    0.0460    0.0006
H        12.0925   15.2624   12.7653   -0.0371   -0.2186   -0.0030
H        17.1282   15.1517   12.7524    0.0262   -0.2181   -0.0018
H        15.8945   17.3351   12.7765    0.1061    0.0179   -0.0018
H        13.4215   17.3900   12.7831   -0.1034    0.0226    0.0026
C        19.9141   11.1351   12.7666    0.0299   -0.0298    0.0002
C        19.8494    8.2795   12.7644    0.0311    0.0273    0.0006
C        21.0925   10.3847   12.7838   -0.0473   -0.0449   -0.0002
C        21.0605    8.9757   12.7834   -0.0452    0.0477   -0.0012
H        19.9307   12.2252   12.7677    0.2156   -0.0368    0.0045
H        19.8161    7.1897   12.7642    0.2146    0.0258    0.0024
H        22.0002    8.4217   12.7979   -0.0173    0.1050    0.0026
H        22.0566   10.8949   12.7993   -0.0223   -0.1022   -0.0035
C         9.0706    8.5177   12.7651   -0.0289    0.0291    0.0002
C         9.1350   11.3733   12.7663   -0.0300   -0.0263    0.0004
C         7.8920    9.2680   12.7781    0.0457    0.0434   -0.0001
C         7.9240   10.6769   12.7780    0.0438   -0.0462   -0.0008
H         9.0541    7.4277   12.7650   -0.2084    0.0358    0.0032
H         9.1683   12.4630   12.7667   -0.2079   -0.0248    0.0013
H         6.9843   11.2312   12.7887    0.0168   -0.1016    0.0020
H         6.9279    8.7580   12.7877    0.0217    0.0985   -0.0024
C        15.8019    4.4056   12.7477    0.0268    0.0266   -0.0002
C        12.9464    4.4688   12.7613   -0.0244    0.0277   -0.0003
C        15.0523    3.2268   12.7611    0.0401   -0.0422   -0.0002
C        13.6434    3.2581   12.7682   -0.0427   -0.0406    0.0009
H        16.8920    4.3900   12.7428    0.0329    0.1925   -0.0028
H        11.8565    4.5005   12.7666   -0.0233    0.1916   -0.0006
H        13.0902    2.3178   12.7803   -0.0938   -0.0157   -0.0015
H        15.5632    2.2628   12.7676    0.0911   -0.0200    0.0016
    57
stable frequency at   1007.888 1/cm IR int. is 2.034 a.m.u.; force const. is 1.217 mDyne/Ang.
C        10.3153   10.6255   12.7541   -0.0040    0.0096    0.0001
C        11.7250   11.0126   12.7436    0.0024   -0.0017   -0.0000
C        13.4288   12.6432   12.7402   -0.0027    0.0008    0.0000
C        13.8774   14.0347   12.7489    0.0021   -0.0019   -0.0000
C        10.2838    9.2117   12.7538   -0.0039   -0.0102   -0.0000
C        11.6752    8.7628   12.7434    0.0024    0.0006   -0.0000
C        13.3062    7.0594   12.7390   -0.0025    0.0004    0.0000
C        13.6935    5.6496   12.7468   -0.0019    0.0005   -0.0000
N        12.1457   12.2786   12.7444    0.0001   -0.0004   -0.0000
N        12.0400    7.4796   12.7439    0.0004    0.0009   -0.0000
C        15.2912   14.0035   12.7457   -0.0038   -0.0003   -0.0000
C        15.6785   12.5937   12.7355   -0.0024    0.0011   -0.0000
C        17.3094   10.8903   12.7347    0.0030    0.0006    0.0000
C        18.7010   10.4413   12.7487   -0.0047   -0.0119   -0.0000
C        17.2595    8.6406   12.7332    0.0030   -0.0017    0.0000
C        18.6693    9.0275   12.7476   -0.0047    0.0114   -0.0001
C        15.1073    5.6184   12.7412    0.0002   -0.0010   -0.0000
C        15.5559    7.0099   12.7320   -0.0026    0.0001   -0.0000
N        16.9446   12.1735   12.7365    0.0003    0.0008   -0.0000
N        16.8391    7.3745   12.7331    0.0001   -0.0004   -0.0000
N        12.4947    9.8701   12.7367    0.0106   -0.0003   -0.0001
N        14.5362   11.8239   12.7312    0.0006    0.0029    0.0000
N        16.4900    9.7831   12.7252    0.0124   -0.0004    0.0001
N        14.4485    7.8292   12.7301    0.0005    0.0009   -0.0000
C        13.1827   15.2473   12.7623   -0.0087   -0.0111   -0.0000
Zn       14.4924    9.8265   12.7264   -0.0007   -0.0001    0.0000
C        16.0384   15.1842   12.7549    0.0113   -0.0111   -0.0001
C        13.9324   16.4262   12.7720   -0.0168    0.0177    0.0001
C        15.3413   16.3949   12.7682    0.0164    0.0151    0.0002
H        12.0925   15.2624   12.7653   -0.0110   -0.0809   -0.0012
H        17.1282   15.1517   12.7524    0.0110   -0.0750   -0.0007
H        15.8945   17.3351   12.7765    0.0367    0.0052   -0.0007
H        13.4215   17.3900   12.7831   -0.0380    0.0084    0.0009
C        19.9141   11.1351   12.7666   -0.0439    0.0421   -0.0003
C        19.8494    8.2795   12.7644   -0.0457   -0.0387   -0.0009
C        21.0925   10.3847   12.7838    0.0678    0.0650    0.0002
C        21.0605    8.9757   12.7834    0.0647   -0.0688    0.0018
H        19.9307   12.2252   12.7677   -0.3149    0.0522   -0.0069
H        19.8161    7.1897   12.7642   -0.3151   -0.0363   -0.0033
H        22.0002    8.4217   12.7979    0.0250   -0.1505   -0.0044
H        22.0566   10.8949   12.7993    0.0317    0.1475    0.0057
C         9.0706    8.5177   12.7651   -0.0373    0.0359    0.0002
C         9.1350   11.3733   12.7663   -0.0389   -0.0329    0.0006
C         7.8920    9.2680   12.7781    0.0577    0.0552   -0.0001
C         7.9240   10.6769   12.7780    0.0551   -0.0585   -0.0011
H         9.0541    7.4277   12.7650   -0.2683    0.0445    0.0043
H         9.1683   12.4630   12.7667   -0.2687   -0.0308    0.0015
H         6.9843   11.2312   12.7887    0.0216   -0.1276    0.0031
H         6.9279    8.7580   12.7877    0.0274    0.1249   -0.0035
C        15.8019    4.4056   12.7477   -0.0018   -0.0039    0.0000
C        12.9464    4.4688   12.7613    0.0049   -0.0036    0.0001
C        15.0523    3.2268   12.7611   -0.0060    0.0065    0.0000
C        13.6434    3.2581   12.7682    0.0050    0.0045   -0.0002
H        16.8920    4.3900   12.7428   -0.0025   -0.0292    0.0003
H        11.8565    4.5005   12.7666    0.0049   -0.0234   -0.0002
H        13.0902    2.3178   12.7803    0.0116    0.0013    0.0005
H        15.5632    2.2628   12.7676   -0.0134    0.0033   -0.0002
    57
stable frequency at   1007.933 1/cm IR int. is 2.034 a.m.u.; force const. is 1.217 mDyne/Ang.
C        10.3153   10.6255   12.7541    0.0005   -0.0042   -0.0000
C        11.7250   11.0126   12.7436   -0.0012   -0.0023   -0.0000
C        13.4288   12.6432   12.7402   -0.0006    0.0029    0.0000
C        13.8774   14.0347   12.7489    0.0117   -0.0045   -0.0000
C        10.2838    9.2117   12.7538    0.0021    0.0026   -0.0000
C        11.6752    8.7628   12.7434   -0.0009   -0.0027    0.0000
C        13.3062    7.0594   12.7390    0.0018    0.0023   -0.0000
C        13.6935    5.6496   12.7468   -0.0098   -0.0042    0.0001
N        12.1457   12.2786   12.7444   -0.0008    0.0003    0.0000
N        12.0400    7.4796   12.7439    0.0004    0.0000   -0.0000
C        15.2912   14.0035   12.7457   -0.0112   -0.0045   -0.0001
C        15.6785   12.5937   12.7355    0.0017    0.0030    0.0000
C        17.3094   10.8903   12.7347   -0.0001   -0.0026   -0.0000
C        18.7010   10.4413   12.7487    0.0009    0.0000    0.0000
C        17.2595    8.6406   12.7332   -0.0004   -0.0025    0.0000
C        18.6693    9.0275   12.7476   -0.0006   -0.0017   -0.0000
C        15.1073    5.6184   12.7412    0.0104   -0.0040   -0.0000
C        15.5559    7.0099   12.7320   -0.0006    0.0024   -0.0000
N        16.9446   12.1735   12.7365    0.0004    0.0002    0.0000
N        16.8391    7.3745   12.7331   -0.0010    0.0004   -0.0000
N        12.4947    9.8701   12.7367   -0.0034    0.0006    0.0000
N        14.5362   11.8239   12.7312    0.0003    0.0120    0.0001
N        16.4900    9.7831   12.7252   -0.0007    0.0004   -0.0000
N        14.4485    7.8292   12.7301    0.0004    0.0109   -0.0001
C        13.1827   15.2473   12.7623   -0.0410   -0.0428   -0.0001
Zn       14.4924    9.8265   12.7264    0.0001   -0.0007   -0.0000
C        16.0384   15.1842   12.7549    0.0378   -0.0446   -0.0006
C        13.9324   16.4262   12.7720   -0.0634    0.0661    0.0003
C        15.3413   16.3949   12.7682    0.0670    0.0632    0.0009
H        12.0925   15.2624   12.7653   -0.0505   -0.3074   -0.0044
H        17.1282   15.1517   12.7524    0.0356   -0.3079   -0.0024
H        15.8945   17.3351   12.7765    0.1464    0.0248   -0.0029
H        13.4215   17.3900   12.7831   -0.1439    0.0309    0.0041
C        19.9141   11.1351   12.7666    0.0032   -0.0011    0.0000
C        19.8494    8.2795   12.7644    0.0029    0.0043    0.0001
C        21.0925   10.3847   12.7838   -0.0054   -0.0050   -0.0000
C        21.0605    8.9757   12.7834   -0.0034    0.0039   -0.0001
H        19.9307   12.2252   12.7677    0.0240   -0.0017    0.0004
H        19.8161    7.1897   12.7642    0.0183    0.0043    0.0001
H        22.0002    8.4217   12.7979   -0.0009    0.0090    0.0005
H        22.0566   10.8949   12.7993   -0.0028   -0.0110   -0.0003
C         9.0706    8.5177   12.7651    0.0130   -0.0106   -0.0001
C         9.1350   11.3733   12.7663    0.0130    0.0129   -0.0002
C         7.8920    9.2680   12.7781   -0.0206   -0.0196    0.0001
C         7.9240   10.6769   12.7780   -0.0179    0.0194    0.0004
H         9.0541    7.4277   12.7650    0.0944   -0.0134   -0.0015
H         9.1683   12.4630   12.7667    0.0883    0.0124   -0.0005
H         6.9843   11.2312   12.7887   -0.0062    0.0434   -0.0011
H         6.9279    8.7580   12.7877   -0.0098   -0.0443    0.0010
C        15.8019    4.4056   12.7477   -0.0367   -0.0380    0.0003
C        12.9464    4.4688   12.7613    0.0335   -0.0396    0.0004
C        15.0523    3.2268   12.7611   -0.0562    0.0587    0.0003
C        13.6434    3.2581   12.7682    0.0596    0.0563   -0.0014
H        16.8920    4.3900   12.7428   -0.0452   -0.2732    0.0040
H        11.8565    4.5005   12.7666    0.0317   -0.2734    0.0007
H        13.0902    2.3178   12.7803    0.1300    0.0223    0.0027
H        15.5632    2.2628   12.7676   -0.1272    0.0278   -0.0026
    57
stable frequency at   1008.154 1/cm IR int. is 2.035 a.m.u.; force const. is 1.219 mDyne/Ang.
C        10.3153   10.6255   12.7541    0.0035   -0.0083   -0.0001
C        11.7250   11.0126   12.7436   -0.0029    0.0006    0.0000
C        13.4288   12.6432   12.7402    0.0003    0.0022    0.0000
C        13.8774   14.0347   12.7489    0.0063   -0.0027   -0.0000
C        10.2838    9.2117   12.7538    0.0036    0.0087    0.0000
C        11.6752    8.7628   12.7434   -0.0028    0.0002    0.0000
C        13.3062    7.0594   12.7390   -0.0001   -0.0032    0.0000
C        13.6935    5.6496   12.7468    0.0093    0.0037   -0.0001
N        12.1457   12.2786   12.7444    0.0002   -0.0003   -0.0000
N        12.0400    7.4796   12.7439    0.0002    0.0000   -0.0000
C        15.2912   14.0035   12.7457   -0.0060   -0.0026   -0.0000
C        15.6785   12.5937   12.7355    0.0003    0.0023    0.0000
C        17.3094   10.8903   12.7347    0.0023    0.0004    0.0000
C        18.7010   10.4413   12.7487   -0.0029   -0.0064   -0.0000
C        17.2595    8.6406   12.7332    0.0025    0.0004    0.0000
C        18.6693    9.0275   12.7476   -0.0025    0.0065   -0.0001
C        15.1073    5.6184   12.7412   -0.0093    0.0041    0.0000
C        15.5559    7.0099   12.7320    0.0005   -0.0030    0.0000
N        16.9446   12.1735   12.7365   -0.0003   -0.0002   -0.0000
N        16.8391    7.3745   12.7331    0.0001    0.0003   -0.0000
N        12.4947    9.8701   12.7367   -0.0088    0.0001    0.0001
N        14.5362   11.8239   12.7312    0.0001    0.0064    0.0000
N        16.4900    9.7831   12.7252    0.0066   -0.0002    0.0000
N        14.4485    7.8292   12.7301   -0.0003   -0.0097    0.0000
C        13.1827   15.2473   12.7623   -0.0226   -0.0235   -0.0001
Zn       14.4924    9.8265   12.7264    0.0001    0.0001   -0.0000
C        16.0384   15.1842   12.7549    0.0208   -0.0244   -0.0003
C        13.9324   16.4262   12.7720   -0.0353    0.0364    0.0002
C        15.3413   16.3949   12.7682    0.0372    0.0348    0.0004
H        12.0925   15.2624   12.7653   -0.0278   -0.1689   -0.0023
H        17.1282   15.1517   12.7524    0.0196   -0.1685   -0.0014
H        15.8945   17.3351   12.7765    0.0829    0.0124   -0.0013
H        13.4215   17.3900   12.7831   -0.0807    0.0164    0.0018
C        19.9141   11.1351   12.7666   -0.0245    0.0231   -0.0002
C        19.8494    8.2795   12.7644   -0.0253   -0.0220   -0.0005
C        21.0925   10.3847   12.7838    0.0380    0.0367    0.0002
C        21.0605    8.9757   12.7834    0.0358   -0.0385    0.0009
H        19.9307   12.2252   12.7677   -0.1760    0.0286   -0.0037
H        19.8161    7.1897   12.7642   -0.1741   -0.0207   -0.0020
H        22.0002    8.4217   12.7979    0.0125   -0.0859   -0.0020
H        22.0566   10.8949   12.7993    0.0172    0.0840    0.0026
C         9.0706    8.5177   12.7651    0.0321   -0.0309   -0.0002
C         9.1350   11.3733   12.7663    0.0333    0.0283   -0.0004
C         7.8920    9.2680   12.7781   -0.0497   -0.0479    0.0001
C         7.9240   10.6769   12.7780   -0.0474    0.0507    0.0009
H         9.0541    7.4277   12.7650    0.2307   -0.0382   -0.0035
H         9.1683   12.4630   12.7667    0.2303    0.0266   -0.0015
H         6.9843   11.2312   12.7887   -0.0171    0.1124   -0.0022
H         6.9279    8.7580   12.7877   -0.0228   -0.1093    0.0027
C        15.8019    4.4056   12.7477    0.0337    0.0355   -0.0003
C        12.9464    4.4688   12.7613   -0.0317    0.0367   -0.0004
C        15.0523    3.2268   12.7611    0.0530   -0.0550   -0.0002
C        13.6434    3.2581   12.7682   -0.0557   -0.0521    0.0012
H        16.8920    4.3900   12.7428    0.0416    0.2549   -0.0036
H        11.8565    4.5005   12.7666   -0.0301    0.2529   -0.0009
H        13.0902    2.3178   12.7803   -0.1234   -0.0190   -0.0020
H        15.5632    2.2628   12.7676    0.1206   -0.0253    0.0021
    57
stable frequency at   1024.845 1/cm IR int. is 8.222 a.m.u.; force const. is 5.088 mDyne/Ang.
C        10.3153   10.6255   12.7541    0.0303    0.0290   -0.0002
C        11.7250   11.0126   12.7436    0.0248    0.0195   -0.0001
C        13.4288   12.6432   12.7402   -0.0206   -0.0238   -0.0000
C        13.8774   14.0347   12.7489   -0.0302   -0.0291   -0.0002
C        10.2838    9.2117   12.7538   -0.0292    0.0303    0.0003
C        11.6752    8.7628   12.7434   -0.0239    0.0206    0.0001
C        13.3062    7.0594   12.7390    0.0196   -0.0248    0.0000
C        13.6935    5.6496   12.7468    0.0290   -0.0303    0.0001
N        12.1457   12.2786   12.7444    0.0331   -0.0346   -0.0002
N        12.0400    7.4796   12.7439   -0.0346   -0.0332    0.0002
C        15.2912   14.0035   12.7457   -0.0290    0.0303    0.0003
C        15.6785   12.5937   12.7355   -0.0196    0.0247    0.0000
C        17.3094   10.8903   12.7347    0.0238   -0.0206    0.0001
C        18.7010   10.4413   12.7487    0.0292   -0.0303    0.0003
C        17.2595    8.6406   12.7332   -0.0247   -0.0196   -0.0002
C        18.6693    9.0275   12.7476   -0.0303   -0.0290   -0.0003
C        15.1073    5.6184   12.7412    0.0303    0.0292   -0.0003
C        15.5559    7.0099   12.7320    0.0206    0.0238    0.0000
N        16.9446   12.1735   12.7365    0.0345    0.0332    0.0001
N        16.8391    7.3745   12.7331   -0.0332    0.0346   -0.0000
N        12.4947    9.8701   12.7367    0.0015    0.0586    0.0000
N        14.5362   11.8239   12.7312   -0.0585    0.0014    0.0001
N        16.4900    9.7831   12.7252   -0.0014   -0.0585   -0.0000
N        14.4485    7.8292   12.7301    0.0585   -0.0014   -0.0002
C        13.1827   15.2473   12.7623    0.0510   -0.0057   -0.0001
Zn       14.4924    9.8265   12.7264   -0.0000    0.0000    0.0000
C        16.0384   15.1842   12.7549    0.0519    0.0027   -0.0000
C        13.9324   16.4262   12.7720   -0.0212    0.0274    0.0003
C        15.3413   16.3949   12.7682   -0.0214   -0.0256   -0.0003
H        12.0925   15.2624   12.7653    0.0519    0.0018   -0.0005
H        17.1282   15.1517   12.7524    0.0524   -0.0068   -0.0005
H        15.8945   17.3351   12.7765   -0.0527   -0.0064    0.0004
H        13.4215   17.3900   12.7831   -0.0557    0.0083    0.0008
C        19.9141   11.1351   12.7666    0.0057    0.0511    0.0001
C        19.8494    8.2795   12.7644   -0.0026    0.0520   -0.0001
C        21.0925   10.3847   12.7838   -0.0275   -0.0213   -0.0004
C        21.0605    8.9757   12.7834    0.0255   -0.0215    0.0005
H        19.9307   12.2252   12.7677   -0.0017    0.0520    0.0002
H        19.8161    7.1897   12.7642    0.0069    0.0526    0.0005
H        22.0002    8.4217   12.7979    0.0063   -0.0529   -0.0003
H        22.0566   10.8949   12.7993   -0.0083   -0.0560   -0.0007
C         9.0706    8.5177   12.7651   -0.0057   -0.0510    0.0000
C         9.1350   11.3733   12.7663    0.0026   -0.0520   -0.0001
C         7.8920    9.2680   12.7781    0.0275    0.0213   -0.0002
C         7.9240   10.6769   12.7780   -0.0255    0.0214    0.0004
H         9.0541    7.4277   12.7650    0.0015   -0.0519    0.0000
H         9.1683   12.4630   12.7667   -0.0071   -0.0525    0.0002
H         6.9843   11.2312   12.7887   -0.0063    0.0527   -0.0004
H         6.9279    8.7580   12.7877    0.0085    0.0559   -0.0005
C        15.8019    4.4056   12.7477   -0.0510    0.0057    0.0001
C        12.9464    4.4688   12.7613   -0.0520   -0.0026    0.0003
C        15.0523    3.2268   12.7611    0.0214   -0.0275    0.0002
C        13.6434    3.2581   12.7682    0.0214    0.0255   -0.0004
H        16.8920    4.3900   12.7428   -0.0519   -0.0012    0.0004
H        11.8565    4.5005   12.7666   -0.0525    0.0070    0.0004
H        13.0902    2.3178   12.7803    0.0525    0.0064    0.0002
H        15.5632    2.2628   12.7676    0.0559   -0.0084   -0.0004
    57
stable frequency at   1056.019 1/cm IR int. is 5.250 a.m.u.; force const. is 3.449 mDyne/Ang.
C        10.3153   10.6255   12.7541   -0.0289   -0.0387    0.0002
C        11.7250   11.0126   12.7436   -0.0092   -0.0049   -0.0000
C        13.4288   12.6432   12.7402    0.0207    0.0090   -0.0000
C        13.8774   14.0347   12.7489    0.0132    0.0187    0.0002
C        10.2838    9.2117   12.7538    0.0452   -0.0567   -0.0004
C        11.6752    8.7628   12.7434    0.0167   -0.0199    0.0000
C        13.3062    7.0594   12.7390   -0.0275    0.0181    0.0001
C        13.6935    5.6496   12.7468   -0.0401    0.0422   -0.0001
N        12.1457   12.2786   12.7444    0.0147    0.0373    0.0000
N        12.0400    7.4796   12.7439    0.0088    0.0359   -0.0001
C        15.2912   14.0035   12.7457   -0.0401    0.0422    0.0004
C        15.6785   12.5937   12.7355   -0.0275    0.0181   -0.0000
C        17.3094   10.8903   12.7347    0.0166   -0.0200   -0.0000
C        18.7010   10.4413   12.7487    0.0453   -0.0568    0.0004
C        17.2595    8.6406   12.7332   -0.0091   -0.0049    0.0000
C        18.6693    9.0275   12.7476   -0.0289   -0.0387   -0.0003
C        15.1073    5.6184   12.7412    0.0132    0.0187   -0.0002
C        15.5559    7.0099   12.7320    0.0207    0.0090   -0.0001
N        16.9446   12.1735   12.7365    0.0088    0.0359    0.0001
N        16.8391    7.3745   12.7331    0.0148    0.0373   -0.0000
N        12.4947    9.8701   12.7367   -0.0123   -0.0476    0.0001
N        14.5362   11.8239   12.7312   -0.0152   -0.0365   -0.0002
N        16.4900    9.7831   12.7252   -0.0123   -0.0475   -0.0001
N        14.4485    7.8292   12.7301   -0.0152   -0.0365    0.0002
C        13.1827   15.2473   12.7623    0.0345   -0.0000   -0.0001
Zn       14.4924    9.8265   12.7264    0.0008    0.0025   -0.0000
C        16.0384   15.1842   12.7549    0.0073    0.0007    0.0000
C        13.9324   16.4262   12.7720   -0.0065   -0.0048   -0.0000
C        15.3413   16.3949   12.7682   -0.0119   -0.0193   -0.0002
H        12.0925   15.2624   12.7653    0.0363   -0.0426   -0.0007
H        17.1282   15.1517   12.7524    0.0038   -0.0809   -0.0009
H        15.8945   17.3351   12.7765   -0.0459   -0.0005    0.0003
H        13.4215   17.3900   12.7831   -0.0226   -0.0153   -0.0000
C        19.9141   11.1351   12.7666    0.0020    0.0655    0.0001
C        19.8494    8.2795   12.7644    0.0022    0.0744   -0.0000
C        21.0925   10.3847   12.7838   -0.0289   -0.0302   -0.0004
C        21.0605    8.9757   12.7834    0.0196   -0.0290    0.0004
H        19.9307   12.2252   12.7677   -0.0820    0.0685   -0.0011
H        19.8161    7.1897   12.7642    0.0483    0.0758    0.0010
H        22.0002    8.4217   12.7979   -0.0294   -0.1092   -0.0007
H        22.0566   10.8949   12.7993    0.0201   -0.1211   -0.0002
C         9.0706    8.5177   12.7651    0.0020    0.0654   -0.0000
C         9.1350   11.3733   12.7663    0.0022    0.0743    0.0001
C         7.8920    9.2680   12.7781   -0.0289   -0.0302    0.0003
C         7.9240   10.6769   12.7780    0.0196   -0.0290   -0.0003
H         9.0541    7.4277   12.7650   -0.0816    0.0684    0.0010
H         9.1683   12.4630   12.7667    0.0485    0.0758   -0.0005
H         6.9843   11.2312   12.7887   -0.0293   -0.1090    0.0006
H         6.9279    8.7580   12.7877    0.0200   -0.1210    0.0001
C        15.8019    4.4056   12.7477    0.0344   -0.0001   -0.0001
C        12.9464    4.4688   12.7613    0.0073    0.0007   -0.0000
C        15.0523    3.2268   12.7611   -0.0065   -0.0048    0.0000
C        13.6434    3.2581   12.7682   -0.0118   -0.0192    0.0003
H        16.8920    4.3900   12.7428    0.0362   -0.0429   -0.0000
H        11.8565    4.5005   12.7666    0.0039   -0.0807    0.0007
H        13.0902    2.3178   12.7803   -0.0455   -0.0006    0.0000
H        15.5632    2.2628   12.7676   -0.0226   -0.0152    0.0004
    57
stable frequency at   1056.066 1/cm IR int. is 5.251 a.m.u.; force const. is 3.450 mDyne/Ang.
C        10.3153   10.6255   12.7541   -0.0422   -0.0401    0.0004
C        11.7250   11.0126   12.7436   -0.0181   -0.0275    0.0000
C        13.4288   12.6432   12.7402    0.0199    0.0166   -0.0001
C        13.8774   14.0347   12.7489    0.0567    0.0452    0.0002
C        10.2838    9.2117   12.7538   -0.0187    0.0132    0.0002
C        11.6752    8.7628   12.7434   -0.0090    0.0207    0.0000
C        13.3062    7.0594   12.7390    0.0049   -0.0092   -0.0000
C        13.6935    5.6496   12.7468    0.0388   -0.0290   -0.0000
N        12.1457   12.2786   12.7444   -0.0358    0.0089    0.0001
N        12.0400    7.4796   12.7439   -0.0373    0.0148    0.0001
C        15.2912   14.0035   12.7457    0.0388   -0.0290   -0.0003
C        15.6785   12.5937   12.7355    0.0049   -0.0092    0.0001
C        17.3094   10.8903   12.7347   -0.0090    0.0207   -0.0000
C        18.7010   10.4413   12.7487   -0.0187    0.0132   -0.0003
C        17.2595    8.6406   12.7332   -0.0181   -0.0275   -0.0001
C        18.6693    9.0275   12.7476   -0.0422   -0.0401   -0.0005
C        15.1073    5.6184   12.7412    0.0566    0.0452   -0.0005
C        15.5559    7.0099   12.7320    0.0199    0.0167    0.0001
N        16.9446   12.1735   12.7365   -0.0374    0.0147    0.0000
N        16.8391    7.3745   12.7331   -0.0358    0.0088    0.0000
N        12.4947    9.8701   12.7367    0.0365   -0.0153   -0.0002
N        14.5362   11.8239   12.7312    0.0476   -0.0123   -0.0002
N        16.4900    9.7831   12.7252    0.0365   -0.0152    0.0003
N        14.4485    7.8292   12.7301    0.0476   -0.0123   -0.0001
C        13.1827   15.2473   12.7623   -0.0655    0.0020    0.0002
Zn       14.4924    9.8265   12.7264   -0.0025    0.0008    0.0000
C        16.0384   15.1842   12.7549   -0.0743    0.0022    0.0001
C        13.9324   16.4262   12.7720    0.0302   -0.0288   -0.0003
C        15.3413   16.3949   12.7682    0.0290    0.0196    0.0002
H        12.0925   15.2624   12.7653   -0.0685   -0.0820   -0.0004
H        17.1282   15.1517   12.7524   -0.0758    0.0485    0.0009
H        15.8945   17.3351   12.7765    0.1093   -0.0293   -0.0009
H        13.4215   17.3900   12.7831    0.1210    0.0202   -0.0006
C        19.9141   11.1351   12.7666    0.0000    0.0344    0.0000
C        19.8494    8.2795   12.7644   -0.0007    0.0073   -0.0001
C        21.0925   10.3847   12.7838    0.0048   -0.0065    0.0001
C        21.0605    8.9757   12.7834    0.0192   -0.0119    0.0003
H        19.9307   12.2252   12.7677    0.0427    0.0363    0.0007
H        19.8161    7.1897   12.7642    0.0811    0.0038    0.0015
H        22.0002    8.4217   12.7979    0.0004   -0.0459   -0.0002
H        22.0566   10.8949   12.7993    0.0153   -0.0227    0.0002
C         9.0706    8.5177   12.7651    0.0000    0.0345    0.0000
C         9.1350   11.3733   12.7663   -0.0007    0.0073    0.0000
C         7.8920    9.2680   12.7781    0.0048   -0.0065   -0.0001
C         7.9240   10.6769   12.7780    0.0193   -0.0119   -0.0003
H         9.0541    7.4277   12.7650    0.0426    0.0363   -0.0004
H         9.1683   12.4630   12.7667    0.0812    0.0038   -0.0009
H         6.9843   11.2312   12.7887    0.0003   -0.0460    0.0002
H         6.9279    8.7580   12.7877    0.0154   -0.0227   -0.0001
C        15.8019    4.4056   12.7477   -0.0654    0.0020    0.0002
C        12.9464    4.4688   12.7613   -0.0742    0.0022    0.0003
C        15.0523    3.2268   12.7611    0.0302   -0.0289    0.0002
C        13.6434    3.2581   12.7682    0.0289    0.0196   -0.0004
H        16.8920    4.3900   12.7428   -0.0684   -0.0813    0.0013
H        11.8565    4.5005   12.7666   -0.0757    0.0481    0.0005
H        13.0902    2.3178   12.7803    0.1088   -0.0291   -0.0000
H        15.5632    2.2628   12.7676    0.1206    0.0199   -0.0009
    57
stable frequency at   1083.781 1/cm IR int. is 1.953 a.m.u.; force const. is 1.351 mDyne/Ang.
C        10.3153   10.6255   12.7541    0.0131    0.0318   -0.0001
C        11.7250   11.0126   12.7436   -0.0156   -0.0008    0.0001
C        13.4288   12.6432   12.7402   -0.0013   -0.0154   -0.0001
C        13.8774   14.0347   12.7489    0.0329    0.0125   -0.0000
C        10.2838    9.2117   12.7538   -0.0125    0.0329    0.0001
C        11.6752    8.7628   12.7434    0.0156   -0.0013   -0.0001
C        13.3062    7.0594   12.7390    0.0009   -0.0153    0.0001
C        13.6935    5.6496   12.7468   -0.0318    0.0132    0.0001
N        12.1457   12.2786   12.7444   -0.0147   -0.0139    0.0000
N        12.0400    7.4796   12.7439    0.0140   -0.0147   -0.0000
C        15.2912   14.0035   12.7457    0.0317   -0.0131   -0.0001
C        15.6785   12.5937   12.7355   -0.0009    0.0156    0.0001
C        17.3094   10.8903   12.7347   -0.0154    0.0013   -0.0002
C        18.7010   10.4413   12.7487    0.0127   -0.0331    0.0001
C        17.2595    8.6406   12.7332    0.0156    0.0010    0.0002
C        18.6693    9.0275   12.7476   -0.0130   -0.0316   -0.0001
C        15.1073    5.6184   12.7412   -0.0329   -0.0127    0.0002
C        15.5559    7.0099   12.7320    0.0013    0.0153   -0.0001
N        16.9446   12.1735   12.7365   -0.0139    0.0148    0.0000
N        16.8391    7.3745   12.7331    0.0148    0.0140    0.0000
N        12.4947    9.8701   12.7367    0.0004   -0.0001   -0.0000
N        14.5362   11.8239   12.7312    0.0001   -0.0005   -0.0000
N        16.4900    9.7831   12.7252   -0.0006   -0.0002   -0.0000
N        14.4485    7.8292   12.7301   -0.0004    0.0005   -0.0000
C        13.1827   15.2473   12.7623   -0.0542   -0.0116    0.0000
Zn       14.4924    9.8265   12.7264    0.0000    0.0000   -0.0000
C        16.0384   15.1842   12.7549   -0.0545    0.0147    0.0002
C        13.9324   16.4262   12.7720    0.0263    0.0003   -0.0001
C        15.3413   16.3949   12.7682    0.0256   -0.0020   -0.0000
H        12.0925   15.2624   12.7653   -0.0598   -0.1467   -0.0012
H        17.1282   15.1517   12.7524   -0.0542    0.1479    0.0018
H        15.8945   17.3351   12.7765    0.1621   -0.0839   -0.0014
H        13.4215   17.3900   12.7831    0.1686    0.0772    0.0003
C        19.9141   11.1351   12.7666   -0.0116    0.0541   -0.0001
C        19.8494    8.2795   12.7644    0.0147    0.0545    0.0002
C        21.0925   10.3847   12.7838    0.0002   -0.0263   -0.0001
C        21.0605    8.9757   12.7834   -0.0021   -0.0255    0.0000
H        19.9307   12.2252   12.7677   -0.1465    0.0598   -0.0022
H        19.8161    7.1897   12.7642    0.1472    0.0542    0.0024
H        22.0002    8.4217   12.7979   -0.0837   -0.1612   -0.0014
H        22.0566   10.8949   12.7993    0.0769   -0.1687    0.0012
C         9.0706    8.5177   12.7651    0.0117   -0.0542   -0.0001
C         9.1350   11.3733   12.7663   -0.0148   -0.0546    0.0001
C         7.8920    9.2680   12.7781   -0.0003    0.0264   -0.0000
C         7.9240   10.6769   12.7780    0.0021    0.0255    0.0000
H         9.0541    7.4277   12.7650    0.1467   -0.0599   -0.0018
H         9.1683   12.4630   12.7667   -0.1483   -0.0542    0.0015
H         6.9843   11.2312   12.7887    0.0839    0.1617   -0.0009
H         6.9279    8.7580   12.7877   -0.0774    0.1695    0.0009
C        15.8019    4.4056   12.7477    0.0540    0.0115   -0.0003
C        12.9464    4.4688   12.7613    0.0544   -0.0146   -0.0001
C        15.0523    3.2268   12.7611   -0.0263   -0.0001    0.0001
C        13.6434    3.2581   12.7682   -0.0254    0.0019    0.0001
H        16.8920    4.3900   12.7428    0.0596    0.1454   -0.0019
H        11.8565    4.5005   12.7666    0.0542   -0.1466    0.0006
H        13.0902    2.3178   12.7803   -0.1607    0.0831    0.0001
H        15.5632    2.2628   12.7676   -0.1679   -0.0766    0.0017
    57
stable frequency at   1097.826 1/cm IR int. is 2.255 a.m.u.; force const. is 1.601 mDyne/Ang.
C        10.3153   10.6255   12.7541    0.0161   -0.0106   -0.0002
C        11.7250   11.0126   12.7436    0.0428   -0.0266   -0.0003
C        13.4288   12.6432   12.7402   -0.0250    0.0004    0.0001
C        13.8774   14.0347   12.7489   -0.0145   -0.0065   -0.0000
C        10.2838    9.2117   12.7538   -0.0237   -0.0021    0.0002
C        11.6752    8.7628   12.7434   -0.0514   -0.0133    0.0004
C        13.3062    7.0594   12.7390    0.0128   -0.0277    0.0001
C        13.6935    5.6496   12.7468    0.0103   -0.0187    0.0001
N        12.1457   12.2786   12.7444   -0.0029   -0.0141    0.0000
N        12.0400    7.4796   12.7439   -0.0063   -0.0150    0.0000
C        15.2912   14.0035   12.7457    0.0111   -0.0183   -0.0002
C        15.6785   12.5937   12.7355    0.0126   -0.0261   -0.0002
C        17.3094   10.8903   12.7347   -0.0495   -0.0129   -0.0005
C        18.7010   10.4413   12.7487   -0.0228   -0.0018   -0.0003
C        17.2595    8.6406   12.7332    0.0410   -0.0261    0.0004
C        18.6693    9.0275   12.7476    0.0154   -0.0102    0.0002
C        15.1073    5.6184   12.7412   -0.0153   -0.0062    0.0001
C        15.5559    7.0099   12.7320   -0.0249    0.0019    0.0001
N        16.9446   12.1735   12.7365   -0.0061   -0.0144    0.0001
N        16.8391    7.3745   12.7331   -0.0030   -0.0135   -0.0001
N        12.4947    9.8701   12.7367    0.0079    0.0845   -0.0000
N        14.5362   11.8239   12.7312    0.0240    0.0198    0.0001
N        16.4900    9.7831   12.7252    0.0077    0.0815    0.0001
N        14.4485    7.8292   12.7301    0.0258    0.0198   -0.0002
C        13.1827   15.2473   12.7623    0.0020    0.0029    0.0000
Zn       14.4924    9.8265   12.7264   -0.0004   -0.0012    0.0000
C        16.0384   15.1842   12.7549    0.0164   -0.0110   -0.0002
C        13.9324   16.4262   12.7720   -0.0014    0.0003   -0.0000
C        15.3413   16.3949   12.7682   -0.0088    0.0150    0.0002
H        12.0925   15.2624   12.7653    0.0032    0.0740    0.0008
H        17.1282   15.1517   12.7524    0.0182   -0.0226   -0.0003
H        15.8945   17.3351   12.7765   -0.0667    0.0503    0.0005
H        13.4215   17.3900   12.7831   -0.0377   -0.0187   -0.0000
C        19.9141   11.1351   12.7666   -0.0249    0.0374   -0.0004
C        19.8494    8.2795   12.7644    0.0246    0.0325    0.0004
C        21.0925   10.3847   12.7838    0.0275   -0.0214    0.0003
C        21.0605    8.9757   12.7834   -0.0241   -0.0179   -0.0004
H        19.9307   12.2252   12.7677   -0.1683    0.0442   -0.0026
H        19.8161    7.1897   12.7642    0.1874    0.0316    0.0029
H        22.0002    8.4217   12.7979   -0.1248   -0.1863   -0.0020
H        22.0566   10.8949   12.7993    0.1232   -0.1990    0.0023
C         9.0706    8.5177   12.7651   -0.0261    0.0392    0.0003
C         9.1350   11.3733   12.7663    0.0258    0.0342   -0.0003
C         7.8920    9.2680   12.7781    0.0286   -0.0224   -0.0003
C         7.9240   10.6769   12.7780   -0.0253   -0.0188    0.0002
H         9.0541    7.4277   12.7650   -0.1772    0.0463    0.0020
H         9.1683   12.4630   12.7667    0.1967    0.0332   -0.0019
H         6.9843   11.2312   12.7887   -0.1307   -0.1952    0.0013
H         6.9279    8.7580   12.7877    0.1292   -0.2090   -0.0018
C        15.8019    4.4056   12.7477    0.0042    0.0041   -0.0000
C        12.9464    4.4688   12.7613    0.0186   -0.0123    0.0000
C        15.0523    3.2268   12.7611   -0.0026   -0.0006    0.0000
C        13.6434    3.2581   12.7682   -0.0100    0.0160   -0.0001
H        16.8920    4.3900   12.7428    0.0058    0.0843   -0.0008
H        11.8565    4.5005   12.7666    0.0205   -0.0327   -0.0000
H        13.0902    2.3178   12.7803   -0.0767    0.0566    0.0001
H        15.5632    2.2628   12.7676   -0.0482   -0.0246    0.0004
    57
stable frequency at   1097.876 1/cm IR int. is 2.252 a.m.u.; force const. is 1.599 mDyne/Ang.
C        10.3153   10.6255   12.7541    0.0188    0.0105   -0.0002
C        11.7250   11.0126   12.7436    0.0276    0.0126   -0.0002
C        13.4288   12.6432   12.7402    0.0130   -0.0511   -0.0004
C        13.8774   14.0347   12.7489    0.0021   -0.0235   -0.0002
C        10.2838    9.2117   12.7538    0.0061   -0.0152   -0.0000
C        11.6752    8.7628   12.7434   -0.0019   -0.0249    0.0000
C        13.3062    7.0594   12.7390    0.0262    0.0412   -0.0003
C        13.6935    5.6496   12.7468    0.0103    0.0154   -0.0002
N        12.1457   12.2786   12.7444    0.0148   -0.0064   -0.0000
N        12.0400    7.4796   12.7439    0.0136   -0.0031   -0.0000
C        15.2912   14.0035   12.7457    0.0106    0.0159    0.0001
C        15.6785   12.5937   12.7355    0.0262    0.0425    0.0002
C        17.3094   10.8903   12.7347   -0.0004   -0.0248   -0.0001
C        18.7010   10.4413   12.7487    0.0066   -0.0147    0.0001
C        17.2595    8.6406   12.7332    0.0261    0.0128    0.0002
C        18.6693    9.0275   12.7476    0.0183    0.0111    0.0002
C        15.1073    5.6184   12.7412    0.0018   -0.0230    0.0002
C        15.5559    7.0099   12.7320    0.0131   -0.0498    0.0002
N        16.9446   12.1735   12.7365    0.0140   -0.0028   -0.0000
N        16.8391    7.3745   12.7331    0.0145   -0.0060   -0.0001
N        12.4947    9.8701   12.7367   -0.0198    0.0260    0.0002
N        14.5362   11.8239   12.7312   -0.0838    0.0079    0.0002
N        16.4900    9.7831   12.7252   -0.0198    0.0238   -0.0002
N        14.4485    7.8292   12.7301   -0.0820    0.0078    0.0002
C        13.1827   15.2473   12.7623   -0.0391   -0.0260   -0.0002
Zn       14.4924    9.8265   12.7264    0.0012   -0.0004   -0.0000
C        16.0384   15.1842   12.7549   -0.0340    0.0257    0.0003
C        13.9324   16.4262   12.7720    0.0222    0.0285    0.0002
C        15.3413   16.3949   12.7682    0.0189   -0.0251   -0.0003
H        12.0925   15.2624   12.7653   -0.0460   -0.1767   -0.0017
H        17.1282   15.1517   12.7524   -0.0332    0.1964    0.0021
H        15.8945   17.3351   12.7765    0.1956   -0.1305   -0.0019
H        13.4215   17.3900   12.7831    0.2071    0.1283    0.0011
C        19.9141   11.1351   12.7666   -0.0030    0.0021   -0.0000
C        19.8494    8.2795   12.7644    0.0111    0.0166    0.0002
C        21.0925   10.3847   12.7838   -0.0003   -0.0015    0.0000
C        21.0605    8.9757   12.7834   -0.0151   -0.0089   -0.0003
H        19.9307   12.2252   12.7677   -0.0750    0.0035   -0.0011
H        19.8161    7.1897   12.7642    0.0229    0.0184    0.0003
H        22.0002    8.4217   12.7979   -0.0505   -0.0669   -0.0006
H        22.0566   10.8949   12.7993    0.0191   -0.0386    0.0002
C         9.0706    8.5177   12.7651   -0.0040    0.0039    0.0000
C         9.1350   11.3733   12.7663    0.0122    0.0184   -0.0001
C         7.8920    9.2680   12.7781    0.0006   -0.0025   -0.0000
C         7.9240   10.6769   12.7780   -0.0160   -0.0098    0.0002
H         9.0541    7.4277   12.7650   -0.0834    0.0055    0.0009
H         9.1683   12.4630   12.7667    0.0316    0.0202   -0.0002
H         6.9843   11.2312   12.7887   -0.0561   -0.0755    0.0004
H         6.9279    8.7580   12.7877    0.0242   -0.0476   -0.0002
C        15.8019    4.4056   12.7477   -0.0377   -0.0250    0.0004
C        12.9464    4.4688   12.7613   -0.0327    0.0248   -0.0001
C        15.0523    3.2268   12.7611    0.0215    0.0276   -0.0003
C        13.6434    3.2581   12.7682    0.0181   -0.0243    0.0001
H        16.8920    4.3900   12.7428   -0.0444   -0.1692    0.0020
H        11.8565    4.5005   12.7666   -0.0320    0.1886   -0.0013
H        13.0902    2.3178   12.7803    0.1879   -0.1256   -0.0000
H        15.5632    2.2628   12.7676    0.2001    0.1241   -0.0023
    57
stable frequency at   1099.409 1/cm IR int. is 1.666 a.m.u.; force const. is 1.187 mDyne/Ang.
C        10.3153   10.6255   12.7541    0.0096   -0.0095   -0.0001
C        11.7250   11.0126   12.7436    0.0279   -0.0018   -0.0002
C        13.4288   12.6432   12.7402    0.0012   -0.0287   -0.0002
C        13.8774   14.0347   12.7489    0.0096   -0.0098   -0.0001
C        10.2838    9.2117   12.7538   -0.0101   -0.0088    0.0001
C        11.6752    8.7628   12.7434   -0.0284    0.0001    0.0002
C        13.3062    7.0594   12.7390   -0.0032   -0.0300    0.0002
C        13.6935    5.6496   12.7468   -0.0103   -0.0102    0.0001
N        12.1457   12.2786   12.7444    0.0072   -0.0073   -0.0000
N        12.0400    7.4796   12.7439   -0.0079   -0.0070    0.0000
C        15.2912   14.0035   12.7457    0.0090    0.0107    0.0001
C        15.6785   12.5937   12.7355    0.0011    0.0295    0.0002
C        17.3094   10.8903   12.7347    0.0313    0.0017    0.0003
C        18.7010   10.4413   12.7487    0.0112    0.0095    0.0002
C        17.2595    8.6406   12.7332   -0.0315    0.0026   -0.0003
C        18.6693    9.0275   12.7476   -0.0113    0.0096   -0.0002
C        15.1073    5.6184   12.7412   -0.0089    0.0113   -0.0001
C        15.5559    7.0099   12.7320   -0.0004    0.0310   -0.0001
N        16.9446   12.1735   12.7365    0.0077    0.0080   -0.0000
N        16.8391    7.3745   12.7331   -0.0076    0.0084    0.0000
N        12.4947    9.8701   12.7367    0.0010    0.0389    0.0000
N        14.5362   11.8239   12.7312   -0.0406   -0.0000    0.0001
N        16.4900    9.7831   12.7252   -0.0006   -0.0447   -0.0000
N        14.4485    7.8292   12.7301    0.0430   -0.0016   -0.0001
C        13.1827   15.2473   12.7623   -0.0326   -0.0203   -0.0001
Zn       14.4924    9.8265   12.7264   -0.0000    0.0000    0.0000
C        16.0384   15.1842   12.7549   -0.0327    0.0226    0.0003
C        13.9324   16.4262   12.7720    0.0190    0.0176    0.0001
C        15.3413   16.3949   12.7682    0.0183   -0.0193   -0.0002
H        12.0925   15.2624   12.7653   -0.0384   -0.1675   -0.0016
H        17.1282   15.1517   12.7524   -0.0321    0.1686    0.0018
H        15.8945   17.3351   12.7765    0.1671   -0.1083   -0.0015
H        13.4215   17.3900   12.7831    0.1689    0.0984    0.0007
C        19.9141   11.1351   12.7666    0.0216   -0.0345    0.0003
C        19.8494    8.2795   12.7644   -0.0238   -0.0342   -0.0004
C        21.0925   10.3847   12.7838   -0.0191    0.0201   -0.0002
C        21.0605    8.9757   12.7834    0.0204    0.0191    0.0003
H        19.9307   12.2252   12.7677    0.1753   -0.0408    0.0027
H        19.8161    7.1897   12.7642   -0.1784   -0.0334   -0.0028
H        22.0002    8.4217   12.7979    0.1145    0.1761    0.0018
H        22.0566   10.8949   12.7993   -0.1046    0.1791   -0.0018
C         9.0706    8.5177   12.7651   -0.0200    0.0322    0.0002
C         9.1350   11.3733   12.7663    0.0218    0.0315   -0.0002
C         7.8920    9.2680   12.7781    0.0174   -0.0188   -0.0002
C         7.9240   10.6769   12.7780   -0.0183   -0.0176    0.0002
H         9.0541    7.4277   12.7650   -0.1617    0.0379    0.0018
H         9.1683   12.4630   12.7667    0.1656    0.0308   -0.0017
H         6.9843   11.2312   12.7887   -0.1044   -0.1612    0.0010
H         6.9279    8.7580   12.7877    0.0966   -0.1660   -0.0013
C        15.8019    4.4056   12.7477    0.0344    0.0213   -0.0003
C        12.9464    4.4688   12.7613    0.0333   -0.0231    0.0001
C        15.0523    3.2268   12.7611   -0.0200   -0.0188    0.0002
C        13.6434    3.2581   12.7682   -0.0187    0.0195   -0.0001
H        16.8920    4.3900   12.7428    0.0404    0.1706   -0.0019
H        11.8565    4.5005   12.7666    0.0327   -0.1761    0.0012
H        13.0902    2.3178   12.7803   -0.1721    0.1113    0.0001
H        15.5632    2.2628   12.7676   -0.1763   -0.1031    0.0019
    57
stable frequency at   1117.148 1/cm IR int. is 2.657 a.m.u.; force const. is 1.954 mDyne/Ang.
C        10.3153   10.6255   12.7541   -0.0527   -0.0396    0.0004
C        11.7250   11.0126   12.7436   -0.0109   -0.0166    0.0000
C        13.4288   12.6432   12.7402    0.0176    0.0100   -0.0000
C        13.8774   14.0347   12.7489    0.0413    0.0502    0.0003
C        10.2838    9.2117   12.7538   -0.0507    0.0419    0.0004
C        11.6752    8.7628   12.7434   -0.0104    0.0163    0.0000
C        13.3062    7.0594   12.7390    0.0173   -0.0110   -0.0001
C        13.6935    5.6496   12.7468    0.0386   -0.0510    0.0002
N        12.1457   12.2786   12.7444   -0.0065    0.0070   -0.0000
N        12.0400    7.4796   12.7439   -0.0067   -0.0067    0.0000
C        15.2912   14.0035   12.7457   -0.0396    0.0525    0.0005
C        15.6785   12.5937   12.7355   -0.0156    0.0112    0.0000
C        17.3094   10.8903   12.7347    0.0103   -0.0178   -0.0000
C        18.7010   10.4413   12.7487    0.0490   -0.0406    0.0006
C        17.2595    8.6406   12.7332    0.0115    0.0161    0.0000
C        18.6693    9.0275   12.7476    0.0513    0.0387    0.0006
C        15.1073    5.6184   12.7412   -0.0406   -0.0492    0.0005
C        15.5559    7.0099   12.7320   -0.0167   -0.0108   -0.0000
N        16.9446   12.1735   12.7365    0.0071    0.0064   -0.0001
N        16.8391    7.3745   12.7331    0.0065   -0.0070   -0.0001
N        12.4947    9.8701   12.7367    0.0520   -0.0007   -0.0004
N        14.5362   11.8239   12.7312   -0.0023   -0.0517   -0.0003
N        16.4900    9.7831   12.7252   -0.0510    0.0022   -0.0004
N        14.4485    7.8292   12.7301    0.0003    0.0510   -0.0002
C        13.1827   15.2473   12.7623    0.0206    0.0048    0.0000
Zn       14.4924    9.8265   12.7264   -0.0000    0.0000    0.0000
C        16.0384   15.1842   12.7549   -0.0190    0.0052    0.0001
C        13.9324   16.4262   12.7720    0.0108   -0.0176   -0.0002
C        15.3413   16.3949   12.7682   -0.0126   -0.0170   -0.0002
H        12.0925   15.2624   12.7653    0.0205   -0.1646   -0.0018
H        17.1282   15.1517   12.7524   -0.0263   -0.1719   -0.0018
H        15.8945   17.3351   12.7765   -0.1083    0.0363    0.0008
H        13.4215   17.3900   12.7831    0.1062    0.0302   -0.0001
C        19.9141   11.1351   12.7666    0.0049   -0.0203    0.0001
C        19.8494    8.2795   12.7644    0.0053    0.0187    0.0002
C        21.0925   10.3847   12.7838   -0.0174   -0.0100   -0.0002
C        21.0605    8.9757   12.7834   -0.0168    0.0118   -0.0003
H        19.9307   12.2252   12.7677   -0.1595   -0.0199   -0.0025
H        19.8161    7.1897   12.7642   -0.1670    0.0259   -0.0028
H        22.0002    8.4217   12.7979    0.0339    0.1026    0.0009
H        22.0566   10.8949   12.7993    0.0277   -0.1003    0.0002
C         9.0706    8.5177   12.7651   -0.0046    0.0205    0.0001
C         9.1350   11.3733   12.7663   -0.0055   -0.0195    0.0001
C         7.8920    9.2680   12.7781    0.0177    0.0112   -0.0002
C         7.9240   10.6769   12.7780    0.0171   -0.0127   -0.0002
H         9.0541    7.4277   12.7650    0.1692    0.0201   -0.0018
H         9.1683   12.4630   12.7667    0.1712   -0.0269   -0.0019
H         6.9843   11.2312   12.7887   -0.0366   -0.1087    0.0006
H         6.9279    8.7580   12.7877   -0.0317    0.1099    0.0002
C        15.8019    4.4056   12.7477   -0.0200   -0.0046    0.0001
C        12.9464    4.4688   12.7613    0.0189   -0.0055   -0.0000
C        15.0523    3.2268   12.7611   -0.0103    0.0174   -0.0001
C        13.6434    3.2581   12.7682    0.0116    0.0168   -0.0002
H        16.8920    4.3900   12.7428   -0.0197    0.1624   -0.0012
H        11.8565    4.5005   12.7666    0.0258    0.1635   -0.0017
H        13.0902    2.3178   12.7803    0.1012   -0.0330    0.0001
H        15.5632    2.2628   12.7676   -0.1019   -0.0285    0.0006
    57
stable frequency at   1119.311 1/cm IR int. is 1.898 a.m.u.; force const. is 1.401 mDyne/Ang.
C        10.3153   10.6255   12.7541    0.0523    0.0336   -0.0004
C        11.7250   11.0126   12.7436   -0.0052   -0.0264    0.0001
C        13.4288   12.6432   12.7402   -0.0434    0.0135    0.0002
C        13.8774   14.0347   12.7489    0.0164    0.0221    0.0001
C        10.2838    9.2117   12.7538    0.0464   -0.0326   -0.0004
C        11.6752    8.7628   12.7434   -0.0145    0.0028    0.0002
C        13.3062    7.0594   12.7390   -0.0348   -0.0172    0.0003
C        13.6935    5.6496   12.7468   -0.0039    0.0075   -0.0000
N        12.1457   12.2786   12.7444   -0.0092   -0.0086   -0.0000
N        12.0400    7.4796   12.7439   -0.0048    0.0045   -0.0000
C        15.2912   14.0035   12.7457   -0.0046    0.0084    0.0001
C        15.6785   12.5937   12.7355   -0.0355   -0.0174   -0.0002
C        17.3094   10.8903   12.7347   -0.0142    0.0028   -0.0003
C        18.7010   10.4413   12.7487    0.0478   -0.0337    0.0006
C        17.2595    8.6406   12.7332   -0.0052   -0.0256   -0.0001
C        18.6693    9.0275   12.7476    0.0532    0.0343    0.0007
C        15.1073    5.6184   12.7412    0.0152    0.0207   -0.0002
C        15.5559    7.0099   12.7320   -0.0434    0.0130    0.0000
N        16.9446   12.1735   12.7365   -0.0048    0.0049    0.0000
N        16.8391    7.3745   12.7331   -0.0088   -0.0086   -0.0000
N        12.4947    9.8701   12.7367   -0.0282    0.0191    0.0002
N        14.5362   11.8239   12.7312    0.0591   -0.0106   -0.0002
N        16.4900    9.7831   12.7252   -0.0294    0.0183   -0.0002
N        14.4485    7.8292   12.7301    0.0582   -0.0093   -0.0002
C        13.1827   15.2473   12.7623   -0.0044   -0.0077   -0.0000
Zn       14.4924    9.8265   12.7264    0.0015    0.0004   -0.0000
C        16.0384   15.1842   12.7549   -0.0139    0.0076    0.0001
C        13.9324   16.4262   12.7720    0.0168   -0.0035   -0.0001
C        15.3413   16.3949   12.7682   -0.0007   -0.0027   -0.0000
H        12.0925   15.2624   12.7653   -0.0072   -0.1618   -0.0017
H        17.1282   15.1517   12.7524   -0.0145    0.0348    0.0004
H        15.8945   17.3351   12.7765   -0.0133    0.0034    0.0001
H        13.4215   17.3900   12.7831    0.1179    0.0496    0.0001
C        19.9141   11.1351   12.7666    0.0008   -0.0188    0.0000
C        19.8494    8.2795   12.7644   -0.0036    0.0129    0.0000
C        21.0925   10.3847   12.7838   -0.0099   -0.0257   -0.0001
C        21.0605    8.9757   12.7834   -0.0086    0.0314   -0.0002
H        19.9307   12.2252   12.7677   -0.1811   -0.0176   -0.0029
H        19.8161    7.1897   12.7642   -0.2426    0.0210   -0.0040
H        22.0002    8.4217   12.7979    0.1049    0.2288    0.0020
H        22.0566   10.8949   12.7993    0.0799   -0.2010    0.0011
C         9.0706    8.5177   12.7651    0.0005   -0.0185   -0.0000
C         9.1350   11.3733   12.7663   -0.0036    0.0125    0.0000
C         7.8920    9.2680   12.7781   -0.0093   -0.0255    0.0001
C         7.9240   10.6769   12.7780   -0.0085    0.0311    0.0002
H         9.0541    7.4277   12.7650   -0.1774   -0.0173    0.0019
H         9.1683   12.4630   12.7667   -0.2384    0.0203    0.0026
H         6.9843   11.2312   12.7887    0.1035    0.2258   -0.0013
H         6.9279    8.7580   12.7877    0.0796   -0.1990   -0.0008
C        15.8019    4.4056   12.7477   -0.0048   -0.0080    0.0001
C        12.9464    4.4688   12.7613   -0.0135    0.0076    0.0000
C        15.0523    3.2268   12.7611    0.0165   -0.0029   -0.0000
C        13.6434    3.2581   12.7682   -0.0003   -0.0026    0.0000
H        16.8920    4.3900   12.7428   -0.0078   -0.1581    0.0015
H        11.8565    4.5005   12.7666   -0.0140    0.0400   -0.0003
H        13.0902    2.3178   12.7803   -0.0088    0.0012    0.0000
H        15.5632    2.2628   12.7676    0.1153    0.0491   -0.0010
    57
stable frequency at   1119.364 1/cm IR int. is 1.899 a.m.u.; force const. is 1.402 mDyne/Ang.
C        10.3153   10.6255   12.7541    0.0068    0.0034   -0.0001
C        11.7250   11.0126   12.7436   -0.0178    0.0355    0.0002
C        13.4288   12.6432   12.7402    0.0035    0.0142    0.0002
C        13.8774   14.0347   12.7489   -0.0327   -0.0466   -0.0003
C        10.2838    9.2117   12.7538    0.0207   -0.0152   -0.0002
C        11.6752    8.7628   12.7434    0.0134    0.0442   -0.0001
C        13.3062    7.0594   12.7390   -0.0261    0.0047    0.0000
C        13.6935    5.6496   12.7468    0.0349   -0.0540    0.0003
N        12.1457   12.2786   12.7444    0.0049    0.0051   -0.0000
N        12.0400    7.4796   12.7439   -0.0090    0.0090    0.0000
C        15.2912   14.0035   12.7457    0.0332   -0.0517   -0.0005
C        15.6785   12.5937   12.7355   -0.0258    0.0057    0.0002
C        17.3094   10.8903   12.7347    0.0130    0.0427    0.0002
C        18.7010   10.4413   12.7487    0.0220   -0.0163    0.0003
C        17.2595    8.6406   12.7332   -0.0168    0.0350   -0.0003
C        18.6693    9.0275   12.7476    0.0092    0.0052    0.0001
C        15.1073    5.6184   12.7412   -0.0335   -0.0475    0.0005
C        15.5559    7.0099   12.7320    0.0020    0.0145   -0.0003
N        16.9446   12.1735   12.7365   -0.0082    0.0088   -0.0001
N        16.8391    7.3745   12.7331    0.0044    0.0043    0.0001
N        12.4947    9.8701   12.7367   -0.0091   -0.0596    0.0000
N        14.5362   11.8239   12.7312    0.0177    0.0281    0.0001
N        16.4900    9.7831   12.7252   -0.0108   -0.0575   -0.0001
N        14.4485    7.8292   12.7301    0.0197    0.0297   -0.0002
C        13.1827   15.2473   12.7623   -0.0182   -0.0006    0.0000
Zn       14.4924    9.8265   12.7264    0.0004   -0.0015   -0.0000
C        16.0384   15.1842   12.7549    0.0126    0.0037   -0.0001
C        13.9324   16.4262   12.7720   -0.0256    0.0095    0.0001
C        15.3413   16.3949   12.7682    0.0310    0.0082    0.0001
H        12.0925   15.2624   12.7653   -0.0172    0.1776    0.0019
H        17.1282   15.1517   12.7524    0.0202    0.2374    0.0025
H        15.8945   17.3351   12.7765    0.2260   -0.1037   -0.0018
H        13.4215   17.3900   12.7831   -0.1988   -0.0795   -0.0002
C        19.9141   11.1351   12.7666   -0.0079    0.0041   -0.0001
C        19.8494    8.2795   12.7644    0.0078    0.0139    0.0001
C        21.0925   10.3847   12.7838   -0.0032   -0.0168   -0.0001
C        21.0605    8.9757   12.7834   -0.0031    0.0008   -0.0000
H        19.9307   12.2252   12.7677   -0.1634    0.0072   -0.0025
H        19.8161    7.1897   12.7642    0.0341    0.0146    0.0006
H        22.0002    8.4217   12.7979    0.0028    0.0131    0.0001
H        22.0566   10.8949   12.7993    0.0506   -0.1196    0.0007
C         9.0706    8.5177   12.7651   -0.0079    0.0050    0.0001
C         9.1350   11.3733   12.7663    0.0075    0.0134   -0.0001
C         7.8920    9.2680   12.7781   -0.0031   -0.0165    0.0000
C         7.9240   10.6769   12.7780   -0.0022    0.0003    0.0000
H         9.0541    7.4277   12.7650   -0.1573    0.0080    0.0018
H         9.1683   12.4630   12.7667    0.0407    0.0137   -0.0004
H         6.9843   11.2312   12.7887    0.0021    0.0095   -0.0000
H         6.9279    8.7580   12.7877    0.0485   -0.1148   -0.0005
C        15.8019    4.4056   12.7477   -0.0190   -0.0005    0.0001
C        12.9464    4.4688   12.7613    0.0129    0.0033   -0.0001
C        15.0523    3.2268   12.7611   -0.0258    0.0096    0.0001
C        13.6434    3.2581   12.7682    0.0313    0.0092   -0.0003
H        16.8920    4.3900   12.7428   -0.0179    0.1826   -0.0015
H        11.8565    4.5005   12.7666    0.0207    0.2414   -0.0023
H        13.0902    2.3178   12.7803    0.2274   -0.1033   -0.0000
H        15.5632    2.2628   12.7676   -0.2018   -0.0808    0.0016
    57
stable frequency at   1124.499 1/cm IR int. is 8.684 a.m.u.; force const. is 6.469 mDyne/Ang.
C        10.3153   10.6255   12.7541    0.0296    0.0188   -0.0002
C        11.7250   11.0126   12.7436    0.0283   -0.0419   -0.0002
C        13.4288   12.6432   12.7402   -0.0409    0.0306    0.0003
C        13.8774   14.0347   12.7489    0.0199    0.0284    0.0002
C        10.2838    9.2117   12.7538   -0.0288    0.0202    0.0002
C        11.6752    8.7628   12.7434   -0.0301   -0.0408    0.0002
C        13.3062    7.0594   12.7390    0.0422    0.0288   -0.0003
C        13.6935    5.6496   12.7468   -0.0186    0.0293   -0.0001
N        12.1457   12.2786   12.7444   -0.0264   -0.0252    0.0000
N        12.0400    7.4796   12.7439    0.0254   -0.0263   -0.0001
C        15.2912   14.0035   12.7457    0.0193   -0.0304   -0.0003
C        15.6785   12.5937   12.7355   -0.0425   -0.0284   -0.0001
C        17.3094   10.8903   12.7347    0.0307    0.0417    0.0003
C        18.7010   10.4413   12.7487    0.0290   -0.0203    0.0003
C        17.2595    8.6406   12.7332   -0.0289    0.0429   -0.0002
C        18.6693    9.0275   12.7476   -0.0302   -0.0191   -0.0004
C        15.1073    5.6184   12.7412   -0.0206   -0.0295    0.0003
C        15.5559    7.0099   12.7320    0.0416   -0.0303   -0.0001
N        16.9446   12.1735   12.7365   -0.0255    0.0266   -0.0000
N        16.8391    7.3745   12.7331    0.0266    0.0256    0.0000
N        12.4947    9.8701   12.7367    0.0020    0.0889    0.0000
N        14.5362   11.8239   12.7312    0.0897   -0.0018   -0.0002
N        16.4900    9.7831   12.7252   -0.0019   -0.0907   -0.0001
N        14.4485    7.8292   12.7301   -0.0898    0.0023    0.0003
C        13.1827   15.2473   12.7623   -0.0058    0.0112    0.0001
Zn       14.4924    9.8265   12.7264   -0.0000   -0.0000    0.0000
C        16.0384   15.1842   12.7549   -0.0060   -0.0110   -0.0001
C        13.9324   16.4262   12.7720    0.0011   -0.0213   -0.0002
C        15.3413   16.3949   12.7682    0.0026    0.0214    0.0002
H        12.0925   15.2624   12.7653   -0.0046    0.0248    0.0003
H        17.1282   15.1517   12.7524   -0.0052   -0.0210   -0.0001
H        15.8945   17.3351   12.7765   -0.0449    0.0498    0.0005
H        13.4215   17.3900   12.7831   -0.0500   -0.0486   -0.0006
C        19.9141   11.1351   12.7666    0.0112    0.0058    0.0002
C        19.8494    8.2795   12.7644   -0.0111    0.0061   -0.0002
C        21.0925   10.3847   12.7838   -0.0214   -0.0014   -0.0003
C        21.0605    8.9757   12.7834    0.0215   -0.0023    0.0004
H        19.9307   12.2252   12.7677    0.0222    0.0045    0.0004
H        19.8161    7.1897   12.7642   -0.0224    0.0054   -0.0002
H        22.0002    8.4217   12.7979    0.0510    0.0470    0.0007
H        22.0566   10.8949   12.7993   -0.0478    0.0478   -0.0010
C         9.0706    8.5177   12.7651   -0.0111   -0.0056    0.0001
C         9.1350   11.3733   12.7663    0.0110   -0.0061   -0.0001
C         7.8920    9.2680   12.7781    0.0212    0.0015   -0.0002
C         7.9240   10.6769   12.7780   -0.0212    0.0022    0.0002
H         9.0541    7.4277   12.7650   -0.0220   -0.0044    0.0002
H         9.1683   12.4630   12.7667    0.0237   -0.0055   -0.0002
H         6.9843   11.2312   12.7887   -0.0507   -0.0471    0.0004
H         6.9279    8.7580   12.7877    0.0472   -0.0470   -0.0008
C        15.8019    4.4056   12.7477    0.0055   -0.0111    0.0001
C        12.9464    4.4688   12.7613    0.0063    0.0111   -0.0002
C        15.0523    3.2268   12.7611   -0.0019    0.0214   -0.0002
C        13.6434    3.2581   12.7682   -0.0018   -0.0213    0.0002
H        16.8920    4.3900   12.7428    0.0043   -0.0190    0.0002
H        11.8565    4.5005   12.7666    0.0057    0.0261   -0.0002
H        13.0902    2.3178   12.7803    0.0508   -0.0526    0.0000
H        15.5632    2.2628   12.7676    0.0435    0.0458   -0.0007
    57
stable frequency at   1131.104 1/cm IR int. is 1.364 a.m.u.; force const. is 1.028 mDyne/Ang.
C        10.3153   10.6255   12.7541   -0.0331   -0.0228    0.0003
C        11.7250   11.0126   12.7436    0.0016    0.0123   -0.0000
C        13.4288   12.6432   12.7402    0.0123    0.0016    0.0000
C        13.8774   14.0347   12.7489   -0.0246   -0.0321   -0.0002
C        10.2838    9.2117   12.7538   -0.0320    0.0245    0.0003
C        11.6752    8.7628   12.7434    0.0014   -0.0127   -0.0000
C        13.3062    7.0594   12.7390    0.0124   -0.0015   -0.0000
C        13.6935    5.6496   12.7468   -0.0233    0.0337   -0.0002
N        12.1457   12.2786   12.7444    0.0096    0.0092   -0.0000
N        12.0400    7.4796   12.7439    0.0094   -0.0096   -0.0000
C        15.2912   14.0035   12.7457    0.0230   -0.0334   -0.0003
C        15.6785   12.5937   12.7355   -0.0124    0.0014    0.0001
C        17.3094   10.8903   12.7347   -0.0017    0.0124   -0.0000
C        18.7010   10.4413   12.7487    0.0321   -0.0246    0.0004
C        17.2595    8.6406   12.7332   -0.0015   -0.0126   -0.0001
C        18.6693    9.0275   12.7476    0.0332    0.0228    0.0004
C        15.1073    5.6184   12.7412    0.0247    0.0324   -0.0003
C        15.5559    7.0099   12.7320   -0.0125   -0.0015    0.0001
N        16.9446   12.1735   12.7365   -0.0093    0.0096   -0.0000
N        16.8391    7.3745   12.7331   -0.0096   -0.0092   -0.0000
N        12.4947    9.8701   12.7367    0.0244   -0.0005   -0.0002
N        14.5362   11.8239   12.7312    0.0010    0.0247    0.0002
N        16.4900    9.7831   12.7252   -0.0244    0.0010   -0.0002
N        14.4485    7.8292   12.7301   -0.0009   -0.0248    0.0001
C        13.1827   15.2473   12.7623   -0.0122   -0.0000    0.0000
Zn       14.4924    9.8265   12.7264    0.0000    0.0000    0.0000
C        16.0384   15.1842   12.7549    0.0119   -0.0005   -0.0001
C        13.9324   16.4262   12.7720   -0.0230    0.0053    0.0001
C        15.3413   16.3949   12.7682    0.0233    0.0047    0.0000
H        12.0925   15.2624   12.7653   -0.0101    0.1898    0.0020
H        17.1282   15.1517   12.7524    0.0181    0.1896    0.0020
H        15.8945   17.3351   12.7765    0.2051   -0.1000   -0.0016
H        13.4215   17.3900   12.7831   -0.2107   -0.0922   -0.0003
C        19.9141   11.1351   12.7666    0.0001   -0.0122    0.0000
C        19.8494    8.2795   12.7644    0.0003    0.0118    0.0001
C        21.0925   10.3847   12.7838   -0.0053   -0.0229   -0.0001
C        21.0605    8.9757   12.7834   -0.0045    0.0233   -0.0001
H        19.9307   12.2252   12.7677   -0.1883   -0.0098   -0.0029
H        19.8161    7.1897   12.7642   -0.1903    0.0181   -0.0031
H        22.0002    8.4217   12.7979    0.1006    0.2053    0.0019
H        22.0566   10.8949   12.7993    0.0915   -0.2098    0.0013
C         9.0706    8.5177   12.7651   -0.0000    0.0122    0.0000
C         9.1350   11.3733   12.7663   -0.0004   -0.0118    0.0000
C         7.8920    9.2680   12.7781    0.0053    0.0230   -0.0000
C         7.9240   10.6769   12.7780    0.0045   -0.0233   -0.0001
H         9.0541    7.4277   12.7650    0.1892    0.0098   -0.0021
H         9.1683   12.4630   12.7667    0.1894   -0.0181   -0.0021
H         6.9843   11.2312   12.7887   -0.1006   -0.2054    0.0012
H         6.9279    8.7580   12.7877   -0.0921    0.2108    0.0010
C        15.8019    4.4056   12.7477    0.0123    0.0000   -0.0001
C        12.9464    4.4688   12.7613   -0.0120    0.0005    0.0001
C        15.0523    3.2268   12.7611    0.0231   -0.0054   -0.0001
C        13.6434    3.2581   12.7682   -0.0234   -0.0048    0.0002
H        16.8920    4.3900   12.7428    0.0101   -0.1907    0.0016
H        11.8565    4.5005   12.7666   -0.0180   -0.1902    0.0018
H        13.0902    2.3178   12.7803   -0.2057    0.1003   -0.0000
H        15.5632    2.2628   12.7676    0.2110    0.0922   -0.0018
    57
stable frequency at   1153.330 1/cm IR int. is 1.384 a.m.u.; force const. is 1.085 mDyne/Ang.
C        10.3153   10.6255   12.7541    0.0291    0.0164   -0.0003
C        11.7250   11.0126   12.7436    0.0114    0.0118   -0.0000
C        13.4288   12.6432   12.7402   -0.0115   -0.0116    0.0000
C        13.8774   14.0347   12.7489   -0.0175   -0.0287   -0.0002
C        10.2838    9.2117   12.7538    0.0285   -0.0175   -0.0003
C        11.6752    8.7628   12.7434    0.0114   -0.0117   -0.0000
C        13.3062    7.0594   12.7390   -0.0116    0.0113    0.0000
C        13.6935    5.6496   12.7468   -0.0163    0.0290   -0.0002
N        12.1457   12.2786   12.7444    0.0031   -0.0032    0.0000
N        12.0400    7.4796   12.7439    0.0031    0.0031    0.0000
C        15.2912   14.0035   12.7457    0.0166   -0.0293   -0.0003
C        15.6785   12.5937   12.7355    0.0120   -0.0111   -0.0000
C        17.3094   10.8903   12.7347   -0.0112    0.0118   -0.0000
C        18.7010   10.4413   12.7487   -0.0290    0.0178   -0.0004
C        17.2595    8.6406   12.7332   -0.0114   -0.0115   -0.0000
C        18.6693    9.0275   12.7476   -0.0295   -0.0165   -0.0004
C        15.1073    5.6184   12.7412    0.0174    0.0284   -0.0003
C        15.5559    7.0099   12.7320    0.0120    0.0113   -0.0000
N        16.9446   12.1735   12.7365   -0.0031   -0.0031    0.0000
N        16.8391    7.3745   12.7331   -0.0030    0.0032    0.0000
N        12.4947    9.8701   12.7367   -0.0277    0.0001    0.0002
N        14.5362   11.8239   12.7312   -0.0003    0.0278    0.0002
N        16.4900    9.7831   12.7252    0.0280   -0.0004    0.0002
N        14.4485    7.8292   12.7301   -0.0004   -0.0276    0.0001
C        13.1827   15.2473   12.7623   -0.0088   -0.0097   -0.0001
Zn       14.4924    9.8265   12.7264   -0.0000   -0.0000   -0.0000
C        16.0384   15.1842   12.7549    0.0084   -0.0105   -0.0001
C        13.9324   16.4262   12.7720    0.0248    0.0207    0.0001
C        15.3413   16.3949   12.7682   -0.0243    0.0217    0.0003
H        12.0925   15.2624   12.7653   -0.0122   -0.0776   -0.0008
H        17.1282   15.1517   12.7524    0.0088   -0.0820   -0.0009
H        15.8945   17.3351   12.7765   -0.2415    0.1504    0.0020
H        13.4215   17.3900   12.7831    0.2485    0.1401    0.0009
C        19.9141   11.1351   12.7666   -0.0099    0.0088   -0.0002
C        19.8494    8.2795   12.7644   -0.0104   -0.0085   -0.0002
C        21.0925   10.3847   12.7838    0.0208   -0.0249    0.0003
C        21.0605    8.9757   12.7834    0.0218    0.0243    0.0003
H        19.9307   12.2252   12.7677   -0.0787    0.0124   -0.0012
H        19.8161    7.1897   12.7642   -0.0808   -0.0090   -0.0012
H        22.0002    8.4217   12.7979    0.1508    0.2415    0.0023
H        22.0566   10.8949   12.7993    0.1407   -0.2496    0.0023
C         9.0706    8.5177   12.7651    0.0097   -0.0087   -0.0001
C         9.1350   11.3733   12.7663    0.0104    0.0084   -0.0001
C         7.8920    9.2680   12.7781   -0.0205    0.0247    0.0002
C         7.9240   10.6769   12.7780   -0.0216   -0.0242    0.0002
H         9.0541    7.4277   12.7650    0.0770   -0.0122   -0.0008
H         9.1683   12.4630   12.7667    0.0814    0.0088   -0.0008
H         6.9843   11.2312   12.7887   -0.1498   -0.2399    0.0014
H         6.9279    8.7580   12.7877   -0.1391    0.2471    0.0017
C        15.8019    4.4056   12.7477    0.0087    0.0098   -0.0001
C        12.9464    4.4688   12.7613   -0.0084    0.0103   -0.0001
C        15.0523    3.2268   12.7611   -0.0248   -0.0206    0.0003
C        13.6434    3.2581   12.7682    0.0242   -0.0215    0.0001
H        16.8920    4.3900   12.7428    0.0121    0.0789   -0.0008
H        11.8565    4.5005   12.7666   -0.0089    0.0804   -0.0006
H        13.0902    2.3178   12.7803    0.2399   -0.1494    0.0000
H        15.5632    2.2628   12.7676   -0.2478   -0.1397    0.0025
    57
stable frequency at   1160.191 1/cm IR int. is 1.627 a.m.u.; force const. is 1.290 mDyne/Ang.
C        10.3153   10.6255   12.7541   -0.0198    0.0036    0.0002
C        11.7250   11.0126   12.7436   -0.0218    0.0372    0.0002
C        13.4288   12.6432   12.7402    0.0336   -0.0214   -0.0002
C        13.8774   14.0347   12.7489   -0.0001   -0.0229   -0.0002
C        10.2838    9.2117   12.7538   -0.0262    0.0244    0.0002
C        11.6752    8.7628   12.7434    0.0213    0.0258   -0.0003
C        13.3062    7.0594   12.7390    0.0229    0.0180   -0.0003
C        13.6935    5.6496   12.7468    0.0227   -0.0292    0.0001
N        12.1457   12.2786   12.7444    0.0018    0.0015    0.0000
N        12.0400    7.4796   12.7439   -0.0018   -0.0019    0.0000
C        15.2912   14.0035   12.7457    0.0228   -0.0292   -0.0003
C        15.6785   12.5937   12.7355    0.0226    0.0180    0.0002
C        17.3094   10.8903   12.7347    0.0212    0.0257    0.0004
C        18.7010   10.4413   12.7487   -0.0255    0.0238   -0.0003
C        17.2595    8.6406   12.7332   -0.0215    0.0371   -0.0002
C        18.6693    9.0275   12.7476   -0.0195    0.0036   -0.0003
C        15.1073    5.6184   12.7412   -0.0004   -0.0231    0.0002
C        15.5559    7.0099   12.7320    0.0335   -0.0215   -0.0000
N        16.9446   12.1735   12.7365   -0.0019   -0.0016   -0.0001
N        16.8391    7.3745   12.7331    0.0019    0.0016    0.0000
N        12.4947    9.8701   12.7367    0.0140   -0.0476   -0.0001
N        14.5362   11.8239   12.7312   -0.0422    0.0177    0.0002
N        16.4900    9.7831   12.7252    0.0135   -0.0476    0.0001
N        14.4485    7.8292   12.7301   -0.0424    0.0179    0.0001
C        13.1827   15.2473   12.7623   -0.0103    0.0042    0.0001
Zn       14.4924    9.8265   12.7264   -0.0004   -0.0005    0.0000
C        16.0384   15.1842   12.7549   -0.0004   -0.0149   -0.0001
C        13.9324   16.4262   12.7720    0.0140    0.0108    0.0001
C        15.3413   16.3949   12.7682   -0.0207    0.0212    0.0002
H        12.0925   15.2624   12.7653   -0.0114    0.0251    0.0003
H        17.1282   15.1517   12.7524   -0.0027   -0.1762   -0.0017
H        15.8945   17.3351   12.7765   -0.2387    0.1501    0.0021
H        13.4215   17.3900   12.7831    0.1783    0.0985    0.0006
C        19.9141   11.1351   12.7666   -0.0154   -0.0012   -0.0002
C        19.8494    8.2795   12.7644    0.0051   -0.0104    0.0000
C        21.0925   10.3847   12.7838    0.0194   -0.0203    0.0003
C        21.0605    8.9757   12.7834    0.0089    0.0115    0.0001
H        19.9307   12.2252   12.7677   -0.1816    0.0037   -0.0028
H        19.8161    7.1897   12.7642    0.0428   -0.0127    0.0007
H        22.0002    8.4217   12.7979    0.0904    0.1487    0.0014
H        22.0566   10.8949   12.7993    0.1308   -0.2298    0.0022
C         9.0706    8.5177   12.7651   -0.0157   -0.0012    0.0002
C         9.1350   11.3733   12.7663    0.0050   -0.0107   -0.0000
C         7.8920    9.2680   12.7781    0.0198   -0.0205   -0.0002
C         7.9240   10.6769   12.7780    0.0091    0.0117   -0.0001
H         9.0541    7.4277   12.7650   -0.1823    0.0037    0.0019
H         9.1683   12.4630   12.7667    0.0437   -0.0130   -0.0005
H         6.9843   11.2312   12.7887    0.0915    0.1503   -0.0009
H         6.9279    8.7580   12.7877    0.1323   -0.2322   -0.0017
C        15.8019    4.4056   12.7477   -0.0102    0.0040    0.0000
C        12.9464    4.4688   12.7613   -0.0003   -0.0150    0.0001
C        15.0523    3.2268   12.7611    0.0142    0.0110   -0.0002
C        13.6434    3.2581   12.7682   -0.0210    0.0213   -0.0001
H        16.8920    4.3900   12.7428   -0.0113    0.0237   -0.0001
H        11.8565    4.5005   12.7666   -0.0025   -0.1774    0.0016
H        13.0902    2.3178   12.7803   -0.2413    0.1516    0.0000
H        15.5632    2.2628   12.7676    0.1808    0.0999   -0.0018
    57
stable frequency at   1160.274 1/cm IR int. is 1.629 a.m.u.; force const. is 1.292 mDyne/Ang.
C        10.3153   10.6255   12.7541    0.0297    0.0231   -0.0002
C        11.7250   11.0126   12.7436   -0.0179    0.0228    0.0003
C        13.4288   12.6432   12.7402   -0.0259    0.0212    0.0003
C        13.8774   14.0347   12.7489   -0.0240   -0.0258   -0.0002
C        10.2838    9.2117   12.7538    0.0233   -0.0003   -0.0002
C        11.6752    8.7628   12.7434    0.0215    0.0336   -0.0001
C        13.3062    7.0594   12.7390   -0.0372   -0.0216    0.0003
C        13.6935    5.6496   12.7468   -0.0036   -0.0197    0.0002
N        12.1457   12.2786   12.7444    0.0016   -0.0020   -0.0000
N        12.0400    7.4796   12.7439   -0.0015    0.0018   -0.0000
C        15.2912   14.0035   12.7457   -0.0034   -0.0199   -0.0002
C        15.6785   12.5937   12.7355   -0.0371   -0.0216   -0.0001
C        17.3094   10.8903   12.7347    0.0214    0.0336    0.0003
C        18.7010   10.4413   12.7487    0.0232   -0.0004    0.0003
C        17.2595    8.6406   12.7332   -0.0179    0.0227   -0.0003
C        18.6693    9.0275   12.7476    0.0293    0.0228    0.0004
C        15.1073    5.6184   12.7412   -0.0240   -0.0258    0.0003
C        15.5559    7.0099   12.7320   -0.0257    0.0212   -0.0002
N        16.9446   12.1735   12.7365   -0.0017    0.0019   -0.0000
N        16.8391    7.3745   12.7331    0.0017   -0.0018    0.0001
N        12.4947    9.8701   12.7367   -0.0181   -0.0422    0.0001
N        14.5362   11.8239   12.7312    0.0477    0.0138   -0.0000
N        16.4900    9.7831   12.7252   -0.0178   -0.0423   -0.0001
N        14.4485    7.8292   12.7301    0.0475    0.0137   -0.0002
C        13.1827   15.2473   12.7623    0.0011   -0.0155   -0.0001
Zn       14.4924    9.8265   12.7264    0.0005   -0.0004   -0.0000
C        16.0384   15.1842   12.7549    0.0105    0.0050    0.0000
C        13.9324   16.4262   12.7720    0.0204    0.0196    0.0001
C        15.3413   16.3949   12.7682   -0.0116    0.0091    0.0001
H        12.0925   15.2624   12.7653   -0.0036   -0.1817   -0.0019
H        17.1282   15.1517   12.7524    0.0127    0.0432    0.0004
H        15.8945   17.3351   12.7765   -0.1498    0.0910    0.0013
H        13.4215   17.3900   12.7831    0.2306    0.1315    0.0009
C        19.9141   11.1351   12.7666   -0.0040   -0.0103   -0.0000
C        19.8494    8.2795   12.7644    0.0149   -0.0003    0.0002
C        21.0925   10.3847   12.7838   -0.0109    0.0140   -0.0002
C        21.0605    8.9757   12.7834   -0.0213   -0.0208   -0.0003
H        19.9307   12.2252   12.7677   -0.0249   -0.0113   -0.0004
H        19.8161    7.1897   12.7642    0.1762   -0.0026    0.0027
H        22.0002    8.4217   12.7979   -0.1505   -0.2389   -0.0024
H        22.0566   10.8949   12.7993   -0.0989    0.1790   -0.0016
C         9.0706    8.5177   12.7651   -0.0041   -0.0104    0.0000
C         9.1350   11.3733   12.7663    0.0151   -0.0004   -0.0002
C         7.8920    9.2680   12.7781   -0.0109    0.0141    0.0001
C         7.9240   10.6769   12.7780   -0.0215   -0.0209    0.0002
H         9.0541    7.4277   12.7650   -0.0262   -0.0115    0.0003
H         9.1683   12.4630   12.7667    0.1775   -0.0027   -0.0018
H         6.9843   11.2312   12.7887   -0.1517   -0.2404    0.0015
H         6.9279    8.7580   12.7877   -0.0990    0.1794    0.0012
C        15.8019    4.4056   12.7477    0.0011   -0.0155    0.0001
C        12.9464    4.4688   12.7613    0.0105    0.0051   -0.0001
C        15.0523    3.2268   12.7611    0.0204    0.0196   -0.0003
C        13.6434    3.2581   12.7682   -0.0116    0.0089   -0.0000
H        16.8920    4.3900   12.7428   -0.0036   -0.1821    0.0016
H        11.8565    4.5005   12.7666    0.0127    0.0436   -0.0006
H        13.0902    2.3178   12.7803   -0.1493    0.0906   -0.0000
H        15.5632    2.2628   12.7676    0.2306    0.1315   -0.0024
    57
stable frequency at   1172.353 1/cm IR int. is 2.659 a.m.u.; force const. is 2.153 mDyne/Ang.
C        10.3153   10.6255   12.7541    0.0497    0.0249   -0.0004
C        11.7250   11.0126   12.7436    0.0150   -0.0214   -0.0001
C        13.4288   12.6432   12.7402   -0.0208    0.0163    0.0001
C        13.8774   14.0347   12.7489    0.0272    0.0486    0.0003
C        10.2838    9.2117   12.7538    0.0489   -0.0282   -0.0004
C        11.6752    8.7628   12.7434    0.0154    0.0203   -0.0001
C        13.3062    7.0594   12.7390   -0.0207   -0.0140    0.0001
C        13.6935    5.6496   12.7468    0.0261   -0.0503    0.0003
N        12.1457   12.2786   12.7444   -0.0177   -0.0169    0.0000
N        12.0400    7.4796   12.7439   -0.0174    0.0181    0.0000
C        15.2912   14.0035   12.7457   -0.0261    0.0503    0.0004
C        15.6785   12.5937   12.7355    0.0208    0.0141    0.0000
C        17.3094   10.8903   12.7347   -0.0153   -0.0202   -0.0001
C        18.7010   10.4413   12.7487   -0.0490    0.0283   -0.0006
C        17.2595    8.6406   12.7332   -0.0150    0.0214   -0.0001
C        18.6693    9.0275   12.7476   -0.0496   -0.0248   -0.0006
C        15.1073    5.6184   12.7412   -0.0270   -0.0485    0.0004
C        15.5559    7.0099   12.7320    0.0208   -0.0164   -0.0000
N        16.9446   12.1735   12.7365    0.0173   -0.0181    0.0000
N        16.8391    7.3745   12.7331    0.0176    0.0169    0.0000
N        12.4947    9.8701   12.7367   -0.0514    0.0014    0.0004
N        14.5362   11.8239   12.7312   -0.0006   -0.0515   -0.0003
N        16.4900    9.7831   12.7252    0.0513   -0.0014    0.0005
N        14.4485    7.8292   12.7301    0.0005    0.0515   -0.0003
C        13.1827   15.2473   12.7623    0.0157    0.0126    0.0001
Zn       14.4924    9.8265   12.7264    0.0000    0.0000    0.0000
C        16.0384   15.1842   12.7549   -0.0145    0.0139    0.0002
C        13.9324   16.4262   12.7720   -0.0158   -0.0259   -0.0002
C        15.3413   16.3949   12.7682    0.0145   -0.0267   -0.0003
H        12.0925   15.2624   12.7653    0.0182   -0.0245   -0.0003
H        17.1282   15.1517   12.7524   -0.0184   -0.0213   -0.0002
H        15.8945   17.3351   12.7765    0.1619   -0.1159   -0.0014
H        13.4215   17.3900   12.7831   -0.1664   -0.1080   -0.0008
C        19.9141   11.1351   12.7666   -0.0131    0.0151   -0.0002
C        19.8494    8.2795   12.7644   -0.0133   -0.0150   -0.0003
C        21.0925   10.3847   12.7838    0.0263   -0.0159    0.0004
C        21.0605    8.9757   12.7834    0.0262    0.0144    0.0004
H        19.9307   12.2252   12.7677    0.0192    0.0176    0.0003
H        19.8161    7.1897   12.7642    0.0258   -0.0191    0.0005
H        22.0002    8.4217   12.7979    0.1145    0.1601    0.0016
H        22.0566   10.8949   12.7993    0.1090   -0.1680    0.0019
C         9.0706    8.5177   12.7651    0.0131   -0.0151   -0.0002
C         9.1350   11.3733   12.7663    0.0134    0.0150   -0.0001
C         7.8920    9.2680   12.7781   -0.0262    0.0158    0.0003
C         7.9240   10.6769   12.7780   -0.0262   -0.0144    0.0003
H         9.0541    7.4277   12.7650   -0.0204   -0.0176    0.0002
H         9.1683   12.4630   12.7667   -0.0258    0.0191    0.0003
H         6.9843   11.2312   12.7887   -0.1144   -0.1597    0.0010
H         6.9279    8.7580   12.7877   -0.1085    0.1670    0.0014
C        15.8019    4.4056   12.7477   -0.0158   -0.0125    0.0002
C        12.9464    4.4688   12.7613    0.0144   -0.0140    0.0001
C        15.0523    3.2268   12.7611    0.0158    0.0258   -0.0003
C        13.6434    3.2581   12.7682   -0.0146    0.0267   -0.0002
H        16.8920    4.3900   12.7428   -0.0182    0.0250   -0.0001
H        11.8565    4.5005   12.7666    0.0183    0.0204   -0.0004
H        13.0902    2.3178   12.7803   -0.1622    0.1160    0.0000
H        15.5632    2.2628   12.7676    0.1664    0.1079   -0.0019
    57
stable frequency at   1178.964 1/cm IR int. is 2.383 a.m.u.; force const. is 1.952 mDyne/Ang.
C        10.3153   10.6255   12.7541   -0.0212   -0.0464    0.0001
C        11.7250   11.0126   12.7436    0.0356   -0.0220   -0.0003
C        13.4288   12.6432   12.7402   -0.0204    0.0364    0.0004
C        13.8774   14.0347   12.7489   -0.0471   -0.0192    0.0000
C        10.2838    9.2117   12.7538    0.0178   -0.0466   -0.0001
C        11.6752    8.7628   12.7434   -0.0371   -0.0210    0.0003
C        13.3062    7.0594   12.7390    0.0225    0.0359   -0.0003
C        13.6935    5.6496   12.7468    0.0458   -0.0201   -0.0001
N        12.1457   12.2786   12.7444    0.0182    0.0174   -0.0000
N        12.0400    7.4796   12.7439   -0.0169    0.0178    0.0001
C        15.2912   14.0035   12.7457   -0.0455    0.0196    0.0002
C        15.6785   12.5937   12.7355   -0.0226   -0.0359   -0.0003
C        17.3094   10.8903   12.7347    0.0371    0.0212    0.0005
C        18.7010   10.4413   12.7487   -0.0175    0.0462   -0.0001
C        17.2595    8.6406   12.7332   -0.0355    0.0221   -0.0004
C        18.6693    9.0275   12.7476    0.0212    0.0463    0.0002
C        15.1073    5.6184   12.7412    0.0469    0.0187   -0.0003
C        15.5559    7.0099   12.7320    0.0205   -0.0365    0.0002
N        16.9446   12.1735   12.7365    0.0168   -0.0175   -0.0000
N        16.8391    7.3745   12.7331   -0.0181   -0.0172    0.0000
N        12.4947    9.8701   12.7367    0.0015    0.0301   -0.0000
N        14.5362   11.8239   12.7312    0.0301    0.0001   -0.0001
N        16.4900    9.7831   12.7252   -0.0017   -0.0303   -0.0000
N        14.4485    7.8292   12.7301   -0.0300    0.0003    0.0001
C        13.1827   15.2473   12.7623    0.0226   -0.0226   -0.0003
Zn       14.4924    9.8265   12.7264    0.0000   -0.0000    0.0000
C        16.0384   15.1842   12.7549    0.0239    0.0210    0.0001
C        13.9324   16.4262   12.7720    0.0054    0.0180    0.0002
C        15.3413   16.3949   12.7682    0.0036   -0.0171   -0.0002
H        12.0925   15.2624   12.7653    0.0193   -0.2014   -0.0022
H        17.1282   15.1517   12.7524    0.0285    0.2002    0.0019
H        15.8945   17.3351   12.7765    0.0487   -0.0433   -0.0005
H        13.4215   17.3900   12.7831    0.0591    0.0461    0.0005
C        19.9141   11.1351   12.7666   -0.0222   -0.0231   -0.0003
C        19.8494    8.2795   12.7644    0.0215   -0.0234    0.0003
C        21.0925   10.3847   12.7838    0.0172   -0.0050    0.0002
C        21.0605    8.9757   12.7834   -0.0180   -0.0040   -0.0003
H        19.9307   12.2252   12.7677   -0.2030   -0.0196   -0.0031
H        19.8161    7.1897   12.7642    0.1994   -0.0279    0.0031
H        22.0002    8.4217   12.7979   -0.0468   -0.0533   -0.0007
H        22.0566   10.8949   12.7993    0.0430   -0.0546    0.0008
C         9.0706    8.5177   12.7651    0.0224    0.0232   -0.0002
C         9.1350   11.3733   12.7663   -0.0215    0.0236    0.0002
C         7.8920    9.2680   12.7781   -0.0173    0.0050    0.0002
C         7.9240   10.6769   12.7780    0.0180    0.0040   -0.0002
H         9.0541    7.4277   12.7650    0.2032    0.0197   -0.0021
H         9.1683   12.4630   12.7667   -0.2004    0.0282    0.0021
H         6.9843   11.2312   12.7887    0.0468    0.0533   -0.0004
H         6.9279    8.7580   12.7877   -0.0433    0.0549    0.0006
C        15.8019    4.4056   12.7477   -0.0228    0.0225   -0.0001
C        12.9464    4.4688   12.7613   -0.0238   -0.0212    0.0003
C        15.0523    3.2268   12.7611   -0.0052   -0.0178    0.0002
C        13.6434    3.2581   12.7682   -0.0037    0.0174   -0.0002
H        16.8920    4.3900   12.7428   -0.0194    0.2019   -0.0016
H        11.8565    4.5005   12.7666   -0.0282   -0.2004    0.0021
H        13.0902    2.3178   12.7803   -0.0505    0.0446   -0.0000
H        15.5632    2.2628   12.7676   -0.0577   -0.0452    0.0007
    57
stable frequency at   1182.719 1/cm IR int. is 2.790 a.m.u.; force const. is 2.299 mDyne/Ang.
C        10.3153   10.6255   12.7541   -0.0212    0.0136    0.0002
C        11.7250   11.0126   12.7436   -0.0347    0.0142    0.0003
C        13.4288   12.6432   12.7402   -0.0136    0.0374    0.0003
C        13.8774   14.0347   12.7489   -0.0176    0.0177    0.0002
C        10.2838    9.2117   12.7538   -0.0510    0.0590    0.0004
C        11.6752    8.7628   12.7434    0.0182    0.0044   -0.0002
C        13.3062    7.0594   12.7390   -0.0066   -0.0211    0.0002
C        13.6935    5.6496   12.7468   -0.0581    0.0523   -0.0001
N        12.1457   12.2786   12.7444    0.0085   -0.0062   -0.0001
N        12.0400    7.4796   12.7439    0.0299   -0.0307   -0.0001
C        15.2912   14.0035   12.7457   -0.0584    0.0525    0.0005
C        15.6785   12.5937   12.7355   -0.0067   -0.0212   -0.0002
C        17.3094   10.8903   12.7347    0.0185    0.0045    0.0003
C        18.7010   10.4413   12.7487   -0.0511    0.0592   -0.0005
C        17.2595    8.6406   12.7332   -0.0348    0.0143   -0.0003
C        18.6693    9.0275   12.7476   -0.0211    0.0138   -0.0003
C        15.1073    5.6184   12.7412   -0.0175    0.0177   -0.0001
C        15.5559    7.0099   12.7320   -0.0135    0.0372   -0.0002
N        16.9446   12.1735   12.7365    0.0300   -0.0307   -0.0000
N        16.8391    7.3745   12.7331    0.0085   -0.0063    0.0001
N        12.4947    9.8701   12.7367    0.0353   -0.0130   -0.0003
N        14.5362   11.8239   12.7312    0.0130   -0.0334   -0.0002
N        16.4900    9.7831   12.7252    0.0351   -0.0133    0.0003
N        14.4485    7.8292   12.7301    0.0129   -0.0333    0.0001
C        13.1827   15.2473   12.7623    0.0311   -0.0073   -0.0001
Zn       14.4924    9.8265   12.7264   -0.0013    0.0013    0.0000
C        16.0384   15.1842   12.7549    0.0086    0.0284    0.0003
C        13.9324   16.4262   12.7720   -0.0052   -0.0031   -0.0000
C        15.3413   16.3949   12.7682    0.0105   -0.0331   -0.0004
H        12.0925   15.2624   12.7653    0.0296   -0.2023   -0.0022
H        17.1282   15.1517   12.7524    0.0086    0.1141    0.0010
H        15.8945   17.3351   12.7765    0.1127   -0.0948   -0.0012
H        13.4215   17.3900   12.7831   -0.0319   -0.0193   -0.0000
C        19.9141   11.1351   12.7666   -0.0281   -0.0049   -0.0004
C        19.8494    8.2795   12.7644    0.0033   -0.0305    0.0000
C        21.0925   10.3847   12.7838    0.0330   -0.0129    0.0005
C        21.0605    8.9757   12.7834    0.0061    0.0060    0.0001
H        19.9307   12.2252   12.7677   -0.0992   -0.0012   -0.0016
H        19.8161    7.1897   12.7642    0.1927   -0.0376    0.0030
H        22.0002    8.4217   12.7979    0.0290    0.0412    0.0005
H        22.0566   10.8949   12.7993    0.0916   -0.1205    0.0016
C         9.0706    8.5177   12.7651   -0.0280   -0.0048    0.0003
C         9.1350   11.3733   12.7663    0.0032   -0.0304   -0.0000
C         7.8920    9.2680   12.7781    0.0329   -0.0128   -0.0003
C         7.9240   10.6769   12.7780    0.0062    0.0061   -0.0001
H         9.0541    7.4277   12.7650   -0.0975   -0.0011    0.0010
H         9.1683   12.4630   12.7667    0.1916   -0.0375   -0.0020
H         6.9843   11.2312   12.7887    0.0293    0.0414   -0.0003
H         6.9279    8.7580   12.7877    0.0911   -0.1198   -0.0012
C        15.8019    4.4056   12.7477    0.0309   -0.0072   -0.0001
C        12.9464    4.4688   12.7613    0.0085    0.0283   -0.0003
C        15.0523    3.2268   12.7611   -0.0052   -0.0032    0.0001
C        13.6434    3.2581   12.7682    0.0105   -0.0330    0.0003
H        16.8920    4.3900   12.7428    0.0294   -0.2015    0.0016
H        11.8565    4.5005   12.7666    0.0084    0.1133   -0.0011
H        13.0902    2.3178   12.7803    0.1126   -0.0946    0.0001
H        15.5632    2.2628   12.7676   -0.0321   -0.0195    0.0003
    57
stable frequency at   1182.920 1/cm IR int. is 2.790 a.m.u.; force const. is 2.300 mDyne/Ang.
C        10.3153   10.6255   12.7541    0.0523    0.0581   -0.0004
C        11.7250   11.0126   12.7436   -0.0210    0.0065    0.0002
C        13.4288   12.6432   12.7402    0.0043   -0.0182   -0.0002
C        13.8774   14.0347   12.7489    0.0590    0.0511    0.0002
C        10.2838    9.2117   12.7538    0.0176    0.0176   -0.0002
C        11.6752    8.7628   12.7434    0.0372    0.0134   -0.0003
C        13.3062    7.0594   12.7390    0.0144    0.0350   -0.0003
C        13.6935    5.6496   12.7468    0.0138    0.0214   -0.0003
N        12.1457   12.2786   12.7444   -0.0307   -0.0299    0.0001
N        12.0400    7.4796   12.7439   -0.0063   -0.0085    0.0001
C        15.2912   14.0035   12.7457    0.0136    0.0213    0.0002
C        15.6785   12.5937   12.7355    0.0142    0.0347    0.0002
C        17.3094   10.8903   12.7347    0.0373    0.0134    0.0004
C        18.7010   10.4413   12.7487    0.0177    0.0175    0.0003
C        17.2595    8.6406   12.7332   -0.0210    0.0064   -0.0003
C        18.6693    9.0275   12.7476    0.0524    0.0582    0.0006
C        15.1073    5.6184   12.7412    0.0593    0.0512   -0.0005
C        15.5559    7.0099   12.7320    0.0045   -0.0184    0.0002
N        16.9446   12.1735   12.7365   -0.0063   -0.0085   -0.0001
N        16.8391    7.3745   12.7331   -0.0308   -0.0300    0.0000
N        12.4947    9.8701   12.7367   -0.0333   -0.0127    0.0002
N        14.5362   11.8239   12.7312   -0.0129   -0.0353   -0.0002
N        16.4900    9.7831   12.7252   -0.0334   -0.0127   -0.0003
N        14.4485    7.8292   12.7301   -0.0133   -0.0355    0.0002
C        13.1827   15.2473   12.7623   -0.0049    0.0280    0.0003
Zn       14.4924    9.8265   12.7264    0.0013    0.0013   -0.0000
C        16.0384   15.1842   12.7549   -0.0304   -0.0032    0.0001
C        13.9324   16.4262   12.7720   -0.0128   -0.0329   -0.0003
C        15.3413   16.3949   12.7682    0.0061   -0.0062   -0.0001
H        12.0925   15.2624   12.7653   -0.0012    0.0980    0.0010
H        17.1282   15.1517   12.7524   -0.0374   -0.1918   -0.0018
H        15.8945   17.3351   12.7765    0.0417   -0.0293   -0.0004
H        13.4215   17.3900   12.7831   -0.1199   -0.0913   -0.0008
C        19.9141   11.1351   12.7666   -0.0072   -0.0310   -0.0001
C        19.8494    8.2795   12.7644    0.0283   -0.0085    0.0005
C        21.0925   10.3847   12.7838   -0.0032    0.0052   -0.0001
C        21.0605    8.9757   12.7834   -0.0330   -0.0105   -0.0005
H        19.9307   12.2252   12.7677   -0.2019   -0.0293   -0.0031
H        19.8161    7.1897   12.7642    0.1132   -0.0086    0.0017
H        22.0002    8.4217   12.7979   -0.0944   -0.1120   -0.0014
H        22.0566   10.8949   12.7993   -0.0193    0.0318   -0.0002
C         9.0706    8.5177   12.7651   -0.0072   -0.0310    0.0000
C         9.1350   11.3733   12.7663    0.0283   -0.0086   -0.0003
C         7.8920    9.2680   12.7781   -0.0031    0.0051    0.0001
C         7.9240   10.6769   12.7780   -0.0329   -0.0105    0.0003
H         9.0541    7.4277   12.7650   -0.2018   -0.0292    0.0021
H         9.1683   12.4630   12.7667    0.1136   -0.0086   -0.0012
H         6.9843   11.2312   12.7887   -0.0944   -0.1119    0.0008
H         6.9279    8.7580   12.7877   -0.0193    0.0317    0.0001
C        15.8019    4.4056   12.7477   -0.0049    0.0281   -0.0002
C        12.9464    4.4688   12.7613   -0.0305   -0.0033    0.0002
C        15.0523    3.2268   12.7611   -0.0129   -0.0330    0.0003
C        13.6434    3.2581   12.7682    0.0060   -0.0062    0.0000
H        16.8920    4.3900   12.7428   -0.0012    0.0992   -0.0009
H        11.8565    4.5005   12.7666   -0.0374   -0.1933    0.0021
H        13.0902    2.3178   12.7803    0.0416   -0.0293    0.0001
H        15.5632    2.2628   12.7676   -0.1207   -0.0918    0.0015
    57
stable frequency at   1197.505 1/cm IR int. is 2.655 a.m.u.; force const. is 2.243 mDyne/Ang.
C        10.3153   10.6255   12.7541   -0.0070   -0.0389    0.0000
C        11.7250   11.0126   12.7436    0.0460   -0.0243   -0.0004
C        13.4288   12.6432   12.7402    0.0227   -0.0477   -0.0004
C        13.8774   14.0347   12.7489    0.0395    0.0053   -0.0001
C        10.2838    9.2117   12.7538    0.0052   -0.0392   -0.0000
C        11.6752    8.7628   12.7434   -0.0475   -0.0224    0.0004
C        13.3062    7.0594   12.7390   -0.0244   -0.0463    0.0004
C        13.6935    5.6496   12.7468   -0.0390    0.0069    0.0002
N        12.1457   12.2786   12.7444   -0.0027    0.0028    0.0001
N        12.0400    7.4796   12.7439    0.0027    0.0027   -0.0001
C        15.2912   14.0035   12.7457    0.0392   -0.0071   -0.0001
C        15.6785   12.5937   12.7355    0.0244    0.0464    0.0003
C        17.3094   10.8903   12.7347    0.0478    0.0226    0.0005
C        18.7010   10.4413   12.7487   -0.0051    0.0392    0.0000
C        17.2595    8.6406   12.7332   -0.0462    0.0245   -0.0005
C        18.6693    9.0275   12.7476    0.0072    0.0391    0.0000
C        15.1073    5.6184   12.7412   -0.0393   -0.0053    0.0002
C        15.5559    7.0099   12.7320   -0.0226    0.0476   -0.0003
N        16.9446   12.1735   12.7365   -0.0028   -0.0026   -0.0001
N        16.8391    7.3745   12.7331    0.0027   -0.0028    0.0001
N        12.4947    9.8701   12.7367    0.0015    0.0575    0.0000
N        14.5362   11.8239   12.7312   -0.0578    0.0015    0.0001
N        16.4900    9.7831   12.7252   -0.0018   -0.0578   -0.0000
N        14.4485    7.8292   12.7301    0.0578   -0.0015   -0.0002
C        13.1827   15.2473   12.7623   -0.0211    0.0142    0.0002
Zn       14.4924    9.8265   12.7264    0.0000   -0.0000   -0.0000
C        16.0384   15.1842   12.7549   -0.0216   -0.0131   -0.0001
C        13.9324   16.4262   12.7720   -0.0059   -0.0085   -0.0001
C        15.3413   16.3949   12.7682   -0.0051    0.0086    0.0001
H        12.0925   15.2624   12.7653   -0.0182    0.1982    0.0021
H        17.1282   15.1517   12.7524   -0.0267   -0.1972   -0.0019
H        15.8945   17.3351   12.7765   -0.0232    0.0187    0.0002
H        13.4215   17.3900   12.7831   -0.0255   -0.0183   -0.0002
C        19.9141   11.1351   12.7666   -0.0141   -0.0211   -0.0002
C        19.8494    8.2795   12.7644    0.0131   -0.0214    0.0002
C        21.0925   10.3847   12.7838    0.0084   -0.0059    0.0001
C        21.0605    8.9757   12.7834   -0.0086   -0.0052   -0.0001
H        19.9307   12.2252   12.7677   -0.1982   -0.0179   -0.0030
H        19.8161    7.1897   12.7642    0.1964   -0.0266    0.0030
H        22.0002    8.4217   12.7979   -0.0188   -0.0234   -0.0003
H        22.0566   10.8949   12.7993    0.0181   -0.0253    0.0003
C         9.0706    8.5177   12.7651    0.0141    0.0210   -0.0001
C         9.1350   11.3733   12.7663   -0.0130    0.0214    0.0001
C         7.8920    9.2680   12.7781   -0.0084    0.0059    0.0001
C         7.9240   10.6769   12.7780    0.0085    0.0051   -0.0001
H         9.0541    7.4277   12.7650    0.1971    0.0179   -0.0020
H         9.1683   12.4630   12.7667   -0.1961    0.0266    0.0021
H         6.9843   11.2312   12.7887    0.0185    0.0230   -0.0001
H         6.9279    8.7580   12.7877   -0.0182    0.0253    0.0003
C        15.8019    4.4056   12.7477    0.0210   -0.0141    0.0000
C        12.9464    4.4688   12.7613    0.0215    0.0131   -0.0002
C        15.0523    3.2268   12.7611    0.0059    0.0085   -0.0001
C        13.6434    3.2581   12.7682    0.0051   -0.0085    0.0001
H        16.8920    4.3900   12.7428    0.0180   -0.1978    0.0016
H        11.8565    4.5005   12.7666    0.0264    0.1966   -0.0020
H        13.0902    2.3178   12.7803    0.0231   -0.0185   -0.0000
H        15.5632    2.2628   12.7676    0.0257    0.0184   -0.0003
    57
stable frequency at   1277.143 1/cm IR int. is 1.649 a.m.u.; force const. is 1.584 mDyne/Ang.
C        10.3153   10.6255   12.7541    0.0589   -0.0299   -0.0005
C        11.7250   11.0126   12.7436   -0.0293    0.0302    0.0003
C        13.4288   12.6432   12.7402    0.0014    0.0027    0.0000
C        13.8774   14.0347   12.7489    0.0040    0.0018   -0.0000
C        10.2838    9.2117   12.7538   -0.0614   -0.0269    0.0005
C        11.6752    8.7628   12.7434    0.0312    0.0295   -0.0003
C        13.3062    7.0594   12.7390   -0.0039   -0.0006    0.0000
C        13.6935    5.6496   12.7468   -0.0014    0.0079   -0.0001
N        12.1457   12.2786   12.7444   -0.0021   -0.0131   -0.0000
N        12.0400    7.4796   12.7439    0.0024   -0.0136    0.0000
C        15.2912   14.0035   12.7457   -0.0027    0.0046    0.0000
C        15.6785   12.5937   12.7355   -0.0026    0.0012    0.0000
C        17.3094   10.8903   12.7347    0.0288    0.0279    0.0004
C        18.7010   10.4413   12.7487   -0.0573   -0.0254   -0.0007
C        17.2595    8.6406   12.7332   -0.0267    0.0284   -0.0003
C        18.6693    9.0275   12.7476    0.0547   -0.0284    0.0007
C        15.1073    5.6184   12.7412    0.0051   -0.0017    0.0000
C        15.5559    7.0099   12.7320    0.0002    0.0048   -0.0001
N        16.9446   12.1735   12.7365    0.0022   -0.0131   -0.0001
N        16.8391    7.3745   12.7331   -0.0019   -0.0127    0.0001
N        12.4947    9.8701   12.7367   -0.0005   -0.0160   -0.0000
N        14.5362   11.8239   12.7312    0.0004   -0.0035   -0.0000
N        16.4900    9.7831   12.7252   -0.0006   -0.0147   -0.0000
N        14.4485    7.8292   12.7301    0.0014   -0.0035    0.0000
C        13.1827   15.2473   12.7623    0.0033    0.0072    0.0001
Zn       14.4924    9.8265   12.7264   -0.0000    0.0002    0.0000
C        16.0384   15.1842   12.7549   -0.0033    0.0092    0.0001
C        13.9324   16.4262   12.7720   -0.0046   -0.0052   -0.0000
C        15.3413   16.3949   12.7682    0.0032   -0.0059   -0.0001
H        12.0925   15.2624   12.7653    0.0032   -0.0191   -0.0002
H        17.1282   15.1517   12.7524   -0.0047   -0.0315   -0.0003
H        15.8945   17.3351   12.7765    0.0046   -0.0073   -0.0001
H        13.4215   17.3900   12.7831    0.0044   -0.0010    0.0000
C        19.9141   11.1351   12.7666   -0.0385    0.0111   -0.0006
C        19.8494    8.2795   12.7644    0.0390    0.0090    0.0006
C        21.0925   10.3847   12.7838    0.0116    0.0240    0.0002
C        21.0605    8.9757   12.7834   -0.0102    0.0236   -0.0002
H        19.9307   12.2252   12.7677    0.2815    0.0061    0.0042
H        19.8161    7.1897   12.7642   -0.2794    0.0184   -0.0044
H        22.0002    8.4217   12.7979   -0.1349   -0.1864   -0.0021
H        22.0566   10.8949   12.7993    0.1277   -0.1933    0.0021
C         9.0706    8.5177   12.7651   -0.0413    0.0116    0.0004
C         9.1350   11.3733   12.7663    0.0420    0.0094   -0.0004
C         7.8920    9.2680   12.7781    0.0124    0.0258   -0.0001
C         7.9240   10.6769   12.7780   -0.0110    0.0252    0.0001
H         9.0541    7.4277   12.7650    0.3009    0.0063   -0.0031
H         9.1683   12.4630   12.7667   -0.2982    0.0195    0.0031
H         6.9843   11.2312   12.7887   -0.1449   -0.2002    0.0014
H         6.9279    8.7580   12.7877    0.1368   -0.2072   -0.0017
C        15.8019    4.4056   12.7477    0.0028    0.0048   -0.0000
C        12.9464    4.4688   12.7613   -0.0037    0.0115   -0.0001
C        15.0523    3.2268   12.7611   -0.0060   -0.0045    0.0001
C        13.6434    3.2581   12.7682    0.0018   -0.0066    0.0000
H        16.8920    4.3900   12.7428    0.0030   -0.0034   -0.0000
H        11.8565    4.5005   12.7666   -0.0056   -0.0471    0.0004
H        13.0902    2.3178   12.7803    0.0155   -0.0153    0.0001
H        15.5632    2.2628   12.7676    0.0158    0.0065   -0.0002
    57
stable frequency at   1277.215 1/cm IR int. is 1.649 a.m.u.; force const. is 1.585 mDyne/Ang.
C        10.3153   10.6255   12.7541   -0.0072   -0.0017    0.0001
C        11.7250   11.0126   12.7436    0.0003   -0.0036    0.0000
C        13.4288   12.6432   12.7402   -0.0291    0.0305    0.0003
C        13.8774   14.0347   12.7489    0.0266   -0.0606   -0.0006
C        10.2838    9.2117   12.7538    0.0010    0.0049   -0.0000
C        11.6752    8.7628   12.7434   -0.0043    0.0004    0.0000
C        13.3062    7.0594   12.7390   -0.0289   -0.0275    0.0003
C        13.6935    5.6496   12.7468    0.0287    0.0557   -0.0006
N        12.1457   12.2786   12.7444    0.0134    0.0025   -0.0001
N        12.0400    7.4796   12.7439    0.0129   -0.0019   -0.0001
C        15.2912   14.0035   12.7457    0.0296    0.0580    0.0004
C        15.6785   12.5937   12.7355   -0.0299   -0.0290   -0.0002
C        17.3094   10.8903   12.7347   -0.0030    0.0012   -0.0000
C        18.7010   10.4413   12.7487   -0.0012    0.0041   -0.0000
C        17.2595    8.6406   12.7332   -0.0009   -0.0028   -0.0000
C        18.6693    9.0275   12.7476   -0.0051   -0.0025   -0.0001
C        15.1073    5.6184   12.7412    0.0257   -0.0582    0.0003
C        15.5559    7.0099   12.7320   -0.0282    0.0291   -0.0001
N        16.9446   12.1735   12.7365    0.0130   -0.0020    0.0001
N        16.8391    7.3745   12.7331    0.0132    0.0023    0.0000
N        12.4947    9.8701   12.7367    0.0035    0.0011   -0.0000
N        14.5362   11.8239   12.7312    0.0158   -0.0003   -0.0000
N        16.4900    9.7831   12.7252    0.0035    0.0004    0.0000
N        14.4485    7.8292   12.7301    0.0150   -0.0003   -0.0001
C        13.1827   15.2473   12.7623   -0.0115   -0.0408   -0.0004
Zn       14.4924    9.8265   12.7264   -0.0002   -0.0000   -0.0000
C        16.0384   15.1842   12.7549   -0.0093    0.0414    0.0005
C        13.9324   16.4262   12.7720   -0.0254    0.0122    0.0002
C        15.3413   16.3949   12.7682   -0.0250   -0.0108   -0.0000
H        12.0925   15.2624   12.7653   -0.0067    0.2965    0.0030
H        17.1282   15.1517   12.7524   -0.0190   -0.2946   -0.0029
H        15.8945   17.3351   12.7765    0.1973   -0.1426   -0.0018
H        13.4215   17.3900   12.7831    0.2046    0.1352    0.0010
C        19.9141   11.1351   12.7666   -0.0068    0.0032   -0.0001
C        19.8494    8.2795   12.7644   -0.0096   -0.0033   -0.0002
C        21.0925   10.3847   12.7838    0.0051   -0.0048    0.0001
C        21.0605    8.9757   12.7834    0.0061    0.0029    0.0001
H        19.9307   12.2252   12.7677    0.0166    0.0031    0.0002
H        19.8161    7.1897   12.7642    0.0341   -0.0049    0.0005
H        22.0002    8.4217   12.7979    0.0087    0.0064    0.0002
H        22.0566   10.8949   12.7993   -0.0003    0.0064   -0.0001
C         9.0706    8.5177   12.7651   -0.0053    0.0029    0.0001
C         9.1350   11.3733   12.7663   -0.0111   -0.0036    0.0001
C         7.8920    9.2680   12.7781    0.0047   -0.0057   -0.0001
C         7.9240   10.6769   12.7780    0.0065    0.0021   -0.0001
H         9.0541    7.4277   12.7650    0.0068    0.0030   -0.0001
H         9.1683   12.4630   12.7667    0.0438   -0.0055   -0.0005
H         6.9843   11.2312   12.7887    0.0137    0.0133   -0.0002
H         6.9279    8.7580   12.7877   -0.0049    0.0134    0.0001
C        15.8019    4.4056   12.7477   -0.0112   -0.0392    0.0004
C        12.9464    4.4688   12.7613   -0.0091    0.0396   -0.0003
C        15.0523    3.2268   12.7611   -0.0244    0.0118    0.0000
C        13.6434    3.2581   12.7682   -0.0240   -0.0103    0.0002
H        16.8920    4.3900   12.7428   -0.0064    0.2858   -0.0023
H        11.8565    4.5005   12.7666   -0.0182   -0.2837    0.0027
H        13.0902    2.3178   12.7803    0.1892   -0.1368    0.0001
H        15.5632    2.2628   12.7676    0.1965    0.1299   -0.0022
    57
stable frequency at   1277.821 1/cm IR int. is 1.680 a.m.u.; force const. is 1.616 mDyne/Ang.
C        10.3153   10.6255   12.7541   -0.0402    0.0156    0.0004
C        11.7250   11.0126   12.7436    0.0240   -0.0161   -0.0002
C        13.4288   12.6432   12.7402   -0.0155    0.0249    0.0002
C        13.8774   14.0347   12.7489    0.0142   -0.0421   -0.0004
C        10.2838    9.2117   12.7538    0.0418    0.0134   -0.0003
C        11.6752    8.7628   12.7434   -0.0251   -0.0155    0.0002
C        13.3062    7.0594   12.7390    0.0180    0.0262   -0.0003
C        13.6935    5.6496   12.7468   -0.0173   -0.0438    0.0004
N        12.1457   12.2786   12.7444    0.0033    0.0029   -0.0000
N        12.0400    7.4796   12.7439   -0.0037    0.0033    0.0000
C        15.2912   14.0035   12.7457    0.0156    0.0414    0.0003
C        15.6785   12.5937   12.7355   -0.0168   -0.0248   -0.0002
C        17.3094   10.8903   12.7347    0.0280    0.0180    0.0003
C        18.7010   10.4413   12.7487   -0.0470   -0.0158   -0.0006
C        17.2595    8.6406   12.7332   -0.0263    0.0187   -0.0003
C        18.6693    9.0275   12.7476    0.0454   -0.0181    0.0005
C        15.1073    5.6184   12.7412   -0.0151    0.0452   -0.0002
C        15.5559    7.0099   12.7320    0.0172   -0.0261    0.0001
N        16.9446   12.1735   12.7365    0.0032   -0.0043   -0.0000
N        16.8391    7.3745   12.7331   -0.0042   -0.0041    0.0000
N        12.4947    9.8701   12.7367    0.0003    0.0134    0.0000
N        14.5362   11.8239   12.7312    0.0135    0.0000   -0.0000
N        16.4900    9.7831   12.7252   -0.0007   -0.0148   -0.0000
N        14.4485    7.8292   12.7301   -0.0142   -0.0002    0.0001
C        13.1827   15.2473   12.7623   -0.0057   -0.0281   -0.0003
Zn       14.4924    9.8265   12.7264    0.0000    0.0000   -0.0000
C        16.0384   15.1842   12.7549   -0.0047    0.0300    0.0003
C        13.9324   16.4262   12.7720   -0.0174    0.0085    0.0001
C        15.3413   16.3949   12.7682   -0.0164   -0.0087   -0.0000
H        12.0925   15.2624   12.7653   -0.0026    0.1893    0.0019
H        17.1282   15.1517   12.7524   -0.0112   -0.1912   -0.0019
H        15.8945   17.3351   12.7765    0.1361   -0.0989   -0.0013
H        13.4215   17.3900   12.7831    0.1391    0.0919    0.0007
C        19.9141   11.1351   12.7666   -0.0313    0.0067   -0.0005
C        19.8494    8.2795   12.7644    0.0329    0.0054    0.0005
C        21.0925   10.3847   12.7838    0.0097    0.0192    0.0001
C        21.0605    8.9757   12.7834   -0.0093    0.0183   -0.0001
H        19.9307   12.2252   12.7677    0.2121    0.0029    0.0032
H        19.8161    7.1897   12.7642   -0.2126    0.0126   -0.0033
H        22.0002    8.4217   12.7979   -0.1095   -0.1506   -0.0017
H        22.0566   10.8949   12.7993    0.1022   -0.1547    0.0018
C         9.0706    8.5177   12.7651    0.0282   -0.0058   -0.0003
C         9.1350   11.3733   12.7663   -0.0289   -0.0044    0.0003
C         7.8920    9.2680   12.7781   -0.0088   -0.0168    0.0001
C         7.9240   10.6769   12.7780    0.0081   -0.0163   -0.0001
H         9.0541    7.4277   12.7650   -0.1875   -0.0025    0.0019
H         9.1683   12.4630   12.7667    0.1851   -0.0107   -0.0019
H         6.9843   11.2312   12.7887    0.0967    0.1333   -0.0008
H         6.9279    8.7580   12.7877   -0.0904    0.1366    0.0012
C        15.8019    4.4056   12.7477    0.0066    0.0307   -0.0003
C        12.9464    4.4688   12.7613    0.0049   -0.0312    0.0003
C        15.0523    3.2268   12.7611    0.0182   -0.0096   -0.0000
C        13.6434    3.2581   12.7682    0.0179    0.0087   -0.0002
H        16.8920    4.3900   12.7428    0.0031   -0.2055    0.0016
H        11.8565    4.5005   12.7666    0.0116    0.2029   -0.0019
H        13.0902    2.3178   12.7803   -0.1451    0.1051   -0.0000
H        15.5632    2.2628   12.7676   -0.1485   -0.0985    0.0017
    57
stable frequency at   1284.349 1/cm IR int. is 1.787 a.m.u.; force const. is 1.737 mDyne/Ang.
C        10.3153   10.6255   12.7541    0.0393   -0.0158   -0.0003
C        11.7250   11.0126   12.7436   -0.0299    0.0213    0.0003
C        13.4288   12.6432   12.7402   -0.0208    0.0334    0.0003
C        13.8774   14.0347   12.7489    0.0135   -0.0422   -0.0004
C        10.2838    9.2117   12.7538   -0.0415   -0.0134    0.0003
C        11.6752    8.7628   12.7434    0.0330    0.0204   -0.0003
C        13.3062    7.0594   12.7390    0.0217    0.0305   -0.0003
C        13.6935    5.6496   12.7468   -0.0161   -0.0402    0.0004
N        12.1457   12.2786   12.7444    0.0079   -0.0080   -0.0001
N        12.0400    7.4796   12.7439   -0.0081   -0.0078    0.0001
C        15.2912   14.0035   12.7457    0.0161    0.0400    0.0003
C        15.6785   12.5937   12.7355   -0.0214   -0.0304   -0.0002
C        17.3094   10.8903   12.7347   -0.0334   -0.0207   -0.0004
C        18.7010   10.4413   12.7487    0.0421    0.0135    0.0005
C        17.2595    8.6406   12.7332    0.0301   -0.0215    0.0003
C        18.6693    9.0275   12.7476   -0.0398    0.0161   -0.0005
C        15.1073    5.6184   12.7412   -0.0136    0.0424   -0.0002
C        15.5559    7.0099   12.7320    0.0208   -0.0335    0.0002
N        16.9446   12.1735   12.7365    0.0081    0.0079    0.0001
N        16.8391    7.3745   12.7331   -0.0079    0.0081   -0.0001
N        12.4947    9.8701   12.7367   -0.0013   -0.0202    0.0000
N        14.5362   11.8239   12.7312    0.0204   -0.0013   -0.0000
N        16.4900    9.7831   12.7252    0.0014    0.0204    0.0000
N        14.4485    7.8292   12.7301   -0.0205    0.0013    0.0001
C        13.1827   15.2473   12.7623   -0.0046   -0.0299   -0.0003
Zn       14.4924    9.8265   12.7264   -0.0000   -0.0000    0.0000
C        16.0384   15.1842   12.7549   -0.0031    0.0303    0.0003
C        13.9324   16.4262   12.7720   -0.0179    0.0079    0.0001
C        15.3413   16.3949   12.7682   -0.0175   -0.0068   -0.0000
H        12.0925   15.2624   12.7653   -0.0013    0.1878    0.0019
H        17.1282   15.1517   12.7524   -0.0092   -0.1873   -0.0019
H        15.8945   17.3351   12.7765    0.1402   -0.1002   -0.0013
H        13.4215   17.3900   12.7831    0.1468    0.0958    0.0007
C        19.9141   11.1351   12.7666    0.0297   -0.0046    0.0005
C        19.8494    8.2795   12.7644   -0.0301   -0.0031   -0.0005
C        21.0925   10.3847   12.7838   -0.0079   -0.0179   -0.0001
C        21.0605    8.9757   12.7834    0.0068   -0.0174    0.0001
H        19.9307   12.2252   12.7677   -0.1875   -0.0010   -0.0028
H        19.8161    7.1897   12.7642    0.1867   -0.0093    0.0029
H        22.0002    8.4217   12.7979    0.1000    0.1397    0.0016
H        22.0566   10.8949   12.7993   -0.0954    0.1463   -0.0016
C         9.0706    8.5177   12.7651   -0.0294    0.0045    0.0003
C         9.1350   11.3733   12.7663    0.0298    0.0030   -0.0003
C         7.8920    9.2680   12.7781    0.0077    0.0177   -0.0001
C         7.9240   10.6769   12.7780   -0.0067    0.0171    0.0001
H         9.0541    7.4277   12.7650    0.1851    0.0010   -0.0019
H         9.1683   12.4630   12.7667   -0.1843    0.0092    0.0019
H         6.9843   11.2312   12.7887   -0.0989   -0.1382    0.0009
H         6.9279    8.7580   12.7877    0.0942   -0.1445   -0.0012
C        15.8019    4.4056   12.7477    0.0046    0.0300   -0.0003
C        12.9464    4.4688   12.7613    0.0032   -0.0304    0.0002
C        15.0523    3.2268   12.7611    0.0180   -0.0079   -0.0000
C        13.6434    3.2581   12.7682    0.0175    0.0069   -0.0001
H        16.8920    4.3900   12.7428    0.0012   -0.1889    0.0016
H        11.8565    4.5005   12.7666    0.0091    0.1886   -0.0017
H        13.0902    2.3178   12.7803   -0.1408    0.1006   -0.0001
H        15.5632    2.2628   12.7676   -0.1475   -0.0963    0.0016
    57
stable frequency at   1290.657 1/cm IR int. is 9.800 a.m.u.; force const. is 9.618 mDyne/Ang.
C        10.3153   10.6255   12.7541   -0.0300   -0.0255    0.0002
C        11.7250   11.0126   12.7436    0.0722   -0.0251   -0.0006
C        13.4288   12.6432   12.7402   -0.0210    0.0718    0.0005
C        13.8774   14.0347   12.7489   -0.0268   -0.0277   -0.0001
C        10.2838    9.2117   12.7538   -0.0274    0.0269    0.0002
C        11.6752    8.7628   12.7434    0.0717    0.0211   -0.0005
C        13.3062    7.0594   12.7390   -0.0247   -0.0718    0.0005
C        13.6935    5.6496   12.7468   -0.0254    0.0296   -0.0001
N        12.1457   12.2786   12.7444    0.0017    0.0020   -0.0000
N        12.0400    7.4796   12.7439    0.0018   -0.0017   -0.0000
C        15.2912   14.0035   12.7457    0.0254   -0.0295   -0.0003
C        15.6785   12.5937   12.7355    0.0249    0.0717    0.0005
C        17.3094   10.8903   12.7347   -0.0714   -0.0207   -0.0007
C        18.7010   10.4413   12.7487    0.0272   -0.0268    0.0003
C        17.2595    8.6406   12.7332   -0.0719    0.0250   -0.0007
C        18.6693    9.0275   12.7476    0.0299    0.0253    0.0003
C        15.1073    5.6184   12.7412    0.0268    0.0276   -0.0003
C        15.5559    7.0099   12.7320    0.0211   -0.0716    0.0003
N        16.9446   12.1735   12.7365   -0.0018    0.0016    0.0000
N        16.8391    7.3745   12.7331   -0.0018   -0.0020    0.0000
N        12.4947    9.8701   12.7367   -0.0670    0.0020    0.0005
N        14.5362   11.8239   12.7312   -0.0019   -0.0668   -0.0004
N        16.4900    9.7831   12.7252    0.0667   -0.0020    0.0006
N        14.4485    7.8292   12.7301    0.0019    0.0667   -0.0004
C        13.1827   15.2473   12.7623   -0.0028   -0.0140   -0.0001
Zn       14.4924    9.8265   12.7264    0.0000    0.0000    0.0000
C        16.0384   15.1842   12.7549    0.0021   -0.0147   -0.0002
C        13.9324   16.4262   12.7720    0.0022    0.0122    0.0001
C        15.3413   16.3949   12.7682   -0.0012    0.0123    0.0001
H        12.0925   15.2624   12.7653   -0.0029    0.0227    0.0002
H        17.1282   15.1517   12.7524    0.0038    0.0258    0.0003
H        15.8945   17.3351   12.7765   -0.0366    0.0344    0.0004
H        13.4215   17.3900   12.7831    0.0352    0.0309    0.0003
C        19.9141   11.1351   12.7666    0.0136   -0.0028    0.0002
C        19.8494    8.2795   12.7644    0.0151    0.0020    0.0002
C        21.0925   10.3847   12.7838   -0.0121    0.0024   -0.0002
C        21.0605    8.9757   12.7834   -0.0124   -0.0011   -0.0002
H        19.9307   12.2252   12.7677   -0.0209   -0.0029   -0.0003
H        19.8161    7.1897   12.7642   -0.0275    0.0039   -0.0004
H        22.0002    8.4217   12.7979   -0.0355   -0.0381   -0.0005
H        22.0566   10.8949   12.7993   -0.0297    0.0335   -0.0005
C         9.0706    8.5177   12.7651   -0.0138    0.0028    0.0001
C         9.1350   11.3733   12.7663   -0.0151   -0.0020    0.0002
C         7.8920    9.2680   12.7781    0.0122   -0.0024   -0.0001
C         7.9240   10.6769   12.7780    0.0124    0.0011   -0.0001
H         9.0541    7.4277   12.7650    0.0215    0.0029   -0.0002
H         9.1683   12.4630   12.7667    0.0271   -0.0039   -0.0003
H         6.9843   11.2312   12.7887    0.0354    0.0378   -0.0003
H         6.9279    8.7580   12.7877    0.0301   -0.0340   -0.0004
C        15.8019    4.4056   12.7477    0.0028    0.0140   -0.0001
C        12.9464    4.4688   12.7613   -0.0021    0.0148   -0.0001
C        15.0523    3.2268   12.7611   -0.0022   -0.0122    0.0001
C        13.6434    3.2581   12.7682    0.0012   -0.0124    0.0001
H        16.8920    4.3900   12.7428    0.0029   -0.0227    0.0002
H        11.8565    4.5005   12.7666   -0.0038   -0.0261    0.0003
H        13.0902    2.3178   12.7803    0.0368   -0.0345    0.0000
H        15.5632    2.2628   12.7676   -0.0351   -0.0308    0.0005
    57
stable frequency at   1309.835 1/cm IR int. is 11.573 a.m.u.; force const. is 11.698 mDyne/Ang.
C        10.3153   10.6255   12.7541    0.0134    0.0210   -0.0001
C        11.7250   11.0126   12.7436   -0.0657    0.0540    0.0006
C        13.4288   12.6432   12.7402   -0.0463    0.0246    0.0004
C        13.8774   14.0347   12.7489   -0.0032    0.0003    0.0000
C        10.2838    9.2117   12.7538    0.0240   -0.0365   -0.0002
C        11.6752    8.7628   12.7434   -0.0904   -0.0211    0.0007
C        13.3062    7.0594   12.7390   -0.0029    0.0650   -0.0003
C        13.6935    5.6496   12.7468    0.0284   -0.0222    0.0000
N        12.1457   12.2786   12.7444    0.0318   -0.0233   -0.0003
N        12.0400    7.4796   12.7439    0.0254   -0.0109   -0.0001
C        15.2912   14.0035   12.7457    0.0285   -0.0222   -0.0002
C        15.6785   12.5937   12.7355   -0.0026    0.0652    0.0004
C        17.3094   10.8903   12.7347   -0.0905   -0.0209   -0.0009
C        18.7010   10.4413   12.7487    0.0240   -0.0364    0.0002
C        17.2595    8.6406   12.7332   -0.0658    0.0540   -0.0007
C        18.6693    9.0275   12.7476    0.0135    0.0209    0.0002
C        15.1073    5.6184   12.7412   -0.0031    0.0004    0.0000
C        15.5559    7.0099   12.7320   -0.0462    0.0243   -0.0001
N        16.9446   12.1735   12.7365    0.0253   -0.0111    0.0001
N        16.8391    7.3745   12.7331    0.0318   -0.0232    0.0002
N        12.4947    9.8701   12.7367    0.0863    0.0029   -0.0006
N        14.5362   11.8239   12.7312   -0.0101   -0.0486   -0.0003
N        16.4900    9.7831   12.7252    0.0864    0.0029    0.0008
N        14.4485    7.8292   12.7301   -0.0100   -0.0483    0.0003
C        13.1827   15.2473   12.7623   -0.0038    0.0028    0.0000
Zn       14.4924    9.8265   12.7264   -0.0012    0.0007    0.0000
C        16.0384   15.1842   12.7549   -0.0072   -0.0082   -0.0001
C        13.9324   16.4262   12.7720    0.0013   -0.0012   -0.0000
C        15.3413   16.3949   12.7682    0.0010    0.0060    0.0001
H        12.0925   15.2624   12.7653   -0.0042    0.0023    0.0000
H        17.1282   15.1517   12.7524   -0.0078   -0.0229   -0.0002
H        15.8945   17.3351   12.7765   -0.0254    0.0214    0.0003
H        13.4215   17.3900   12.7831   -0.0041   -0.0038   -0.0000
C        19.9141   11.1351   12.7666    0.0081    0.0056    0.0001
C        19.8494    8.2795   12.7644    0.0024    0.0003    0.0000
C        21.0925   10.3847   12.7838   -0.0064    0.0002   -0.0001
C        21.0605    8.9757   12.7834   -0.0024   -0.0009   -0.0000
H        19.9307   12.2252   12.7677    0.0265    0.0052    0.0004
H        19.8161    7.1897   12.7642    0.0092    0.0005    0.0001
H        22.0002    8.4217   12.7979   -0.0093   -0.0123   -0.0001
H        22.0566   10.8949   12.7993   -0.0206    0.0270   -0.0003
C         9.0706    8.5177   12.7651    0.0083    0.0056   -0.0001
C         9.1350   11.3733   12.7663    0.0024    0.0003   -0.0000
C         7.8920    9.2680   12.7781   -0.0065    0.0001    0.0001
C         7.9240   10.6769   12.7780   -0.0025   -0.0010    0.0000
H         9.0541    7.4277   12.7650    0.0260    0.0052   -0.0003
H         9.1683   12.4630   12.7667    0.0095    0.0005   -0.0001
H         6.9843   11.2312   12.7887   -0.0090   -0.0118    0.0001
H         6.9279    8.7580   12.7877   -0.0208    0.0273    0.0003
C        15.8019    4.4056   12.7477   -0.0038    0.0028   -0.0000
C        12.9464    4.4688   12.7613   -0.0072   -0.0082    0.0001
C        15.0523    3.2268   12.7611    0.0013   -0.0013    0.0000
C        13.6434    3.2581   12.7682    0.0011    0.0060   -0.0001
H        16.8920    4.3900   12.7428   -0.0043    0.0024    0.0000
H        11.8565    4.5005   12.7666   -0.0078   -0.0228    0.0003
H        13.0902    2.3178   12.7803   -0.0254    0.0214   -0.0000
H        15.5632    2.2628   12.7676   -0.0042   -0.0039    0.0001
    57
stable frequency at   1309.979 1/cm IR int. is 11.572 a.m.u.; force const. is 11.700 mDyne/Ang.
C        10.3153   10.6255   12.7541   -0.0222   -0.0286    0.0002
C        11.7250   11.0126   12.7436    0.0652    0.0027   -0.0005
C        13.4288   12.6432   12.7402   -0.0211    0.0903    0.0006
C        13.8774   14.0347   12.7489   -0.0364   -0.0241   -0.0001
C        10.2838    9.2117   12.7538    0.0004    0.0032    0.0000
C        11.6752    8.7628   12.7434    0.0244    0.0463   -0.0003
C        13.3062    7.0594   12.7390    0.0540    0.0659   -0.0006
C        13.6935    5.6496   12.7468    0.0210   -0.0135   -0.0000
N        12.1457   12.2786   12.7444   -0.0109   -0.0252   -0.0000
N        12.0400    7.4796   12.7439   -0.0232   -0.0319    0.0002
C        15.2912   14.0035   12.7457    0.0209   -0.0134   -0.0001
C        15.6785   12.5937   12.7355    0.0538    0.0657    0.0005
C        17.3094   10.8903   12.7347    0.0245    0.0463    0.0004
C        18.7010   10.4413   12.7487    0.0003    0.0032    0.0000
C        17.2595    8.6406   12.7332    0.0653    0.0027    0.0006
C        18.6693    9.0275   12.7476   -0.0223   -0.0286   -0.0003
C        15.1073    5.6184   12.7412   -0.0365   -0.0241    0.0003
C        15.5559    7.0099   12.7320   -0.0212    0.0905   -0.0004
N        16.9446   12.1735   12.7365   -0.0231   -0.0319   -0.0002
N        16.8391    7.3745   12.7331   -0.0109   -0.0253    0.0000
N        12.4947    9.8701   12.7367   -0.0484    0.0100    0.0004
N        14.5362   11.8239   12.7312    0.0029   -0.0862   -0.0006
N        16.4900    9.7831   12.7252   -0.0485    0.0100   -0.0004
N        14.4485    7.8292   12.7301    0.0029   -0.0864    0.0005
C        13.1827   15.2473   12.7623    0.0056   -0.0083   -0.0001
Zn       14.4924    9.8265   12.7264    0.0007    0.0012   -0.0000
C        16.0384   15.1842   12.7549    0.0003   -0.0024   -0.0000
C        13.9324   16.4262   12.7720    0.0001    0.0065    0.0001
C        15.3413   16.3949   12.7682   -0.0010    0.0024    0.0000
H        12.0925   15.2624   12.7653    0.0052   -0.0258   -0.0003
H        17.1282   15.1517   12.7524    0.0005   -0.0095   -0.0001
H        15.8945   17.3351   12.7765   -0.0118    0.0090    0.0001
H        13.4215   17.3900   12.7831    0.0274    0.0209    0.0002
C        19.9141   11.1351   12.7666    0.0027    0.0039    0.0000
C        19.8494    8.2795   12.7644   -0.0084    0.0072   -0.0001
C        21.0925   10.3847   12.7838   -0.0012   -0.0014   -0.0000
C        21.0605    8.9757   12.7834    0.0061   -0.0010    0.0001
H        19.9307   12.2252   12.7677    0.0024    0.0043    0.0000
H        19.8161    7.1897   12.7642   -0.0224    0.0078   -0.0003
H        22.0002    8.4217   12.7979    0.0217    0.0257    0.0003
H        22.0566   10.8949   12.7993   -0.0039    0.0043   -0.0001
C         9.0706    8.5177   12.7651    0.0027    0.0039   -0.0000
C         9.1350   11.3733   12.7663   -0.0084    0.0072    0.0001
C         7.8920    9.2680   12.7781   -0.0012   -0.0014    0.0000
C         7.9240   10.6769   12.7780    0.0061   -0.0010   -0.0001
H         9.0541    7.4277   12.7650    0.0024    0.0043   -0.0000
H         9.1683   12.4630   12.7667   -0.0224    0.0078    0.0002
H         6.9843   11.2312   12.7887    0.0216    0.0256   -0.0002
H         6.9279    8.7580   12.7877   -0.0040    0.0044    0.0001
C        15.8019    4.4056   12.7477    0.0056   -0.0083    0.0000
C        12.9464    4.4688   12.7613    0.0003   -0.0024    0.0000
C        15.0523    3.2268   12.7611    0.0001    0.0065   -0.0001
C        13.6434    3.2581   12.7682   -0.0010    0.0025   -0.0000
H        16.8920    4.3900   12.7428    0.0052   -0.0258    0.0002
H        11.8565    4.5005   12.7666    0.0005   -0.0096    0.0001
H        13.0902    2.3178   12.7803   -0.0118    0.0090   -0.0000
H        15.5632    2.2628   12.7676    0.0275    0.0210   -0.0003
    57
stable frequency at   1347.849 1/cm IR int. is 11.399 a.m.u.; force const. is 12.201 mDyne/Ang.
C        10.3153   10.6255   12.7541    0.0045   -0.0440   -0.0001
C        11.7250   11.0126   12.7436    0.0506   -0.0325   -0.0004
C        13.4288   12.6432   12.7402    0.0304   -0.0523   -0.0004
C        13.8774   14.0347   12.7489    0.0434   -0.0058   -0.0002
C        10.2838    9.2117   12.7538    0.0059    0.0433   -0.0001
C        11.6752    8.7628   12.7434    0.0521    0.0302   -0.0004
C        13.3062    7.0594   12.7390    0.0324    0.0509   -0.0004
C        13.6935    5.6496   12.7468    0.0440    0.0044   -0.0003
N        12.1457   12.2786   12.7444   -0.0179    0.0187    0.0002
N        12.0400    7.4796   12.7439   -0.0186   -0.0180    0.0002
C        15.2912   14.0035   12.7457   -0.0440   -0.0044    0.0000
C        15.6785   12.5937   12.7355   -0.0324   -0.0509   -0.0003
C        17.3094   10.8903   12.7347   -0.0523   -0.0302   -0.0005
C        18.7010   10.4413   12.7487   -0.0059   -0.0434   -0.0001
C        17.2595    8.6406   12.7332   -0.0508    0.0326   -0.0005
C        18.6693    9.0275   12.7476   -0.0045    0.0441   -0.0001
C        15.1073    5.6184   12.7412   -0.0433    0.0058    0.0001
C        15.5559    7.0099   12.7320   -0.0304    0.0523   -0.0002
N        16.9446   12.1735   12.7365    0.0187    0.0179    0.0001
N        16.8391    7.3745   12.7331    0.0180   -0.0187    0.0001
N        12.4947    9.8701   12.7367   -0.0643    0.0015    0.0005
N        14.5362   11.8239   12.7312    0.0014    0.0646    0.0004
N        16.4900    9.7831   12.7252    0.0646   -0.0015    0.0005
N        14.4485    7.8292   12.7301   -0.0014   -0.0645    0.0003
C        13.1827   15.2473   12.7623    0.0013    0.0287    0.0003
Zn       14.4924    9.8265   12.7264   -0.0000   -0.0000   -0.0000
C        16.0384   15.1842   12.7549    0.0005    0.0284    0.0003
C        13.9324   16.4262   12.7720   -0.0298   -0.0153   -0.0001
C        15.3413   16.3949   12.7682    0.0289   -0.0160   -0.0002
H        12.0925   15.2624   12.7653    0.0013    0.0025    0.0000
H        17.1282   15.1517   12.7524   -0.0005    0.0043    0.0001
H        15.8945   17.3351   12.7765   -0.0268    0.0170    0.0003
H        13.4215   17.3900   12.7831    0.0283    0.0158    0.0001
C        19.9141   11.1351   12.7666    0.0287   -0.0013    0.0004
C        19.8494    8.2795   12.7644    0.0285   -0.0005    0.0004
C        21.0925   10.3847   12.7838   -0.0153    0.0300   -0.0002
C        21.0605    8.9757   12.7834   -0.0160   -0.0289   -0.0003
H        19.9307   12.2252   12.7677    0.0028   -0.0013    0.0001
H        19.8161    7.1897   12.7642    0.0045    0.0005    0.0001
H        22.0002    8.4217   12.7979    0.0170    0.0267    0.0003
H        22.0566   10.8949   12.7993    0.0159   -0.0286    0.0003
C         9.0706    8.5177   12.7651   -0.0287    0.0013    0.0003
C         9.1350   11.3733   12.7663   -0.0284    0.0005    0.0003
C         7.8920    9.2680   12.7781    0.0153   -0.0299   -0.0002
C         7.9240   10.6769   12.7780    0.0159    0.0288   -0.0002
H         9.0541    7.4277   12.7650   -0.0025    0.0013    0.0001
H         9.1683   12.4630   12.7667   -0.0044   -0.0005    0.0001
H         6.9843   11.2312   12.7887   -0.0171   -0.0268    0.0002
H         6.9279    8.7580   12.7877   -0.0159    0.0287    0.0002
C        15.8019    4.4056   12.7477   -0.0012   -0.0287    0.0002
C        12.9464    4.4688   12.7613   -0.0005   -0.0284    0.0003
C        15.0523    3.2268   12.7611    0.0298    0.0152   -0.0003
C        13.6434    3.2581   12.7682   -0.0288    0.0160    0.0000
H        16.8920    4.3900   12.7428   -0.0013   -0.0026    0.0001
H        11.8565    4.5005   12.7666    0.0005   -0.0043    0.0000
H        13.0902    2.3178   12.7803    0.0268   -0.0169    0.0000
H        15.5632    2.2628   12.7676   -0.0283   -0.0158    0.0003
    57
stable frequency at   1365.924 1/cm IR int. is 7.936 a.m.u.; force const. is 8.724 mDyne/Ang.
C        10.3153   10.6255   12.7541   -0.0355    0.0559    0.0004
C        11.7250   11.0126   12.7436   -0.0111   -0.0049    0.0000
C        13.4288   12.6432   12.7402    0.0250    0.0293    0.0000
C        13.8774   14.0347   12.7489   -0.0277    0.0036    0.0001
C        10.2838    9.2117   12.7538   -0.0418   -0.0456    0.0004
C        11.6752    8.7628   12.7434    0.0064   -0.0117   -0.0000
C        13.3062    7.0594   12.7390    0.0259   -0.0287    0.0000
C        13.6935    5.6496   12.7468    0.0042    0.0207   -0.0002
N        12.1457   12.2786   12.7444   -0.0158   -0.0073    0.0001
N        12.0400    7.4796   12.7439   -0.0241    0.0210    0.0001
C        15.2912   14.0035   12.7457    0.0043    0.0207    0.0002
C        15.6785   12.5937   12.7355    0.0257   -0.0287   -0.0001
C        17.3094   10.8903   12.7347    0.0065   -0.0118    0.0000
C        18.7010   10.4413   12.7487   -0.0419   -0.0456   -0.0006
C        17.2595    8.6406   12.7332   -0.0111   -0.0049   -0.0001
C        18.6693    9.0275   12.7476   -0.0355    0.0559   -0.0005
C        15.1073    5.6184   12.7412   -0.0277    0.0036    0.0001
C        15.5559    7.0099   12.7320    0.0251    0.0293   -0.0001
N        16.9446   12.1735   12.7365   -0.0241    0.0210    0.0000
N        16.8391    7.3745   12.7331   -0.0159   -0.0073   -0.0000
N        12.4947    9.8701   12.7367    0.0191   -0.0020   -0.0001
N        14.5362   11.8239   12.7312    0.0054   -0.0062   -0.0000
N        16.4900    9.7831   12.7252    0.0191   -0.0019    0.0001
N        14.4485    7.8292   12.7301    0.0053   -0.0061    0.0000
C        13.1827   15.2473   12.7623    0.0033   -0.0291   -0.0003
Zn       14.4924    9.8265   12.7264   -0.0009    0.0003    0.0000
C        16.0384   15.1842   12.7549    0.0090   -0.0134   -0.0001
C        13.9324   16.4262   12.7720    0.0187    0.0118    0.0001
C        15.3413   16.3949   12.7682   -0.0260    0.0113    0.0002
H        12.0925   15.2624   12.7653    0.0046    0.0165    0.0001
H        17.1282   15.1517   12.7524    0.0104    0.0073    0.0000
H        15.8945   17.3351   12.7765    0.0530   -0.0348   -0.0005
H        13.4215   17.3900   12.7831    0.0070    0.0052    0.0000
C        19.9141   11.1351   12.7666    0.0655   -0.0126    0.0009
C        19.8494    8.2795   12.7644    0.0698    0.0041    0.0010
C        21.0925   10.3847   12.7838   -0.0354    0.0747   -0.0005
C        21.0605    8.9757   12.7834   -0.0377   -0.0698   -0.0006
H        19.9307   12.2252   12.7677   -0.0382   -0.0118   -0.0004
H        19.8161    7.1897   12.7642   -0.0363    0.0073   -0.0004
H        22.0002    8.4217   12.7979    0.0416    0.0645    0.0008
H        22.0566   10.8949   12.7993    0.0505   -0.0879    0.0009
C         9.0706    8.5177   12.7651    0.0655   -0.0127   -0.0007
C         9.1350   11.3733   12.7663    0.0697    0.0041   -0.0007
C         7.8920    9.2680   12.7781   -0.0355    0.0746    0.0004
C         7.9240   10.6769   12.7780   -0.0376   -0.0696    0.0004
H         9.0541    7.4277   12.7650   -0.0383   -0.0118    0.0003
H         9.1683   12.4630   12.7667   -0.0361    0.0073    0.0003
H         6.9843   11.2312   12.7887    0.0414    0.0641   -0.0005
H         6.9279    8.7580   12.7877    0.0504   -0.0880   -0.0007
C        15.8019    4.4056   12.7477    0.0034   -0.0291    0.0002
C        12.9464    4.4688   12.7613    0.0090   -0.0133    0.0001
C        15.0523    3.2268   12.7611    0.0186    0.0118   -0.0002
C        13.6434    3.2581   12.7682   -0.0259    0.0112    0.0000
H        16.8920    4.3900   12.7428    0.0046    0.0167   -0.0001
H        11.8565    4.5005   12.7666    0.0104    0.0075   -0.0002
H        13.0902    2.3178   12.7803    0.0529   -0.0347    0.0000
H        15.5632    2.2628   12.7676    0.0073    0.0054   -0.0001
    57
stable frequency at   1365.990 1/cm IR int. is 7.939 a.m.u.; force const. is 8.728 mDyne/Ang.
C        10.3153   10.6255   12.7541    0.0208   -0.0042   -0.0002
C        11.7250   11.0126   12.7436   -0.0288   -0.0257    0.0001
C        13.4288   12.6432   12.7402   -0.0117   -0.0065   -0.0000
C        13.8774   14.0347   12.7489   -0.0457    0.0419    0.0005
C        10.2838    9.2117   12.7538    0.0037    0.0277   -0.0000
C        11.6752    8.7628   12.7434    0.0292   -0.0252   -0.0001
C        13.3062    7.0594   12.7390   -0.0050    0.0112   -0.0000
C        13.6935    5.6496   12.7468    0.0559    0.0354   -0.0005
N        12.1457   12.2786   12.7444    0.0210    0.0240   -0.0000
N        12.0400    7.4796   12.7439   -0.0073    0.0159   -0.0000
C        15.2912   14.0035   12.7457    0.0560    0.0355    0.0002
C        15.6785   12.5937   12.7355   -0.0051    0.0111    0.0000
C        17.3094   10.8903   12.7347    0.0292   -0.0253    0.0001
C        18.7010   10.4413   12.7487    0.0036    0.0276    0.0001
C        17.2595    8.6406   12.7332   -0.0288   -0.0257   -0.0002
C        18.6693    9.0275   12.7476    0.0207   -0.0041    0.0003
C        15.1073    5.6184   12.7412   -0.0457    0.0418   -0.0001
C        15.5559    7.0099   12.7320   -0.0118   -0.0064    0.0001
N        16.9446   12.1735   12.7365   -0.0073    0.0160    0.0000
N        16.8391    7.3745   12.7331    0.0211    0.0240   -0.0000
N        12.4947    9.8701   12.7367   -0.0061   -0.0053    0.0000
N        14.5362   11.8239   12.7312   -0.0019   -0.0191   -0.0001
N        16.4900    9.7831   12.7252   -0.0060   -0.0053   -0.0000
N        14.4485    7.8292   12.7301   -0.0019   -0.0191    0.0001
C        13.1827   15.2473   12.7623   -0.0126   -0.0655   -0.0006
Zn       14.4924    9.8265   12.7264    0.0003    0.0009   -0.0000
C        16.0384   15.1842   12.7549    0.0042   -0.0698   -0.0007
C        13.9324   16.4262   12.7720    0.0746    0.0354    0.0002
C        15.3413   16.3949   12.7682   -0.0698    0.0377    0.0006
H        12.0925   15.2624   12.7653   -0.0118    0.0381    0.0004
H        17.1282   15.1517   12.7524    0.0073    0.0362    0.0002
H        15.8945   17.3351   12.7765    0.0647   -0.0415   -0.0007
H        13.4215   17.3900   12.7831   -0.0877   -0.0505   -0.0003
C        19.9141   11.1351   12.7666   -0.0291   -0.0033   -0.0004
C        19.8494    8.2795   12.7644   -0.0133   -0.0090   -0.0002
C        21.0925   10.3847   12.7838    0.0118   -0.0186    0.0002
C        21.0605    8.9757   12.7834    0.0112    0.0259    0.0002
H        19.9307   12.2252   12.7677    0.0166   -0.0046    0.0002
H        19.8161    7.1897   12.7642    0.0074   -0.0104    0.0001
H        22.0002    8.4217   12.7979   -0.0348   -0.0528   -0.0006
H        22.0566   10.8949   12.7993    0.0053   -0.0071    0.0001
C         9.0706    8.5177   12.7651   -0.0292   -0.0033    0.0003
C         9.1350   11.3733   12.7663   -0.0134   -0.0090    0.0001
C         7.8920    9.2680   12.7781    0.0119   -0.0187   -0.0001
C         7.9240   10.6769   12.7780    0.0112    0.0260   -0.0001
H         9.0541    7.4277   12.7650    0.0167   -0.0046   -0.0001
H         9.1683   12.4630   12.7667    0.0073   -0.0104   -0.0001
H         6.9843   11.2312   12.7887   -0.0348   -0.0529    0.0004
H         6.9279    8.7580   12.7877    0.0053   -0.0070   -0.0001
C        15.8019    4.4056   12.7477   -0.0125   -0.0654    0.0006
C        12.9464    4.4688   12.7613    0.0042   -0.0698    0.0006
C        15.0523    3.2268   12.7611    0.0745    0.0354   -0.0007
C        13.6434    3.2581   12.7682   -0.0697    0.0377    0.0000
H        16.8920    4.3900   12.7428   -0.0118    0.0380   -0.0000
H        11.8565    4.5005   12.7666    0.0072    0.0366   -0.0004
H        13.0902    2.3178   12.7803    0.0645   -0.0414    0.0001
H        15.5632    2.2628   12.7676   -0.0876   -0.0504    0.0010
    57
stable frequency at   1374.702 1/cm IR int. is 6.689 a.m.u.; force const. is 7.447 mDyne/Ang.
C        10.3153   10.6255   12.7541    0.0370   -0.0445   -0.0004
C        11.7250   11.0126   12.7436   -0.0133    0.0002    0.0001
C        13.4288   12.6432   12.7402   -0.0013   -0.0128   -0.0001
C        13.8774   14.0347   12.7489   -0.0421    0.0378    0.0004
C        10.2838    9.2117   12.7538    0.0379    0.0421   -0.0003
C        11.6752    8.7628   12.7434   -0.0129    0.0013    0.0001
C        13.3062    7.0594   12.7390   -0.0001    0.0133   -0.0001
C        13.6935    5.6496   12.7468   -0.0445   -0.0369    0.0005
N        12.1457   12.2786   12.7444    0.0056    0.0051   -0.0000
N        12.0400    7.4796   12.7439    0.0052   -0.0056   -0.0000
C        15.2912   14.0035   12.7457    0.0444    0.0368    0.0002
C        15.6785   12.5937   12.7355   -0.0000   -0.0132   -0.0001
C        17.3094   10.8903   12.7347    0.0129   -0.0012    0.0001
C        18.7010   10.4413   12.7487   -0.0379   -0.0421   -0.0005
C        17.2595    8.6406   12.7332    0.0134   -0.0001    0.0001
C        18.6693    9.0275   12.7476   -0.0369    0.0444   -0.0005
C        15.1073    5.6184   12.7412    0.0423   -0.0378    0.0001
C        15.5559    7.0099   12.7320    0.0012    0.0127   -0.0001
N        16.9446   12.1735   12.7365   -0.0052    0.0056   -0.0000
N        16.8391    7.3745   12.7331   -0.0056   -0.0051   -0.0000
N        12.4947    9.8701   12.7367   -0.0064   -0.0001    0.0001
N        14.5362   11.8239   12.7312    0.0001   -0.0065   -0.0000
N        16.4900    9.7831   12.7252    0.0064    0.0001    0.0001
N        14.4485    7.8292   12.7301   -0.0001    0.0065   -0.0000
C        13.1827   15.2473   12.7623   -0.0058   -0.0423   -0.0004
Zn       14.4924    9.8265   12.7264    0.0000   -0.0000   -0.0000
C        16.0384   15.1842   12.7549    0.0031   -0.0418   -0.0004
C        13.9324   16.4262   12.7720    0.0623    0.0225    0.0001
C        15.3413   16.3949   12.7682   -0.0607    0.0242    0.0004
H        12.0925   15.2624   12.7653   -0.0058   -0.0155   -0.0001
H        17.1282   15.1517   12.7524    0.0041   -0.0184   -0.0003
H        15.8945   17.3351   12.7765    0.0735   -0.0561   -0.0008
H        13.4215   17.3900   12.7831   -0.0780   -0.0532   -0.0004
C        19.9141   11.1351   12.7666    0.0425   -0.0058    0.0006
C        19.8494    8.2795   12.7644    0.0419    0.0030    0.0006
C        21.0925   10.3847   12.7838   -0.0226    0.0624   -0.0003
C        21.0605    8.9757   12.7834   -0.0242   -0.0608   -0.0004
H        19.9307   12.2252   12.7677    0.0152   -0.0058    0.0003
H        19.8161    7.1897   12.7642    0.0183    0.0040    0.0004
H        22.0002    8.4217   12.7979    0.0563    0.0735    0.0010
H        22.0566   10.8949   12.7993    0.0531   -0.0781    0.0009
C         9.0706    8.5177   12.7651   -0.0426    0.0059    0.0004
C         9.1350   11.3733   12.7663   -0.0419   -0.0030    0.0004
C         7.8920    9.2680   12.7781    0.0227   -0.0626   -0.0003
C         7.9240   10.6769   12.7780    0.0242    0.0608   -0.0002
H         9.0541    7.4277   12.7650   -0.0151    0.0059    0.0002
H         9.1683   12.4630   12.7667   -0.0183   -0.0040    0.0002
H         6.9843   11.2312   12.7887   -0.0562   -0.0732    0.0006
H         6.9279    8.7580   12.7877   -0.0532    0.0784    0.0007
C        15.8019    4.4056   12.7477    0.0058    0.0425   -0.0004
C        12.9464    4.4688   12.7613   -0.0031    0.0420   -0.0004
C        15.0523    3.2268   12.7611   -0.0624   -0.0226    0.0005
C        13.6434    3.2581   12.7682    0.0608   -0.0243   -0.0001
H        16.8920    4.3900   12.7428    0.0058    0.0153   -0.0003
H        11.8565    4.5005   12.7666   -0.0041    0.0180   -0.0001
H        13.0902    2.3178   12.7803   -0.0736    0.0561   -0.0001
H        15.5632    2.2628   12.7676    0.0781    0.0531   -0.0009
    57
stable frequency at   1395.776 1/cm IR int. is 5.531 a.m.u.; force const. is 6.349 mDyne/Ang.
C        10.3153   10.6255   12.7541   -0.0378    0.0303    0.0003
C        11.7250   11.0126   12.7436    0.0450   -0.0209   -0.0003
C        13.4288   12.6432   12.7402    0.0185   -0.0455   -0.0003
C        13.8774   14.0347   12.7489   -0.0284    0.0380    0.0004
C        10.2838    9.2117   12.7538   -0.0378   -0.0280    0.0003
C        11.6752    8.7628   12.7434    0.0452    0.0183   -0.0003
C        13.3062    7.0594   12.7390    0.0207    0.0450   -0.0003
C        13.6935    5.6496   12.7468   -0.0303   -0.0378    0.0004
N        12.1457   12.2786   12.7444   -0.0131    0.0139    0.0001
N        12.0400    7.4796   12.7439   -0.0138   -0.0131    0.0001
C        15.2912   14.0035   12.7457    0.0305    0.0379    0.0002
C        15.6785   12.5937   12.7355   -0.0205   -0.0454   -0.0003
C        17.3094   10.8903   12.7347   -0.0456   -0.0179   -0.0004
C        18.7010   10.4413   12.7487    0.0380    0.0280    0.0005
C        17.2595    8.6406   12.7332   -0.0450    0.0211   -0.0004
C        18.6693    9.0275   12.7476    0.0378   -0.0305    0.0004
C        15.1073    5.6184   12.7412    0.0281   -0.0379    0.0001
C        15.5559    7.0099   12.7320   -0.0184    0.0453   -0.0002
N        16.9446   12.1735   12.7365    0.0138    0.0130    0.0001
N        16.8391    7.3745   12.7331    0.0131   -0.0140    0.0001
N        12.4947    9.8701   12.7367   -0.0272    0.0008    0.0002
N        14.5362   11.8239   12.7312    0.0006    0.0273    0.0002
N        16.4900    9.7831   12.7252    0.0273   -0.0009    0.0002
N        14.4485    7.8292   12.7301   -0.0007   -0.0272    0.0001
C        13.1827   15.2473   12.7623   -0.0048   -0.0213   -0.0002
Zn       14.4924    9.8265   12.7264   -0.0000    0.0000   -0.0000
C        16.0384   15.1842   12.7549    0.0031   -0.0206   -0.0002
C        13.9324   16.4262   12.7720    0.0580    0.0135   -0.0000
C        15.3413   16.3949   12.7682   -0.0565    0.0146    0.0003
H        12.0925   15.2624   12.7653   -0.0060   -0.0550   -0.0006
H        17.1282   15.1517   12.7524    0.0025   -0.0574   -0.0006
H        15.8945   17.3351   12.7765    0.0760   -0.0659   -0.0009
H        13.4215   17.3900   12.7831   -0.0820   -0.0631   -0.0005
C        19.9141   11.1351   12.7666   -0.0213    0.0050   -0.0003
C        19.8494    8.2795   12.7644   -0.0207   -0.0030   -0.0003
C        21.0925   10.3847   12.7838    0.0135   -0.0578    0.0002
C        21.0605    8.9757   12.7834    0.0146    0.0563    0.0002
H        19.9307   12.2252   12.7677   -0.0544    0.0061   -0.0009
H        19.8161    7.1897   12.7642   -0.0569   -0.0023   -0.0010
H        22.0002    8.4217   12.7979   -0.0656   -0.0754   -0.0011
H        22.0566   10.8949   12.7993   -0.0629    0.0820   -0.0011
C         9.0706    8.5177   12.7651    0.0214   -0.0050   -0.0002
C         9.1350   11.3733   12.7663    0.0207    0.0030   -0.0002
C         7.8920    9.2680   12.7781   -0.0136    0.0578    0.0002
C         7.9240   10.6769   12.7780   -0.0145   -0.0562    0.0001
H         9.0541    7.4277   12.7650    0.0539   -0.0061   -0.0006
H         9.1683   12.4630   12.7667    0.0565    0.0023   -0.0006
H         6.9843   11.2312   12.7887    0.0654    0.0750   -0.0007
H         6.9279    8.7580   12.7877    0.0625   -0.0817   -0.0008
C        15.8019    4.4056   12.7477    0.0049    0.0215   -0.0002
C        12.9464    4.4688   12.7613   -0.0031    0.0209   -0.0002
C        15.0523    3.2268   12.7611   -0.0577   -0.0136    0.0004
C        13.6434    3.2581   12.7682    0.0562   -0.0146   -0.0002
H        16.8920    4.3900   12.7428    0.0060    0.0538   -0.0006
H        11.8565    4.5005   12.7666   -0.0025    0.0560   -0.0005
H        13.0902    2.3178   12.7803   -0.0752    0.0652   -0.0002
H        15.5632    2.2628   12.7676    0.0816    0.0626   -0.0011
    57
stable frequency at   1404.200 1/cm IR int. is 2.977 a.m.u.; force const. is 3.458 mDyne/Ang.
C        10.3153   10.6255   12.7541   -0.0090    0.0522    0.0001
C        11.7250   11.0126   12.7436    0.0067   -0.0322   -0.0001
C        13.4288   12.6432   12.7402   -0.0338    0.0055    0.0002
C        13.8774   14.0347   12.7489    0.0508   -0.0102   -0.0002
C        10.2838    9.2117   12.7538   -0.0195   -0.0211    0.0001
C        11.6752    8.7628   12.7434    0.0560   -0.0475   -0.0003
C        13.3062    7.0594   12.7390   -0.0459    0.0583   -0.0001
C        13.6935    5.6496   12.7468   -0.0203   -0.0194    0.0002
N        12.1457   12.2786   12.7444    0.0182    0.0172   -0.0000
N        12.0400    7.4796   12.7439    0.0071    0.0063   -0.0000
C        15.2912   14.0035   12.7457   -0.0203   -0.0191   -0.0001
C        15.6785   12.5937   12.7355   -0.0458    0.0579    0.0002
C        17.3094   10.8903   12.7347    0.0558   -0.0477    0.0003
C        18.7010   10.4413   12.7487   -0.0194   -0.0209   -0.0002
C        17.2595    8.6406   12.7332    0.0064   -0.0320    0.0001
C        18.6693    9.0275   12.7476   -0.0088    0.0519   -0.0001
C        15.1073    5.6184   12.7412    0.0510   -0.0104   -0.0001
C        15.5559    7.0099   12.7320   -0.0341    0.0056   -0.0000
N        16.9446   12.1735   12.7365    0.0069    0.0065   -0.0000
N        16.8391    7.3745   12.7331    0.0184    0.0172   -0.0000
N        12.4947    9.8701   12.7367   -0.0131    0.0129    0.0001
N        14.5362   11.8239   12.7312    0.0128   -0.0130   -0.0001
N        16.4900    9.7831   12.7252   -0.0130    0.0129   -0.0001
N        14.4485    7.8292   12.7301    0.0128   -0.0131    0.0000
C        13.1827   15.2473   12.7623   -0.0125   -0.0184   -0.0002
Zn       14.4924    9.8265   12.7264   -0.0003   -0.0003   -0.0000
C        16.0384   15.1842   12.7549   -0.0055   -0.0343   -0.0003
C        13.9324   16.4262   12.7720   -0.0266    0.0099    0.0002
C        15.3413   16.3949   12.7682    0.0371    0.0073   -0.0000
H        12.0925   15.2624   12.7653   -0.0106    0.1419    0.0015
H        17.1282   15.1517   12.7524   -0.0024    0.1538    0.0016
H        15.8945   17.3351   12.7765   -0.0987    0.0912    0.0012
H        13.4215   17.3900   12.7831    0.0409    0.0506    0.0005
C        19.9141   11.1351   12.7666   -0.0354   -0.0039   -0.0005
C        19.8494    8.2795   12.7644   -0.0213   -0.0119   -0.0003
C        21.0925   10.3847   12.7838    0.0087    0.0379    0.0001
C        21.0605    8.9757   12.7834    0.0103   -0.0273    0.0002
H        19.9307   12.2252   12.7677    0.1588   -0.0093    0.0024
H        19.8161    7.1897   12.7642    0.1475   -0.0173    0.0023
H        22.0002    8.4217   12.7979    0.0547    0.0389    0.0008
H        22.0566   10.8949   12.7993    0.0895   -0.1072    0.0015
C         9.0706    8.5177   12.7651   -0.0355   -0.0040    0.0004
C         9.1350   11.3733   12.7663   -0.0213   -0.0120    0.0002
C         7.8920    9.2680   12.7781    0.0087    0.0383   -0.0001
C         7.9240   10.6769   12.7780    0.0104   -0.0277   -0.0001
H         9.0541    7.4277   12.7650    0.1598   -0.0094   -0.0017
H         9.1683   12.4630   12.7667    0.1484   -0.0174   -0.0015
H         6.9843   11.2312   12.7887    0.0551    0.0391   -0.0005
H         6.9279    8.7580   12.7877    0.0901   -0.1081   -0.0011
C        15.8019    4.4056   12.7477   -0.0125   -0.0182    0.0002
C        12.9464    4.4688   12.7613   -0.0056   -0.0341    0.0003
C        15.0523    3.2268   12.7611   -0.0269    0.0098    0.0001
C        13.6434    3.2581   12.7682    0.0374    0.0072   -0.0003
H        16.8920    4.3900   12.7428   -0.0106    0.1418   -0.0011
H        11.8565    4.5005   12.7666   -0.0025    0.1539   -0.0013
H        13.0902    2.3178   12.7803   -0.0992    0.0916   -0.0003
H        15.5632    2.2628   12.7676    0.0410    0.0507   -0.0007
    57
stable frequency at   1404.289 1/cm IR int. is 2.972 a.m.u.; force const. is 3.453 mDyne/Ang.
C        10.3153   10.6255   12.7541    0.0190   -0.0205   -0.0001
C        11.7250   11.0126   12.7436   -0.0580   -0.0456    0.0003
C        13.4288   12.6432   12.7402    0.0472    0.0558    0.0001
C        13.8774   14.0347   12.7489    0.0210   -0.0194   -0.0002
C        10.2838    9.2117   12.7538    0.0102    0.0510   -0.0001
C        11.6752    8.7628   12.7434   -0.0054   -0.0339    0.0001
C        13.3062    7.0594   12.7390    0.0324    0.0066   -0.0002
C        13.6935    5.6496   12.7468   -0.0521   -0.0091    0.0003
N        12.1457   12.2786   12.7444   -0.0062    0.0070    0.0000
N        12.0400    7.4796   12.7439   -0.0173    0.0183    0.0001
C        15.2912   14.0035   12.7457   -0.0519   -0.0089    0.0000
C        15.6785   12.5937   12.7355    0.0320    0.0067    0.0001
C        17.3094   10.8903   12.7347   -0.0055   -0.0342   -0.0002
C        18.7010   10.4413   12.7487    0.0103    0.0510    0.0002
C        17.2595    8.6406   12.7332   -0.0581   -0.0457   -0.0004
C        18.6693    9.0275   12.7476    0.0191   -0.0204    0.0002
C        15.1073    5.6184   12.7412    0.0210   -0.0195   -0.0000
C        15.5559    7.0099   12.7320    0.0473    0.0560   -0.0002
N        16.9446   12.1735   12.7365   -0.0171    0.0184    0.0000
N        16.8391    7.3745   12.7331   -0.0063    0.0070    0.0000
N        12.4947    9.8701   12.7367    0.0130    0.0127   -0.0001
N        14.5362   11.8239   12.7312   -0.0128   -0.0131   -0.0000
N        16.4900    9.7831   12.7252    0.0131    0.0128    0.0001
N        14.4485    7.8292   12.7301   -0.0129   -0.0131    0.0001
C        13.1827   15.2473   12.7623    0.0039   -0.0355   -0.0004
Zn       14.4924    9.8265   12.7264    0.0003   -0.0003   -0.0000
C        16.0384   15.1842   12.7549    0.0119   -0.0213   -0.0002
C        13.9324   16.4262   12.7720   -0.0381    0.0087    0.0002
C        15.3413   16.3949   12.7682    0.0275    0.0104    0.0000
H        12.0925   15.2624   12.7653    0.0091    0.1595    0.0016
H        17.1282   15.1517   12.7524    0.0172    0.1480    0.0014
H        15.8945   17.3351   12.7765   -0.0390    0.0548    0.0006
H        13.4215   17.3900   12.7831    0.1077    0.0899    0.0007
C        19.9141   11.1351   12.7666    0.0183   -0.0126    0.0003
C        19.8494    8.2795   12.7644    0.0343   -0.0056    0.0005
C        21.0925   10.3847   12.7838   -0.0099   -0.0267   -0.0001
C        21.0605    8.9757   12.7834   -0.0073    0.0373   -0.0001
H        19.9307   12.2252   12.7677   -0.1421   -0.0105   -0.0021
H        19.8161    7.1897   12.7642   -0.1540   -0.0023   -0.0024
H        22.0002    8.4217   12.7979   -0.0917   -0.0992   -0.0015
H        22.0566   10.8949   12.7993   -0.0506    0.0408   -0.0009
C         9.0706    8.5177   12.7651    0.0185   -0.0126   -0.0002
C         9.1350   11.3733   12.7663    0.0345   -0.0055   -0.0004
C         7.8920    9.2680   12.7781   -0.0100   -0.0267    0.0001
C         7.9240   10.6769   12.7780   -0.0073    0.0372    0.0001
H         9.0541    7.4277   12.7650   -0.1424   -0.0105    0.0015
H         9.1683   12.4630   12.7667   -0.1543   -0.0022    0.0016
H         6.9843   11.2312   12.7887   -0.0917   -0.0991    0.0009
H         6.9279    8.7580   12.7877   -0.0506    0.0407    0.0006
C        15.8019    4.4056   12.7477    0.0040   -0.0353    0.0003
C        12.9464    4.4688   12.7613    0.0120   -0.0211    0.0001
C        15.0523    3.2268   12.7611   -0.0382    0.0086    0.0001
C        13.6434    3.2581   12.7682    0.0276    0.0103   -0.0002
H        16.8920    4.3900   12.7428    0.0092    0.1593   -0.0014
H        11.8565    4.5005   12.7666    0.0172    0.1478   -0.0014
H        13.0902    2.3178   12.7803   -0.0389    0.0547   -0.0002
H        15.5632    2.2628   12.7676    0.1079    0.0900   -0.0014
    57
stable frequency at   1414.012 1/cm IR int. is 2.942 a.m.u.; force const. is 3.465 mDyne/Ang.
C        10.3153   10.6255   12.7541   -0.0125   -0.0281    0.0001
C        11.7250   11.0126   12.7436   -0.0179   -0.0425    0.0000
C        13.4288   12.6432   12.7402    0.0434    0.0164   -0.0001
C        13.8774   14.0347   12.7489    0.0287    0.0105    0.0000
C        10.2838    9.2117   12.7538   -0.0104    0.0286    0.0001
C        11.6752    8.7628   12.7434   -0.0168    0.0442    0.0000
C        13.3062    7.0594   12.7390    0.0433   -0.0182   -0.0001
C        13.6935    5.6496   12.7468    0.0277   -0.0122   -0.0000
N        12.1457   12.2786   12.7444   -0.0115    0.0118    0.0000
N        12.0400    7.4796   12.7439   -0.0119   -0.0118    0.0001
C        15.2912   14.0035   12.7457   -0.0276    0.0123    0.0002
C        15.6785   12.5937   12.7355   -0.0432    0.0182    0.0001
C        17.3094   10.8903   12.7347    0.0168   -0.0442    0.0000
C        18.7010   10.4413   12.7487    0.0104   -0.0288    0.0001
C        17.2595    8.6406   12.7332    0.0179    0.0426    0.0001
C        18.6693    9.0275   12.7476    0.0124    0.0282    0.0002
C        15.1073    5.6184   12.7412   -0.0287   -0.0104    0.0002
C        15.5559    7.0099   12.7320   -0.0436   -0.0165    0.0001
N        16.9446   12.1735   12.7365    0.0118    0.0118    0.0000
N        16.8391    7.3745   12.7331    0.0116   -0.0117   -0.0000
N        12.4947    9.8701   12.7367    0.0018   -0.0002    0.0000
N        14.5362   11.8239   12.7312    0.0002   -0.0018    0.0000
N        16.4900    9.7831   12.7252   -0.0018    0.0001    0.0000
N        14.4485    7.8292   12.7301   -0.0002    0.0018    0.0000
C        13.1827   15.2473   12.7623   -0.0087   -0.0589   -0.0006
Zn       14.4924    9.8265   12.7264   -0.0000   -0.0000   -0.0000
C        16.0384   15.1842   12.7549    0.0056   -0.0592   -0.0006
C        13.9324   16.4262   12.7720   -0.0003    0.0251    0.0002
C        15.3413   16.3949   12.7682    0.0016    0.0248    0.0002
H        12.0925   15.2624   12.7653   -0.0041    0.1736    0.0018
H        17.1282   15.1517   12.7524    0.0109    0.1718    0.0017
H        15.8945   17.3351   12.7765   -0.0424    0.0556    0.0006
H        13.4215   17.3900   12.7831    0.0454    0.0541    0.0005
C        19.9141   11.1351   12.7666   -0.0593    0.0087   -0.0009
C        19.8494    8.2795   12.7644   -0.0593   -0.0057   -0.0009
C        21.0925   10.3847   12.7838    0.0253    0.0004    0.0004
C        21.0605    8.9757   12.7834    0.0248   -0.0017    0.0004
H        19.9307   12.2252   12.7677    0.1747    0.0038    0.0026
H        19.8161    7.1897   12.7642    0.1728   -0.0112    0.0026
H        22.0002    8.4217   12.7979    0.0560    0.0428    0.0008
H        22.0566   10.8949   12.7993    0.0546   -0.0460    0.0009
C         9.0706    8.5177   12.7651    0.0593   -0.0087   -0.0006
C         9.1350   11.3733   12.7663    0.0593    0.0057   -0.0006
C         7.8920    9.2680   12.7781   -0.0253   -0.0004    0.0003
C         7.9240   10.6769   12.7780   -0.0248    0.0016    0.0003
H         9.0541    7.4277   12.7650   -0.1743   -0.0038    0.0018
H         9.1683   12.4630   12.7667   -0.1724    0.0112    0.0018
H         6.9843   11.2312   12.7887   -0.0558   -0.0426    0.0005
H         6.9279    8.7580   12.7877   -0.0543    0.0456    0.0007
C        15.8019    4.4056   12.7477    0.0087    0.0590   -0.0005
C        12.9464    4.4688   12.7613   -0.0056    0.0592   -0.0005
C        15.0523    3.2268   12.7611    0.0003   -0.0252    0.0002
C        13.6434    3.2581   12.7682   -0.0016   -0.0249    0.0002
H        16.8920    4.3900   12.7428    0.0040   -0.1737    0.0014
H        11.8565    4.5005   12.7666   -0.0108   -0.1722    0.0016
H        13.0902    2.3178   12.7803    0.0425   -0.0557    0.0002
H        15.5632    2.2628   12.7676   -0.0455   -0.0542    0.0007
    57
stable frequency at   1422.160 1/cm IR int. is 9.152 a.m.u.; force const. is 10.906 mDyne/Ang.
C        10.3153   10.6255   12.7541    0.0050    0.0286    0.0000
C        11.7250   11.0126   12.7436   -0.0366   -0.0785    0.0001
C        13.4288   12.6432   12.7402    0.0803    0.0329   -0.0002
C        13.8774   14.0347   12.7489   -0.0292   -0.0033    0.0001
C        10.2838    9.2117   12.7538   -0.0033    0.0298   -0.0000
C        11.6752    8.7628   12.7434    0.0327   -0.0802   -0.0001
C        13.3062    7.0594   12.7390   -0.0783    0.0360    0.0002
C        13.6935    5.6496   12.7468    0.0290   -0.0051   -0.0001
N        12.1457   12.2786   12.7444   -0.0180    0.0187    0.0001
N        12.0400    7.4796   12.7439    0.0185    0.0182   -0.0001
C        15.2912   14.0035   12.7457   -0.0290    0.0051    0.0000
C        15.6785   12.5937   12.7355    0.0782   -0.0361   -0.0001
C        17.3094   10.8903   12.7347   -0.0327    0.0804   -0.0000
C        18.7010   10.4413   12.7487    0.0034   -0.0295   -0.0000
C        17.2595    8.6406   12.7332    0.0365    0.0784    0.0001
C        18.6693    9.0275   12.7476   -0.0052   -0.0287   -0.0000
C        15.1073    5.6184   12.7412    0.0291    0.0033   -0.0001
C        15.5559    7.0099   12.7320   -0.0799   -0.0328    0.0001
N        16.9446   12.1735   12.7365   -0.0184   -0.0183   -0.0001
N        16.8391    7.3745   12.7331    0.0179   -0.0186    0.0000
N        12.4947    9.8701   12.7367    0.0009    0.0388    0.0000
N        14.5362   11.8239   12.7312   -0.0389    0.0007    0.0001
N        16.4900    9.7831   12.7252   -0.0009   -0.0388   -0.0000
N        14.4485    7.8292   12.7301    0.0388   -0.0007   -0.0001
C        13.1827   15.2473   12.7623    0.0147   -0.0139   -0.0002
Zn       14.4924    9.8265   12.7264   -0.0000    0.0000    0.0000
C        16.0384   15.1842   12.7549    0.0153    0.0120    0.0001
C        13.9324   16.4262   12.7720   -0.0088   -0.0013    0.0000
C        15.3413   16.3949   12.7682   -0.0089    0.0022    0.0000
H        12.0925   15.2624   12.7653    0.0176    0.0112    0.0001
H        17.1282   15.1517   12.7524    0.0172   -0.0095   -0.0001
H        15.8945   17.3351   12.7765    0.0487   -0.0305   -0.0004
H        13.4215   17.3900   12.7831    0.0503    0.0290    0.0002
C        19.9141   11.1351   12.7666    0.0134    0.0147    0.0002
C        19.8494    8.2795   12.7644   -0.0124    0.0153   -0.0002
C        21.0925   10.3847   12.7838    0.0014   -0.0086    0.0000
C        21.0605    8.9757   12.7834   -0.0020   -0.0090   -0.0000
H        19.9307   12.2252   12.7677   -0.0094    0.0176   -0.0001
H        19.8161    7.1897   12.7642    0.0110    0.0171    0.0002
H        22.0002    8.4217   12.7979    0.0311    0.0491    0.0005
H        22.0566   10.8949   12.7993   -0.0283    0.0496   -0.0005
C         9.0706    8.5177   12.7651   -0.0132   -0.0149    0.0001
C         9.1350   11.3733   12.7663    0.0128   -0.0153   -0.0001
C         7.8920    9.2680   12.7781   -0.0016    0.0086    0.0000
C         7.9240   10.6769   12.7780    0.0020    0.0091   -0.0000
H         9.0541    7.4277   12.7650    0.0086   -0.0177   -0.0001
H         9.1683   12.4630   12.7667   -0.0120   -0.0171    0.0001
H         6.9843   11.2312   12.7887   -0.0317   -0.0497    0.0003
H         6.9279    8.7580   12.7877    0.0282   -0.0497   -0.0004
C        15.8019    4.4056   12.7477   -0.0147    0.0138   -0.0001
C        12.9464    4.4688   12.7613   -0.0153   -0.0121    0.0002
C        15.0523    3.2268   12.7611    0.0088    0.0013   -0.0001
C        13.6434    3.2581   12.7682    0.0088   -0.0022   -0.0000
H        16.8920    4.3900   12.7428   -0.0176   -0.0110    0.0002
H        11.8565    4.5005   12.7666   -0.0171    0.0097    0.0001
H        13.0902    2.3178   12.7803   -0.0486    0.0305   -0.0000
H        15.5632    2.2628   12.7676   -0.0502   -0.0289    0.0005
    57
stable frequency at   1431.851 1/cm IR int. is 2.584 a.m.u.; force const. is 3.121 mDyne/Ang.
C        10.3153   10.6255   12.7541   -0.0244   -0.0473    0.0002
C        11.7250   11.0126   12.7436    0.0030    0.0122   -0.0000
C        13.4288   12.6432   12.7402    0.0125    0.0028   -0.0000
C        13.8774   14.0347   12.7489   -0.0484   -0.0228   -0.0001
C        10.2838    9.2117   12.7538   -0.0228    0.0484    0.0002
C        11.6752    8.7628   12.7434    0.0029   -0.0129   -0.0000
C        13.3062    7.0594   12.7390    0.0121   -0.0029   -0.0000
C        13.6935    5.6496   12.7468   -0.0475    0.0244    0.0000
N        12.1457   12.2786   12.7444    0.0023    0.0022   -0.0000
N        12.0400    7.4796   12.7439    0.0021   -0.0021   -0.0000
C        15.2912   14.0035   12.7457    0.0474   -0.0244   -0.0003
C        15.6785   12.5937   12.7355   -0.0122    0.0030    0.0000
C        17.3094   10.8903   12.7347   -0.0028    0.0129   -0.0000
C        18.7010   10.4413   12.7487    0.0228   -0.0484    0.0003
C        17.2595    8.6406   12.7332   -0.0030   -0.0123   -0.0000
C        18.6693    9.0275   12.7476    0.0244    0.0474    0.0003
C        15.1073    5.6184   12.7412    0.0485    0.0228   -0.0004
C        15.5559    7.0099   12.7320   -0.0125   -0.0027    0.0001
N        16.9446   12.1735   12.7365   -0.0021    0.0021   -0.0000
N        16.8391    7.3745   12.7331   -0.0023   -0.0022   -0.0000
N        12.4947    9.8701   12.7367    0.0025    0.0000   -0.0000
N        14.5362   11.8239   12.7312   -0.0000    0.0025    0.0000
N        16.4900    9.7831   12.7252   -0.0026   -0.0000   -0.0000
N        14.4485    7.8292   12.7301    0.0000   -0.0026    0.0000
C        13.1827   15.2473   12.7623    0.0073    0.0572    0.0005
Zn       14.4924    9.8265   12.7264   -0.0000   -0.0000    0.0000
C        16.0384   15.1842   12.7549   -0.0050    0.0577    0.0006
C        13.9324   16.4262   12.7720    0.0142   -0.0191   -0.0002
C        15.3413   16.3949   12.7682   -0.0144   -0.0194   -0.0002
H        12.0925   15.2624   12.7653    0.0020   -0.1881   -0.0019
H        17.1282   15.1517   12.7524   -0.0105   -0.1871   -0.0018
H        15.8945   17.3351   12.7765    0.0473   -0.0612   -0.0007
H        13.4215   17.3900   12.7831   -0.0539   -0.0604   -0.0006
C        19.9141   11.1351   12.7666   -0.0571    0.0073   -0.0008
C        19.8494    8.2795   12.7644   -0.0575   -0.0050   -0.0009
C        21.0925   10.3847   12.7838    0.0191    0.0143    0.0003
C        21.0605    8.9757   12.7834    0.0193   -0.0145    0.0003
H        19.9307   12.2252   12.7677    0.1879    0.0017    0.0028
H        19.8161    7.1897   12.7642    0.1868   -0.0106    0.0028
H        22.0002    8.4217   12.7979    0.0613    0.0474    0.0009
H        22.0566   10.8949   12.7993    0.0603   -0.0538    0.0010
C         9.0706    8.5177   12.7651    0.0569   -0.0073   -0.0006
C         9.1350   11.3733   12.7663    0.0574    0.0049   -0.0006
C         7.8920    9.2680   12.7781   -0.0191   -0.0142    0.0002
C         7.9240   10.6769   12.7780   -0.0192    0.0145    0.0002
H         9.0541    7.4277   12.7650   -0.1873   -0.0018    0.0019
H         9.1683   12.4630   12.7667   -0.1863    0.0105    0.0019
H         6.9843   11.2312   12.7887   -0.0613   -0.0476    0.0005
H         6.9279    8.7580   12.7877   -0.0599    0.0532    0.0007
C        15.8019    4.4056   12.7477   -0.0073   -0.0572    0.0005
C        12.9464    4.4688   12.7613    0.0050   -0.0577    0.0005
C        15.0523    3.2268   12.7611   -0.0143    0.0191   -0.0001
C        13.6434    3.2581   12.7682    0.0145    0.0194   -0.0002
H        16.8920    4.3900   12.7428   -0.0020    0.1882   -0.0015
H        11.8565    4.5005   12.7666    0.0103    0.1876   -0.0017
H        13.0902    2.3178   12.7803   -0.0475    0.0614   -0.0002
H        15.5632    2.2628   12.7676    0.0539    0.0604   -0.0008
    57
stable frequency at   1456.238 1/cm IR int. is 3.506 a.m.u.; force const. is 4.380 mDyne/Ang.
C        10.3153   10.6255   12.7541    0.0465    0.0021   -0.0004
C        11.7250   11.0126   12.7436    0.0020    0.0361    0.0001
C        13.4288   12.6432   12.7402    0.0234   -0.0070   -0.0002
C        13.8774   14.0347   12.7489    0.0171    0.0494    0.0004
C        10.2838    9.2117   12.7538   -0.0045   -0.0476    0.0001
C        11.6752    8.7628   12.7434   -0.0196    0.0455    0.0000
C        13.3062    7.0594   12.7390    0.0358   -0.0226   -0.0001
C        13.6935    5.6496   12.7468   -0.0491    0.0124    0.0001
N        12.1457   12.2786   12.7444   -0.0302   -0.0314    0.0001
N        12.0400    7.4796   12.7439   -0.0046   -0.0131    0.0001
C        15.2912   14.0035   12.7457   -0.0490    0.0121    0.0002
C        15.6785   12.5937   12.7355    0.0353   -0.0222   -0.0001
C        17.3094   10.8903   12.7347   -0.0202    0.0463    0.0000
C        18.7010   10.4413   12.7487   -0.0040   -0.0475   -0.0001
C        17.2595    8.6406   12.7332    0.0025    0.0368   -0.0001
C        18.6693    9.0275   12.7476    0.0461    0.0021    0.0006
C        15.1073    5.6184   12.7412    0.0171    0.0490   -0.0004
C        15.5559    7.0099   12.7320    0.0239   -0.0065    0.0000
N        16.9446   12.1735   12.7365   -0.0039   -0.0139   -0.0001
N        16.8391    7.3745   12.7331   -0.0309   -0.0321    0.0000
N        12.4947    9.8701   12.7367    0.0003   -0.0105    0.0000
N        14.5362   11.8239   12.7312   -0.0076    0.0009   -0.0000
N        16.4900    9.7831   12.7252    0.0003   -0.0105   -0.0000
N        14.4485    7.8292   12.7301   -0.0075    0.0009    0.0000
C        13.1827   15.2473   12.7623    0.0155   -0.0448   -0.0005
Zn       14.4924    9.8265   12.7264    0.0005    0.0007   -0.0000
C        16.0384   15.1842   12.7549    0.0220   -0.0429   -0.0005
C        13.9324   16.4262   12.7720   -0.0220   -0.0099   -0.0000
C        15.3413   16.3949   12.7682   -0.0170    0.0388    0.0004
H        12.0925   15.2624   12.7653    0.0233    0.1184    0.0011
H        17.1282   15.1517   12.7524    0.0290    0.1111    0.0010
H        15.8945   17.3351   12.7765    0.0762   -0.0100   -0.0003
H        13.4215   17.3900   12.7831    0.1245    0.0682    0.0003
C        19.9141   11.1351   12.7666   -0.0293    0.0290   -0.0004
C        19.8494    8.2795   12.7644   -0.0327    0.0238   -0.0005
C        21.0925   10.3847   12.7838    0.0407   -0.0245    0.0006
C        21.0605    8.9757   12.7834   -0.0216   -0.0268   -0.0004
H        19.9307   12.2252   12.7677    0.0831    0.0314    0.0013
H        19.8161    7.1897   12.7642    0.0906    0.0265    0.0014
H        22.0002    8.4217   12.7979    0.0784    0.1452    0.0013
H        22.0566   10.8949   12.7993   -0.0247    0.1098   -0.0004
C         9.0706    8.5177   12.7651   -0.0292    0.0292    0.0003
C         9.1350   11.3733   12.7663   -0.0326    0.0240    0.0003
C         7.8920    9.2680   12.7781    0.0410   -0.0247   -0.0005
C         7.9240   10.6769   12.7780   -0.0220   -0.0271    0.0002
H         9.0541    7.4277   12.7650    0.0828    0.0317   -0.0008
H         9.1683   12.4630   12.7667    0.0907    0.0267   -0.0009
H         6.9843   11.2312   12.7887    0.0788    0.1464   -0.0008
H         6.9279    8.7580   12.7877   -0.0251    0.1110    0.0003
C        15.8019    4.4056   12.7477    0.0154   -0.0448    0.0003
C        12.9464    4.4688   12.7613    0.0219   -0.0429    0.0003
C        15.0523    3.2268   12.7611   -0.0218   -0.0097    0.0002
C        13.6434    3.2581   12.7682   -0.0168    0.0386   -0.0003
H        16.8920    4.3900   12.7428    0.0232    0.1182   -0.0010
H        11.8565    4.5005   12.7666    0.0288    0.1113   -0.0011
H        13.0902    2.3178   12.7803    0.0755   -0.0098   -0.0003
H        15.5632    2.2628   12.7676    0.1238    0.0679   -0.0012
    57
stable frequency at   1456.276 1/cm IR int. is 3.503 a.m.u.; force const. is 4.377 mDyne/Ang.
C        10.3153   10.6255   12.7541   -0.0120   -0.0491    0.0001
C        11.7250   11.0126   12.7436    0.0226    0.0355   -0.0001
C        13.4288   12.6432   12.7402   -0.0451   -0.0196    0.0001
C        13.8774   14.0347   12.7489    0.0471   -0.0042   -0.0002
C        10.2838    9.2117   12.7538   -0.0496    0.0168    0.0004
C        11.6752    8.7628   12.7434    0.0067    0.0241   -0.0001
C        13.3062    7.0594   12.7390   -0.0374    0.0029    0.0002
C        13.6935    5.6496   12.7468   -0.0016    0.0462   -0.0004
N        12.1457   12.2786   12.7444    0.0130   -0.0045   -0.0001
N        12.0400    7.4796   12.7439    0.0325   -0.0312   -0.0001
C        15.2912   14.0035   12.7457   -0.0019    0.0460    0.0004
C        15.6785   12.5937   12.7355   -0.0365    0.0023   -0.0000
C        17.3094   10.8903   12.7347    0.0073    0.0229    0.0002
C        18.7010   10.4413   12.7487   -0.0495    0.0171   -0.0006
C        17.2595    8.6406   12.7332    0.0219    0.0345    0.0001
C        18.6693    9.0275   12.7476   -0.0119   -0.0488   -0.0001
C        15.1073    5.6184   12.7412    0.0474   -0.0044   -0.0001
C        15.5559    7.0099   12.7320   -0.0460   -0.0200    0.0001
N        16.9446   12.1735   12.7365    0.0315   -0.0300   -0.0000
N        16.8391    7.3745   12.7331    0.0140   -0.0035    0.0000
N        12.4947    9.8701   12.7367   -0.0009   -0.0074   -0.0000
N        14.5362   11.8239   12.7312    0.0105    0.0003   -0.0000
N        16.4900    9.7831   12.7252   -0.0009   -0.0074    0.0000
N        14.4485    7.8292   12.7301    0.0105    0.0002   -0.0000
C        13.1827   15.2473   12.7623   -0.0289   -0.0291   -0.0002
Zn       14.4924    9.8265   12.7264   -0.0007    0.0005    0.0000
C        16.0384   15.1842   12.7549   -0.0237   -0.0326   -0.0002
C        13.9324   16.4262   12.7720    0.0244    0.0406    0.0003
C        15.3413   16.3949   12.7682    0.0267   -0.0215   -0.0003
H        12.0925   15.2624   12.7653   -0.0315    0.0822    0.0009
H        17.1282   15.1517   12.7524   -0.0265    0.0901    0.0009
H        15.8945   17.3351   12.7765   -0.1447    0.0779    0.0012
H        13.4215   17.3900   12.7831   -0.1096   -0.0248    0.0000
C        19.9141   11.1351   12.7666    0.0447    0.0156    0.0007
C        19.8494    8.2795   12.7644    0.0429    0.0220    0.0007
C        21.0925   10.3847   12.7838    0.0101   -0.0220    0.0001
C        21.0605    8.9757   12.7834   -0.0390   -0.0171   -0.0006
H        19.9307   12.2252   12.7677   -0.1181    0.0236   -0.0017
H        19.8161    7.1897   12.7642   -0.1106    0.0291   -0.0017
H        22.0002    8.4217   12.7979    0.0104    0.0768    0.0002
H        22.0566   10.8949   12.7993   -0.0681    0.1249   -0.0010
C         9.0706    8.5177   12.7651    0.0448    0.0158   -0.0004
C         9.1350   11.3733   12.7663    0.0430    0.0222   -0.0004
C         7.8920    9.2680   12.7781    0.0102   -0.0221   -0.0001
C         7.9240   10.6769   12.7780   -0.0392   -0.0173    0.0004
H         9.0541    7.4277   12.7650   -0.1180    0.0238    0.0012
H         9.1683   12.4630   12.7667   -0.1109    0.0293    0.0012
H         6.9843   11.2312   12.7887    0.0107    0.0775   -0.0001
H         6.9279    8.7580   12.7877   -0.0683    0.1255    0.0008
C        15.8019    4.4056   12.7477   -0.0292   -0.0291    0.0004
C        12.9464    4.4688   12.7613   -0.0241   -0.0326    0.0004
C        15.0523    3.2268   12.7611    0.0247    0.0410   -0.0005
C        13.6434    3.2581   12.7682    0.0271   -0.0219    0.0001
H        16.8920    4.3900   12.7428   -0.0318    0.0824   -0.0005
H        11.8565    4.5005   12.7666   -0.0269    0.0903   -0.0006
H        13.0902    2.3178   12.7803   -0.1464    0.0787   -0.0000
H        15.5632    2.2628   12.7676   -0.1111   -0.0253    0.0008
    57
stable frequency at   1459.736 1/cm IR int. is 3.103 a.m.u.; force const. is 3.896 mDyne/Ang.
C        10.3153   10.6255   12.7541   -0.0337    0.0210    0.0003
C        11.7250   11.0126   12.7436   -0.0051   -0.0310   -0.0000
C        13.4288   12.6432   12.7402   -0.0324   -0.0034    0.0001
C        13.8774   14.0347   12.7489    0.0218   -0.0356   -0.0004
C        10.2838    9.2117   12.7538    0.0361    0.0217   -0.0003
C        11.6752    8.7628   12.7434    0.0029   -0.0318    0.0000
C        13.3062    7.0594   12.7390    0.0317   -0.0057   -0.0002
C        13.6935    5.6496   12.7468   -0.0211   -0.0328    0.0004
N        12.1457   12.2786   12.7444    0.0289    0.0273   -0.0001
N        12.0400    7.4796   12.7439   -0.0274    0.0288    0.0001
C        15.2912   14.0035   12.7457    0.0211    0.0336    0.0002
C        15.6785   12.5937   12.7355   -0.0318    0.0055   -0.0000
C        17.3094   10.8903   12.7347   -0.0029    0.0320    0.0001
C        18.7010   10.4413   12.7487   -0.0365   -0.0216   -0.0005
C        17.2595    8.6406   12.7332    0.0052    0.0316   -0.0000
C        18.6693    9.0275   12.7476    0.0338   -0.0215    0.0004
C        15.1073    5.6184   12.7412   -0.0211    0.0354   -0.0002
C        15.5559    7.0099   12.7320    0.0318    0.0033   -0.0000
N        16.9446   12.1735   12.7365    0.0276   -0.0290   -0.0000
N        16.8391    7.3745   12.7331   -0.0288   -0.0275   -0.0000
N        12.4947    9.8701   12.7367    0.0001    0.0007    0.0000
N        14.5362   11.8239   12.7312    0.0010   -0.0001   -0.0000
N        16.4900    9.7831   12.7252   -0.0001   -0.0009    0.0000
N        14.4485    7.8292   12.7301   -0.0009    0.0001    0.0000
C        13.1827   15.2473   12.7623   -0.0317   -0.0023    0.0001
Zn       14.4924    9.8265   12.7264   -0.0000    0.0000    0.0000
C        16.0384   15.1842   12.7549   -0.0311    0.0044    0.0001
C        13.9324   16.4262   12.7720    0.0339    0.0429    0.0003
C        15.3413   16.3949   12.7682    0.0327   -0.0448   -0.0005
H        12.0925   15.2624   12.7653   -0.0381    0.0019    0.0001
H        17.1282   15.1517   12.7524   -0.0377    0.0011    0.0001
H        15.8945   17.3351   12.7765   -0.1654    0.0668    0.0011
H        13.4215   17.3900   12.7831   -0.1652   -0.0580   -0.0001
C        19.9141   11.1351   12.7666   -0.0019    0.0320   -0.0000
C        19.8494    8.2795   12.7644    0.0050    0.0314    0.0001
C        21.0925   10.3847   12.7838    0.0433   -0.0344    0.0006
C        21.0605    8.9757   12.7834   -0.0456   -0.0331   -0.0007
H        19.9307   12.2252   12.7677    0.0007    0.0385    0.0001
H        19.8161    7.1897   12.7642   -0.0001    0.0382   -0.0000
H        22.0002    8.4217   12.7979    0.0675    0.1673    0.0012
H        22.0566   10.8949   12.7993   -0.0590    0.1677   -0.0009
C         9.0706    8.5177   12.7651    0.0022   -0.0318   -0.0001
C         9.1350   11.3733   12.7663   -0.0048   -0.0312    0.0000
C         7.8920    9.2680   12.7781   -0.0431    0.0341    0.0005
C         7.9240   10.6769   12.7780    0.0452    0.0329   -0.0005
H         9.0541    7.4277   12.7650   -0.0015   -0.0383    0.0000
H         9.1683   12.4630   12.7667   -0.0005   -0.0378   -0.0000
H         6.9843   11.2312   12.7887   -0.0672   -0.1662    0.0007
H         6.9279    8.7580   12.7877    0.0582   -0.1662   -0.0007
C        15.8019    4.4056   12.7477    0.0311    0.0019   -0.0002
C        12.9464    4.4688   12.7613    0.0306   -0.0047   -0.0001
C        15.0523    3.2268   12.7611   -0.0334   -0.0421    0.0005
C        13.6434    3.2581   12.7682   -0.0323    0.0442   -0.0002
H        16.8920    4.3900   12.7428    0.0375   -0.0008   -0.0001
H        11.8565    4.5005   12.7666    0.0372   -0.0000   -0.0002
H        13.0902    2.3178   12.7803    0.1628   -0.0657   -0.0002
H        15.5632    2.2628   12.7676    0.1631    0.0575   -0.0013
    57
stable frequency at   1463.646 1/cm IR int. is 8.431 a.m.u.; force const. is 10.642 mDyne/Ang.
C        10.3153   10.6255   12.7541   -0.0309   -0.0014    0.0003
C        11.7250   11.0126   12.7436    0.0427    0.0502   -0.0002
C        13.4288   12.6432   12.7402    0.0518    0.0375   -0.0000
C        13.8774   14.0347   12.7489   -0.0051   -0.0243   -0.0002
C        10.2838    9.2117   12.7538    0.0310   -0.0013   -0.0003
C        11.6752    8.7628   12.7434   -0.0405    0.0531    0.0002
C        13.3062    7.0594   12.7390   -0.0508    0.0412    0.0000
C        13.6935    5.6496   12.7468    0.0026   -0.0271    0.0002
N        12.1457   12.2786   12.7444   -0.0590   -0.0562    0.0001
N        12.0400    7.4796   12.7439    0.0574   -0.0600   -0.0002
C        15.2912   14.0035   12.7457   -0.0024    0.0219    0.0002
C        15.6785   12.5937   12.7355    0.0487   -0.0378   -0.0002
C        17.3094   10.8903   12.7347    0.0430   -0.0551    0.0002
C        18.7010   10.4413   12.7487   -0.0346    0.0021   -0.0004
C        17.2595    8.6406   12.7332   -0.0434   -0.0513   -0.0003
C        18.6693    9.0275   12.7476    0.0321   -0.0003    0.0004
C        15.1073    5.6184   12.7412    0.0028    0.0272   -0.0002
C        15.5559    7.0099   12.7320   -0.0525   -0.0389    0.0001
N        16.9446   12.1735   12.7365   -0.0570    0.0600    0.0000
N        16.8391    7.3745   12.7331    0.0603    0.0577    0.0000
N        12.4947    9.8701   12.7367   -0.0000    0.0026   -0.0000
N        14.5362   11.8239   12.7312    0.0035   -0.0002   -0.0000
N        16.4900    9.7831   12.7252   -0.0002   -0.0021   -0.0000
N        14.4485    7.8292   12.7301   -0.0030   -0.0000    0.0000
C        13.1827   15.2473   12.7623   -0.0060   -0.0000    0.0000
Zn       14.4924    9.8265   12.7264   -0.0000   -0.0000    0.0000
C        16.0384   15.1842   12.7549   -0.0060    0.0032    0.0000
C        13.9324   16.4262   12.7720    0.0102    0.0144    0.0001
C        15.3413   16.3949   12.7682    0.0095   -0.0157   -0.0002
H        12.0925   15.2624   12.7653   -0.0078   -0.0187   -0.0002
H        17.1282   15.1517   12.7524   -0.0072    0.0119    0.0001
H        15.8945   17.3351   12.7765   -0.0443    0.0145    0.0003
H        13.4215   17.3900   12.7831   -0.0454   -0.0140   -0.0000
C        19.9141   11.1351   12.7666   -0.0019    0.0129   -0.0000
C        19.8494    8.2795   12.7644    0.0051    0.0127    0.0001
C        21.0925   10.3847   12.7838    0.0256   -0.0184    0.0004
C        21.0605    8.9757   12.7834   -0.0272   -0.0173   -0.0004
H        19.9307   12.2252   12.7677   -0.0182    0.0162   -0.0002
H        19.8161    7.1897   12.7642    0.0135    0.0154    0.0002
H        22.0002    8.4217   12.7979    0.0295    0.0831    0.0005
H        22.0566   10.8949   12.7993   -0.0265    0.0841   -0.0004
C         9.0706    8.5177   12.7651    0.0028   -0.0116   -0.0000
C         9.1350   11.3733   12.7663   -0.0032   -0.0111    0.0000
C         7.8920    9.2680   12.7781   -0.0234    0.0166    0.0003
C         7.9240   10.6769   12.7780    0.0241    0.0154   -0.0002
H         9.0541    7.4277   12.7650    0.0147   -0.0144   -0.0001
H         9.1683   12.4630   12.7667   -0.0165   -0.0134    0.0001
H         6.9843   11.2312   12.7887   -0.0269   -0.0748    0.0003
H         6.9279    8.7580   12.7877    0.0229   -0.0748   -0.0003
C        15.8019    4.4056   12.7477    0.0088    0.0021   -0.0001
C        12.9464    4.4688   12.7613    0.0085   -0.0025   -0.0000
C        15.0523    3.2268   12.7611   -0.0134   -0.0191    0.0002
C        13.6434    3.2581   12.7682   -0.0125    0.0198   -0.0001
H        16.8920    4.3900   12.7428    0.0111    0.0151   -0.0001
H        11.8565    4.5005   12.7666    0.0102   -0.0163    0.0001
H        13.0902    2.3178   12.7803    0.0598   -0.0211   -0.0001
H        15.5632    2.2628   12.7676    0.0598    0.0180   -0.0005
    57
stable frequency at   1464.051 1/cm IR int. is 3.012 a.m.u.; force const. is 3.804 mDyne/Ang.
C        10.3153   10.6255   12.7541    0.0408   -0.0120   -0.0004
C        11.7250   11.0126   12.7436   -0.0196   -0.0063    0.0001
C        13.4288   12.6432   12.7402    0.0153    0.0262    0.0001
C        13.8774   14.0347   12.7489    0.0133   -0.0477   -0.0004
C        10.2838    9.2117   12.7538   -0.0420   -0.0129    0.0004
C        11.6752    8.7628   12.7434    0.0194   -0.0069   -0.0001
C        13.3062    7.0594   12.7390   -0.0141    0.0261   -0.0001
C        13.6935    5.6496   12.7468   -0.0126   -0.0459    0.0004
N        12.1457   12.2786   12.7444   -0.0056   -0.0040   -0.0000
N        12.0400    7.4796   12.7439    0.0051   -0.0039   -0.0000
C        15.2912   14.0035   12.7457    0.0120    0.0472    0.0004
C        15.6785   12.5937   12.7355    0.0145   -0.0270   -0.0001
C        17.3094   10.8903   12.7347   -0.0206    0.0082   -0.0002
C        18.7010   10.4413   12.7487    0.0434    0.0129    0.0006
C        17.2595    8.6406   12.7332    0.0204    0.0070    0.0002
C        18.6693    9.0275   12.7476   -0.0419    0.0125   -0.0005
C        15.1073    5.6184   12.7412   -0.0124    0.0478   -0.0003
C        15.5559    7.0099   12.7320   -0.0151   -0.0262    0.0001
N        16.9446   12.1735   12.7365   -0.0048    0.0033    0.0000
N        16.8391    7.3745   12.7331    0.0050    0.0034   -0.0000
N        12.4947    9.8701   12.7367    0.0003    0.0066    0.0000
N        14.5362   11.8239   12.7312   -0.0064    0.0002    0.0000
N        16.4900    9.7831   12.7252   -0.0002   -0.0069   -0.0000
N        14.4485    7.8292   12.7301    0.0062   -0.0001   -0.0000
C        13.1827   15.2473   12.7623   -0.0316   -0.0084   -0.0000
Zn       14.4924    9.8265   12.7264    0.0000    0.0000    0.0000
C        16.0384   15.1842   12.7549   -0.0306    0.0089    0.0002
C        13.9324   16.4262   12.7720    0.0377    0.0513    0.0004
C        15.3413   16.3949   12.7682    0.0358   -0.0528   -0.0006
H        12.0925   15.2624   12.7653   -0.0384    0.0009    0.0001
H        17.1282   15.1517   12.7524   -0.0375    0.0064    0.0001
H        15.8945   17.3351   12.7765   -0.1776    0.0676    0.0012
H        13.4215   17.3900   12.7831   -0.1777   -0.0580   -0.0001
C        19.9141   11.1351   12.7666    0.0074   -0.0297    0.0001
C        19.8494    8.2795   12.7644   -0.0091   -0.0288   -0.0002
C        21.0925   10.3847   12.7838   -0.0474    0.0351   -0.0007
C        21.0605    8.9757   12.7834    0.0492    0.0333    0.0008
H        19.9307   12.2252   12.7677   -0.0015   -0.0360   -0.0001
H        19.8161    7.1897   12.7642   -0.0022   -0.0354    0.0000
H        22.0002    8.4217   12.7979   -0.0630   -0.1654   -0.0012
H        22.0566   10.8949   12.7993    0.0546   -0.1661    0.0007
C         9.0706    8.5177   12.7651   -0.0073    0.0290    0.0001
C         9.1350   11.3733   12.7663    0.0087    0.0280   -0.0001
C         7.8920    9.2680   12.7781    0.0461   -0.0341   -0.0005
C         7.9240   10.6769   12.7780   -0.0478   -0.0324    0.0005
H         9.0541    7.4277   12.7650    0.0021    0.0351   -0.0000
H         9.1683   12.4630   12.7667    0.0026    0.0344    0.0000
H         6.9843   11.2312   12.7887    0.0615    0.1610   -0.0007
H         6.9279    8.7580   12.7877   -0.0529    0.1614    0.0006
C        15.8019    4.4056   12.7477    0.0311    0.0074   -0.0002
C        12.9464    4.4688   12.7613    0.0303   -0.0096   -0.0001
C        15.0523    3.2268   12.7611   -0.0371   -0.0504    0.0006
C        13.6434    3.2581   12.7682   -0.0354    0.0524   -0.0003
H        16.8920    4.3900   12.7428    0.0378    0.0014   -0.0002
H        11.8565    4.5005   12.7666    0.0372   -0.0043   -0.0002
H        13.0902    2.3178   12.7803    0.1751   -0.0664   -0.0002
H        15.5632    2.2628   12.7676    0.1759    0.0578   -0.0014
    57
stable frequency at   1465.310 1/cm IR int. is 3.819 a.m.u.; force const. is 4.832 mDyne/Ang.
C        10.3153   10.6255   12.7541    0.0451   -0.0152   -0.0004
C        11.7250   11.0126   12.7436   -0.0362   -0.0335    0.0002
C        13.4288   12.6432   12.7402   -0.0008    0.0081    0.0001
C        13.8774   14.0347   12.7489   -0.0312   -0.0115   -0.0000
C        10.2838    9.2117   12.7538   -0.0618    0.0002    0.0005
C        11.6752    8.7628   12.7434    0.0472   -0.0452   -0.0002
C        13.3062    7.0594   12.7390   -0.0185    0.0309   -0.0001
C        13.6935    5.6496   12.7468    0.0247   -0.0439    0.0002
N        12.1457   12.2786   12.7444    0.0221    0.0257   -0.0000
N        12.0400    7.4796   12.7439   -0.0109    0.0209    0.0000
C        15.2912   14.0035   12.7457    0.0253   -0.0442   -0.0004
C        15.6785   12.5937   12.7355   -0.0213    0.0326    0.0002
C        17.3094   10.8903   12.7347    0.0440   -0.0418    0.0002
C        18.7010   10.4413   12.7487   -0.0587    0.0004   -0.0007
C        17.2595    8.6406   12.7332   -0.0330   -0.0300   -0.0002
C        18.6693    9.0275   12.7476    0.0422   -0.0150    0.0005
C        15.1073    5.6184   12.7412   -0.0316   -0.0117    0.0002
C        15.5559    7.0099   12.7320    0.0018    0.0097   -0.0000
N        16.9446   12.1735   12.7365   -0.0075    0.0173    0.0000
N        16.8391    7.3745   12.7331    0.0186    0.0222    0.0000
N        12.4947    9.8701   12.7367   -0.0009    0.0106    0.0000
N        14.5362   11.8239   12.7312    0.0031   -0.0040   -0.0000
N        16.4900    9.7831   12.7252   -0.0009    0.0106    0.0000
N        14.4485    7.8292   12.7301    0.0035   -0.0041   -0.0000
C        13.1827   15.2473   12.7623    0.0129    0.0358    0.0003
Zn       14.4924    9.8265   12.7264   -0.0002   -0.0006   -0.0000
C        16.0384   15.1842   12.7549    0.0068    0.0294    0.0003
C        13.9324   16.4262   12.7720   -0.0125   -0.0265   -0.0002
C        15.3413   16.3949   12.7682   -0.0105    0.0064    0.0001
H        12.0925   15.2624   12.7653    0.0121   -0.0832   -0.0009
H        17.1282   15.1517   12.7524    0.0066   -0.0854   -0.0008
H        15.8945   17.3351   12.7765    0.0662   -0.0394   -0.0005
H        13.4215   17.3900   12.7831    0.0405   -0.0020   -0.0002
C        19.9141   11.1351   12.7666   -0.0016    0.0290   -0.0000
C        19.8494    8.2795   12.7644    0.0204    0.0294    0.0003
C        21.0925   10.3847   12.7838    0.0498   -0.0377    0.0007
C        21.0605    8.9757   12.7834   -0.0569   -0.0354   -0.0009
H        19.9307   12.2252   12.7677   -0.0236    0.0362   -0.0003
H        19.8161    7.1897   12.7642   -0.0168    0.0368   -0.0003
H        22.0002    8.4217   12.7979    0.0593    0.1715    0.0011
H        22.0566   10.8949   12.7993   -0.0604    0.1786   -0.0008
C         9.0706    8.5177   12.7651   -0.0019    0.0304    0.0001
C         9.1350   11.3733   12.7663    0.0210    0.0308   -0.0002
C         7.8920    9.2680   12.7781    0.0525   -0.0395   -0.0006
C         7.9240   10.6769   12.7780   -0.0597   -0.0372    0.0006
H         9.0541    7.4277   12.7650   -0.0245    0.0380    0.0002
H         9.1683   12.4630   12.7667   -0.0159    0.0385    0.0002
H         6.9843   11.2312   12.7887    0.0624    0.1802   -0.0008
H         6.9279    8.7580   12.7877   -0.0630    0.1872    0.0007
C        15.8019    4.4056   12.7477    0.0133    0.0359   -0.0003
C        12.9464    4.4688   12.7613    0.0072    0.0293   -0.0003
C        15.0523    3.2268   12.7611   -0.0128   -0.0268    0.0003
C        13.6434    3.2581   12.7682   -0.0108    0.0067   -0.0000
H        16.8920    4.3900   12.7428    0.0125   -0.0839    0.0006
H        11.8565    4.5005   12.7666    0.0072   -0.0845    0.0007
H        13.0902    2.3178   12.7803    0.0678   -0.0401   -0.0000
H        15.5632    2.2628   12.7676    0.0422   -0.0013   -0.0002
    57
stable frequency at   1465.402 1/cm IR int. is 3.822 a.m.u.; force const. is 4.835 mDyne/Ang.
C        10.3153   10.6255   12.7541   -0.0431   -0.0250    0.0004
C        11.7250   11.0126   12.7436    0.0309    0.0187   -0.0002
C        13.4288   12.6432   12.7402   -0.0440   -0.0466   -0.0001
C        13.8774   14.0347   12.7489    0.0006    0.0610    0.0005
C        10.2838    9.2117   12.7538   -0.0123    0.0312    0.0001
C        11.6752    8.7628   12.7434    0.0096   -0.0013   -0.0001
C        13.3062    7.0594   12.7390   -0.0314    0.0338   -0.0000
C        13.6935    5.6496   12.7468   -0.0155   -0.0432    0.0004
N        12.1457   12.2786   12.7444    0.0200    0.0103   -0.0000
N        12.0400    7.4796   12.7439    0.0232   -0.0194   -0.0001
C        15.2912   14.0035   12.7457   -0.0152   -0.0441   -0.0003
C        15.6785   12.5937   12.7355   -0.0339    0.0356    0.0001
C        17.3094   10.8903   12.7347    0.0075    0.0014    0.0001
C        18.7010   10.4413   12.7487   -0.0107    0.0310   -0.0001
C        17.2595    8.6406   12.7332    0.0330    0.0213    0.0002
C        18.6693    9.0275   12.7476   -0.0445   -0.0250   -0.0005
C        15.1073    5.6184   12.7412    0.0002    0.0600   -0.0004
C        15.5559    7.0099   12.7320   -0.0411   -0.0447    0.0002
N        16.9446   12.1735   12.7365    0.0261   -0.0224   -0.0000
N        16.8391    7.3745   12.7331    0.0169    0.0074   -0.0000
N        12.4947    9.8701   12.7367   -0.0041   -0.0033    0.0000
N        14.5362   11.8239   12.7312    0.0105    0.0009   -0.0000
N        16.4900    9.7831   12.7252   -0.0041   -0.0031   -0.0000
N        14.4485    7.8292   12.7301    0.0106    0.0009   -0.0000
C        13.1827   15.2473   12.7623    0.0298    0.0015   -0.0001
Zn       14.4924    9.8265   12.7264   -0.0006    0.0002    0.0000
C        16.0384   15.1842   12.7549    0.0303   -0.0210   -0.0003
C        13.9324   16.4262   12.7720   -0.0386   -0.0514   -0.0004
C        15.3413   16.3949   12.7682   -0.0367    0.0587    0.0007
H        12.0925   15.2624   12.7653    0.0372    0.0250    0.0001
H        17.1282   15.1517   12.7524    0.0379    0.0165    0.0001
H        15.8945   17.3351   12.7765    0.1768   -0.0609   -0.0012
H        13.4215   17.3900   12.7831    0.1840    0.0622    0.0001
C        19.9141   11.1351   12.7666    0.0357   -0.0132    0.0005
C        19.8494    8.2795   12.7644    0.0289   -0.0071    0.0004
C        21.0925   10.3847   12.7838   -0.0269    0.0130   -0.0004
C        21.0605    8.9757   12.7834    0.0071    0.0108    0.0001
H        19.9307   12.2252   12.7677   -0.0824   -0.0124   -0.0012
H        19.8161    7.1897   12.7642   -0.0845   -0.0069   -0.0013
H        22.0002    8.4217   12.7979   -0.0399   -0.0678   -0.0006
H        22.0566   10.8949   12.7993   -0.0012   -0.0425   -0.0001
C         9.0706    8.5177   12.7651    0.0357   -0.0127   -0.0004
C         9.1350   11.3733   12.7663    0.0292   -0.0066   -0.0003
C         7.8920    9.2680   12.7781   -0.0258    0.0122    0.0003
C         7.9240   10.6769   12.7780    0.0059    0.0100   -0.0001
H         9.0541    7.4277   12.7650   -0.0834   -0.0117    0.0008
H         9.1683   12.4630   12.7667   -0.0839   -0.0063    0.0008
H         6.9843   11.2312   12.7887   -0.0387   -0.0643    0.0004
H         6.9279    8.7580   12.7877   -0.0023   -0.0390    0.0001
C        15.8019    4.4056   12.7477    0.0296    0.0015   -0.0002
C        12.9464    4.4688   12.7613    0.0302   -0.0208    0.0000
C        15.0523    3.2268   12.7611   -0.0383   -0.0510    0.0006
C        13.6434    3.2581   12.7682   -0.0365    0.0582   -0.0004
H        16.8920    4.3900   12.7428    0.0370    0.0241   -0.0003
H        11.8565    4.5005   12.7666    0.0377    0.0170   -0.0004
H        13.0902    2.3178   12.7803    0.1756   -0.0607   -0.0002
H        15.5632    2.2628   12.7676    0.1828    0.0619   -0.0014
    57
stable frequency at   1484.932 1/cm IR int. is 12.309 a.m.u.; force const. is 15.992 mDyne/Ang.
C        10.3153   10.6255   12.7541   -0.0027   -0.0172    0.0000
C        11.7250   11.0126   12.7436    0.0239    0.1033    0.0000
C        13.4288   12.6432   12.7402   -0.0517    0.0020    0.0002
C        13.8774   14.0347   12.7489    0.0114   -0.0031   -0.0001
C        10.2838    9.2117   12.7538   -0.0050    0.0137    0.0001
C        11.6752    8.7628   12.7434    0.0312   -0.0986   -0.0001
C        13.3062    7.0594   12.7390    0.0447   -0.0291   -0.0001
C        13.6935    5.6496   12.7468   -0.0041    0.0079   -0.0001
N        12.1457   12.2786   12.7444   -0.0035   -0.0437   -0.0001
N        12.0400    7.4796   12.7439   -0.0547    0.0716    0.0001
C        15.2912   14.0035   12.7457   -0.0037    0.0076    0.0001
C        15.6785   12.5937   12.7355    0.0439   -0.0288   -0.0001
C        17.3094   10.8903   12.7347    0.0316   -0.0995   -0.0000
C        18.7010   10.4413   12.7487   -0.0054    0.0141   -0.0001
C        17.2595    8.6406   12.7332    0.0242    0.1040    0.0001
C        18.6693    9.0275   12.7476   -0.0031   -0.0176   -0.0000
C        15.1073    5.6184   12.7412    0.0120   -0.0026   -0.0000
C        15.5559    7.0099   12.7320   -0.0533    0.0013    0.0000
N        16.9446   12.1735   12.7365   -0.0546    0.0719    0.0001
N        16.8391    7.3745   12.7331   -0.0028   -0.0436   -0.0000
N        12.4947    9.8701   12.7367   -0.0036   -0.0109    0.0000
N        14.5362   11.8239   12.7312    0.0223    0.0012   -0.0000
N        16.4900    9.7831   12.7252   -0.0035   -0.0110    0.0000
N        14.4485    7.8292   12.7301    0.0224    0.0012   -0.0001
C        13.1827   15.2473   12.7623   -0.0013    0.0076    0.0001
Zn       14.4924    9.8265   12.7264    0.0014   -0.0007   -0.0000
C        16.0384   15.1842   12.7549    0.0002   -0.0015   -0.0000
C        13.9324   16.4262   12.7720   -0.0059   -0.0051   -0.0000
C        15.3413   16.3949   12.7682    0.0056   -0.0007   -0.0000
H        12.0925   15.2624   12.7653   -0.0020   -0.0054   -0.0000
H        17.1282   15.1517   12.7524    0.0008    0.0183    0.0002
H        15.8945   17.3351   12.7765    0.0022    0.0018    0.0000
H        13.4215   17.3900   12.7831    0.0036   -0.0001   -0.0000
C        19.9141   11.1351   12.7666   -0.0046   -0.0018   -0.0001
C        19.8494    8.2795   12.7644   -0.0093    0.0018   -0.0001
C        21.0925   10.3847   12.7838    0.0039   -0.0117    0.0001
C        21.0605    8.9757   12.7834    0.0086    0.0128    0.0001
H        19.9307   12.2252   12.7677   -0.0186   -0.0022   -0.0003
H        19.8161    7.1897   12.7642   -0.0073    0.0023   -0.0001
H        22.0002    8.4217   12.7979   -0.0029   -0.0062   -0.0001
H        22.0566   10.8949   12.7993   -0.0016   -0.0027   -0.0000
C         9.0706    8.5177   12.7651   -0.0050   -0.0018    0.0001
C         9.1350   11.3733   12.7663   -0.0096    0.0018    0.0001
C         7.8920    9.2680   12.7781    0.0041   -0.0116   -0.0000
C         7.9240   10.6769   12.7780    0.0086    0.0126   -0.0001
H         9.0541    7.4277   12.7650   -0.0174   -0.0022    0.0002
H         9.1683   12.4630   12.7667   -0.0063    0.0023    0.0001
H         6.9843   11.2312   12.7887   -0.0025   -0.0058    0.0000
H         6.9279    8.7580   12.7877   -0.0013   -0.0028    0.0000
C        15.8019    4.4056   12.7477   -0.0013    0.0073   -0.0001
C        12.9464    4.4688   12.7613    0.0002   -0.0018    0.0000
C        15.0523    3.2268   12.7611   -0.0060   -0.0051    0.0001
C        13.6434    3.2581   12.7682    0.0057   -0.0006   -0.0000
H        16.8920    4.3900   12.7428   -0.0020   -0.0043    0.0000
H        11.8565    4.5005   12.7666    0.0008    0.0193   -0.0002
H        13.0902    2.3178   12.7803    0.0022    0.0021   -0.0000
H        15.5632    2.2628   12.7676    0.0039    0.0002   -0.0000
    57
stable frequency at   1485.154 1/cm IR int. is 12.329 a.m.u.; force const. is 16.022 mDyne/Ang.
C        10.3153   10.6255   12.7541    0.0078    0.0039   -0.0001
C        11.7250   11.0126   12.7436   -0.0291   -0.0447    0.0001
C        13.4288   12.6432   12.7402   -0.0988   -0.0314    0.0002
C        13.8774   14.0347   12.7489    0.0136    0.0052    0.0000
C        10.2838    9.2117   12.7538   -0.0030   -0.0116    0.0000
C        11.6752    8.7628   12.7434    0.0018    0.0525   -0.0001
C        13.3062    7.0594   12.7390    0.1036   -0.0237   -0.0003
C        13.6935    5.6496   12.7468   -0.0174    0.0027    0.0001
N        12.1457   12.2786   12.7444    0.0719    0.0549   -0.0002
N        12.0400    7.4796   12.7439   -0.0436    0.0030    0.0002
C        15.2912   14.0035   12.7457   -0.0169    0.0022    0.0000
C        15.6785   12.5937   12.7355    0.1025   -0.0231   -0.0001
C        17.3094   10.8903   12.7347    0.0023    0.0517    0.0001
C        18.7010   10.4413   12.7487   -0.0036   -0.0111   -0.0001
C        17.2595    8.6406   12.7332   -0.0286   -0.0440   -0.0001
C        18.6693    9.0275   12.7476    0.0073    0.0034    0.0001
C        15.1073    5.6184   12.7412    0.0142    0.0057   -0.0001
C        15.5559    7.0099   12.7320   -0.1005   -0.0321    0.0002
N        16.9446   12.1735   12.7365   -0.0432    0.0031   -0.0000
N        16.8391    7.3745   12.7331    0.0725    0.0550    0.0000
N        12.4947    9.8701   12.7367    0.0012   -0.0222   -0.0000
N        14.5362   11.8239   12.7312   -0.0108    0.0035    0.0000
N        16.4900    9.7831   12.7252    0.0011   -0.0223   -0.0000
N        14.4485    7.8292   12.7301   -0.0108    0.0035    0.0000
C        13.1827   15.2473   12.7623   -0.0017    0.0052    0.0001
Zn       14.4924    9.8265   12.7264   -0.0007   -0.0014    0.0000
C        16.0384   15.1842   12.7549    0.0018    0.0096    0.0001
C        13.9324   16.4262   12.7720   -0.0118   -0.0043   -0.0000
C        15.3413   16.3949   12.7682    0.0125   -0.0084   -0.0001
H        12.0925   15.2624   12.7653   -0.0020    0.0170    0.0002
H        17.1282   15.1517   12.7524    0.0024    0.0059    0.0000
H        15.8945   17.3351   12.7765   -0.0051    0.0022    0.0000
H        13.4215   17.3900   12.7831   -0.0021    0.0014    0.0000
C        19.9141   11.1351   12.7666    0.0079    0.0013    0.0001
C        19.8494    8.2795   12.7644   -0.0010   -0.0002   -0.0000
C        21.0925   10.3847   12.7838   -0.0051    0.0058   -0.0001
C        21.0605    8.9757   12.7834   -0.0009   -0.0057   -0.0000
H        19.9307   12.2252   12.7677   -0.0063    0.0021   -0.0001
H        19.8161    7.1897   12.7642    0.0174   -0.0007    0.0003
H        22.0002    8.4217   12.7979    0.0017   -0.0021    0.0000
H        22.0566   10.8949   12.7993   -0.0004   -0.0031   -0.0000
C         9.0706    8.5177   12.7651    0.0074    0.0014   -0.0001
C         9.1350   11.3733   12.7663   -0.0015   -0.0002    0.0000
C         7.8920    9.2680   12.7781   -0.0050    0.0059    0.0001
C         7.9240   10.6769   12.7780   -0.0008   -0.0057    0.0000
H         9.0541    7.4277   12.7650   -0.0050    0.0021    0.0000
H         9.1683   12.4630   12.7667    0.0187   -0.0008   -0.0002
H         6.9843   11.2312   12.7887    0.0020   -0.0019   -0.0000
H         6.9279    8.7580   12.7877   -0.0001   -0.0033    0.0000
C        15.8019    4.4056   12.7477   -0.0017    0.0049   -0.0000
C        12.9464    4.4688   12.7613    0.0019    0.0092   -0.0001
C        15.0523    3.2268   12.7611   -0.0119   -0.0043    0.0001
C        13.6434    3.2581   12.7682    0.0125   -0.0083    0.0000
H        16.8920    4.3900   12.7428   -0.0021    0.0182   -0.0001
H        11.8565    4.5005   12.7666    0.0025    0.0070   -0.0001
H        13.0902    2.3178   12.7803   -0.0051    0.0024   -0.0000
H        15.5632    2.2628   12.7676   -0.0019    0.0016   -0.0000
    57
stable frequency at   1492.032 1/cm IR int. is 8.064 a.m.u.; force const. is 10.577 mDyne/Ang.
C        10.3153   10.6255   12.7541    0.0337    0.0319   -0.0003
C        11.7250   11.0126   12.7436   -0.0392   -0.0738    0.0001
C        13.4288   12.6432   12.7402    0.0750    0.0353   -0.0001
C        13.8774   14.0347   12.7489   -0.0334   -0.0317   -0.0002
C        10.2838    9.2117   12.7538    0.0316   -0.0332   -0.0003
C        11.6752    8.7628   12.7434   -0.0352    0.0741    0.0001
C        13.3062    7.0594   12.7390    0.0720   -0.0386   -0.0001
C        13.6935    5.6496   12.7468   -0.0316    0.0337   -0.0001
N        12.1457   12.2786   12.7444   -0.0162    0.0175    0.0001
N        12.0400    7.4796   12.7439   -0.0167   -0.0163    0.0001
C        15.2912   14.0035   12.7457    0.0319   -0.0338   -0.0003
C        15.6785   12.5937   12.7355   -0.0742    0.0393    0.0002
C        17.3094   10.8903   12.7347    0.0346   -0.0736    0.0001
C        18.7010   10.4413   12.7487   -0.0314    0.0332   -0.0003
C        17.2595    8.6406   12.7332    0.0393    0.0733    0.0002
C        18.6693    9.0275   12.7476   -0.0339   -0.0317   -0.0004
C        15.1073    5.6184   12.7412    0.0332    0.0317   -0.0003
C        15.5559    7.0099   12.7320   -0.0729   -0.0349    0.0002
N        16.9446   12.1735   12.7365    0.0182    0.0153    0.0000
N        16.8391    7.3745   12.7331    0.0151   -0.0178    0.0000
N        12.4947    9.8701   12.7367    0.0008    0.0003    0.0000
N        14.5362   11.8239   12.7312   -0.0001   -0.0008    0.0000
N        16.4900    9.7831   12.7252   -0.0007    0.0002    0.0000
N        14.4485    7.8292   12.7301    0.0000    0.0007    0.0000
C        13.1827   15.2473   12.7623    0.0026    0.0248    0.0002
Zn       14.4924    9.8265   12.7264   -0.0000    0.0000   -0.0000
C        16.0384   15.1842   12.7549   -0.0012    0.0250    0.0002
C        13.9324   16.4262   12.7720    0.0064   -0.0045   -0.0001
C        15.3413   16.3949   12.7682   -0.0068   -0.0039   -0.0000
H        12.0925   15.2624   12.7653    0.0004   -0.0723   -0.0007
H        17.1282   15.1517   12.7524   -0.0032   -0.0724   -0.0007
H        15.8945   17.3351   12.7765    0.0112   -0.0166   -0.0002
H        13.4215   17.3900   12.7831   -0.0111   -0.0158   -0.0002
C        19.9141   11.1351   12.7666    0.0250   -0.0026    0.0004
C        19.8494    8.2795   12.7644    0.0249    0.0011    0.0004
C        21.0925   10.3847   12.7838   -0.0048   -0.0062   -0.0001
C        21.0605    8.9757   12.7834   -0.0037    0.0068   -0.0001
H        19.9307   12.2252   12.7677   -0.0722   -0.0004   -0.0011
H        19.8161    7.1897   12.7642   -0.0721    0.0032   -0.0011
H        22.0002    8.4217   12.7979   -0.0168   -0.0118   -0.0002
H        22.0566   10.8949   12.7993   -0.0157    0.0105   -0.0003
C         9.0706    8.5177   12.7651   -0.0250    0.0026    0.0002
C         9.1350   11.3733   12.7663   -0.0248   -0.0012    0.0002
C         7.8920    9.2680   12.7781    0.0047    0.0062   -0.0000
C         7.9240   10.6769   12.7780    0.0037   -0.0068   -0.0000
H         9.0541    7.4277   12.7650    0.0724    0.0004   -0.0007
H         9.1683   12.4630   12.7667    0.0719   -0.0033   -0.0007
H         6.9843   11.2312   12.7887    0.0166    0.0115   -0.0001
H         6.9279    8.7580   12.7877    0.0156   -0.0105   -0.0002
C        15.8019    4.4056   12.7477   -0.0025   -0.0250    0.0002
C        12.9464    4.4688   12.7613    0.0012   -0.0252    0.0002
C        15.0523    3.2268   12.7611   -0.0062    0.0046   -0.0000
C        13.6434    3.2581   12.7682    0.0066    0.0041   -0.0001
H        16.8920    4.3900   12.7428   -0.0003    0.0723   -0.0005
H        11.8565    4.5005   12.7666    0.0031    0.0723   -0.0007
H        13.0902    2.3178   12.7803   -0.0112    0.0166   -0.0001
H        15.5632    2.2628   12.7676    0.0112    0.0159   -0.0002
    57
stable frequency at   1532.084 1/cm IR int. is 12.308 a.m.u.; force const. is 17.022 mDyne/Ang.
C        10.3153   10.6255   12.7541   -0.0061    0.0049    0.0001
C        11.7250   11.0126   12.7436   -0.0208   -0.0743    0.0000
C        13.4288   12.6432   12.7402   -0.0752   -0.0175    0.0002
C        13.8774   14.0347   12.7489    0.0046   -0.0062   -0.0001
C        10.2838    9.2117   12.7538   -0.0063   -0.0045    0.0000
C        11.6752    8.7628   12.7434   -0.0171    0.0744    0.0000
C        13.3062    7.0594   12.7390   -0.0740    0.0205    0.0002
C        13.6935    5.6496   12.7468    0.0049    0.0061   -0.0001
N        12.1457   12.2786   12.7444    0.0619    0.0592   -0.0001
N        12.0400    7.4796   12.7439    0.0586   -0.0612   -0.0002
C        15.2912   14.0035   12.7457   -0.0050   -0.0061   -0.0000
C        15.6785   12.5937   12.7355    0.0747   -0.0208   -0.0001
C        17.3094   10.8903   12.7347    0.0172   -0.0744   -0.0001
C        18.7010   10.4413   12.7487    0.0063    0.0044    0.0001
C        17.2595    8.6406   12.7332    0.0207    0.0744    0.0000
C        18.6693    9.0275   12.7476    0.0061   -0.0049    0.0001
C        15.1073    5.6184   12.7412   -0.0045    0.0062    0.0000
C        15.5559    7.0099   12.7320    0.0748    0.0174   -0.0001
N        16.9446   12.1735   12.7365   -0.0591    0.0614    0.0000
N        16.8391    7.3745   12.7331   -0.0616   -0.0591   -0.0000
N        12.4947    9.8701   12.7367    0.0072   -0.0001   -0.0000
N        14.5362   11.8239   12.7312    0.0000    0.0072    0.0000
N        16.4900    9.7831   12.7252   -0.0072    0.0000    0.0000
N        14.4485    7.8292   12.7301   -0.0001   -0.0072    0.0000
C        13.1827   15.2473   12.7623   -0.0044    0.0101    0.0001
Zn       14.4924    9.8265   12.7264    0.0000   -0.0000   -0.0000
C        16.0384   15.1842   12.7549    0.0049    0.0100    0.0001
C        13.9324   16.4262   12.7720    0.0018   -0.0026   -0.0000
C        15.3413   16.3949   12.7682   -0.0020   -0.0026   -0.0000
H        12.0925   15.2624   12.7653   -0.0061   -0.0110   -0.0001
H        17.1282   15.1517   12.7524    0.0056   -0.0114   -0.0001
H        15.8945   17.3351   12.7765    0.0110   -0.0103   -0.0001
H        13.4215   17.3900   12.7831   -0.0114   -0.0098   -0.0001
C        19.9141   11.1351   12.7666   -0.0101   -0.0044   -0.0001
C        19.8494    8.2795   12.7644   -0.0101    0.0049   -0.0001
C        21.0925   10.3847   12.7838    0.0026    0.0019    0.0000
C        21.0605    8.9757   12.7834    0.0026   -0.0020    0.0000
H        19.9307   12.2252   12.7677    0.0111   -0.0060    0.0002
H        19.8161    7.1897   12.7642    0.0116    0.0056    0.0002
H        22.0002    8.4217   12.7979    0.0103    0.0110    0.0002
H        22.0566   10.8949   12.7993    0.0098   -0.0115    0.0002
C         9.0706    8.5177   12.7651    0.0101    0.0044   -0.0001
C         9.1350   11.3733   12.7663    0.0100   -0.0049   -0.0001
C         7.8920    9.2680   12.7781   -0.0026   -0.0019    0.0000
C         7.9240   10.6769   12.7780   -0.0026    0.0021    0.0000
H         9.0541    7.4277   12.7650   -0.0112    0.0061    0.0001
H         9.1683   12.4630   12.7667   -0.0114   -0.0057    0.0001
H         6.9843   11.2312   12.7887   -0.0104   -0.0111    0.0001
H         6.9279    8.7580   12.7877   -0.0098    0.0114    0.0001
C        15.8019    4.4056   12.7477    0.0044   -0.0100    0.0001
C        12.9464    4.4688   12.7613   -0.0049   -0.0100    0.0001
C        15.0523    3.2268   12.7611   -0.0019    0.0026   -0.0000
C        13.6434    3.2581   12.7682    0.0020    0.0026   -0.0000
H        16.8920    4.3900   12.7428    0.0060    0.0110   -0.0001
H        11.8565    4.5005   12.7666   -0.0056    0.0115   -0.0001
H        13.0902    2.3178   12.7803   -0.0110    0.0103   -0.0000
H        15.5632    2.2628   12.7676    0.0114    0.0098   -0.0001
    57
stable frequency at   1576.208 1/cm IR int. is 6.949 a.m.u.; force const. is 10.172 mDyne/Ang.
C        10.3153   10.6255   12.7541    0.0324   -0.0607   -0.0003
C        11.7250   11.0126   12.7436   -0.0140   -0.0018    0.0001
C        13.4288   12.6432   12.7402   -0.0024   -0.0134   -0.0001
C        13.8774   14.0347   12.7489   -0.0584    0.0335    0.0004
C        10.2838    9.2117   12.7538    0.0337    0.0588   -0.0003
C        11.6752    8.7628   12.7434   -0.0135    0.0023    0.0001
C        13.3062    7.0594   12.7390   -0.0019    0.0138   -0.0001
C        13.6935    5.6496   12.7468   -0.0600   -0.0320    0.0005
N        12.1457   12.2786   12.7444    0.0087    0.0083   -0.0000
N        12.0400    7.4796   12.7439    0.0083   -0.0086   -0.0000
C        15.2912   14.0035   12.7457    0.0601    0.0320    0.0002
C        15.6785   12.5937   12.7355    0.0019   -0.0138   -0.0001
C        17.3094   10.8903   12.7347    0.0135   -0.0023    0.0001
C        18.7010   10.4413   12.7487   -0.0338   -0.0588   -0.0005
C        17.2595    8.6406   12.7332    0.0140    0.0018    0.0001
C        18.6693    9.0275   12.7476   -0.0323    0.0607   -0.0004
C        15.1073    5.6184   12.7412    0.0583   -0.0334    0.0000
C        15.5559    7.0099   12.7320    0.0024    0.0134   -0.0001
N        16.9446   12.1735   12.7365   -0.0083    0.0086   -0.0000
N        16.8391    7.3745   12.7331   -0.0087   -0.0082   -0.0000
N        12.4947    9.8701   12.7367   -0.0021    0.0001    0.0000
N        14.5362   11.8239   12.7312   -0.0001   -0.0021   -0.0000
N        16.4900    9.7831   12.7252    0.0021   -0.0001    0.0000
N        14.4485    7.8292   12.7301    0.0001    0.0021   -0.0000
C        13.1827   15.2473   12.7623    0.0328   -0.0153   -0.0002
Zn       14.4924    9.8265   12.7264   -0.0000    0.0000    0.0000
C        16.0384   15.1842   12.7549   -0.0339   -0.0143   -0.0001
C        13.9324   16.4262   12.7720   -0.0571   -0.0125    0.0000
C        15.3413   16.3949   12.7682    0.0569   -0.0155   -0.0003
H        12.0925   15.2624   12.7653    0.0372    0.0187    0.0001
H        17.1282   15.1517   12.7524   -0.0369    0.0215    0.0003
H        15.8945   17.3351   12.7765   -0.0601    0.0550    0.0007
H        13.4215   17.3900   12.7831    0.0601    0.0513    0.0004
C        19.9141   11.1351   12.7666    0.0154    0.0331    0.0002
C        19.8494    8.2795   12.7644    0.0145   -0.0342    0.0002
C        21.0925   10.3847   12.7838    0.0125   -0.0575    0.0002
C        21.0605    8.9757   12.7834    0.0156    0.0574    0.0002
H        19.9307   12.2252   12.7677   -0.0189    0.0375   -0.0002
H        19.8161    7.1897   12.7642   -0.0218   -0.0372   -0.0003
H        22.0002    8.4217   12.7979   -0.0556   -0.0607   -0.0009
H        22.0566   10.8949   12.7993   -0.0517    0.0605   -0.0009
C         9.0706    8.5177   12.7651   -0.0153   -0.0331    0.0001
C         9.1350   11.3733   12.7663   -0.0146    0.0342    0.0002
C         7.8920    9.2680   12.7781   -0.0126    0.0576    0.0002
C         7.9240   10.6769   12.7780   -0.0156   -0.0574    0.0001
H         9.0541    7.4277   12.7650    0.0187   -0.0375   -0.0002
H         9.1683   12.4630   12.7667    0.0219    0.0372   -0.0002
H         6.9843   11.2312   12.7887    0.0557    0.0608   -0.0005
H         6.9279    8.7580   12.7877    0.0516   -0.0605   -0.0006
C        15.8019    4.4056   12.7477   -0.0328    0.0151    0.0000
C        12.9464    4.4688   12.7613    0.0338    0.0144   -0.0003
C        15.0523    3.2268   12.7611    0.0570    0.0125   -0.0004
C        13.6434    3.2581   12.7682   -0.0568    0.0154    0.0002
H        16.8920    4.3900   12.7428   -0.0372   -0.0185    0.0003
H        11.8565    4.5005   12.7666    0.0368   -0.0217   -0.0001
H        13.0902    2.3178   12.7803    0.0599   -0.0550    0.0002
H        15.5632    2.2628   12.7676   -0.0601   -0.0512    0.0008
    57
stable frequency at   1577.004 1/cm IR int. is 6.886 a.m.u.; force const. is 10.089 mDyne/Ang.
C        10.3153   10.6255   12.7541   -0.0469    0.0852    0.0005
C        11.7250   11.0126   12.7436    0.0194   -0.0065   -0.0002
C        13.4288   12.6432   12.7402    0.0005    0.0002   -0.0000
C        13.8774   14.0347   12.7489    0.0030   -0.0047   -0.0001
C        10.2838    9.2117   12.7538   -0.0483   -0.0823    0.0004
C        11.6752    8.7628   12.7434    0.0191    0.0056   -0.0001
C        13.3062    7.0594   12.7390    0.0009    0.0006   -0.0000
C        13.6935    5.6496   12.7468   -0.0008    0.0024   -0.0000
N        12.1457   12.2786   12.7444   -0.0053   -0.0008    0.0000
N        12.0400    7.4796   12.7439   -0.0052    0.0008    0.0000
C        15.2912   14.0035   12.7457   -0.0009    0.0024    0.0000
C        15.6785   12.5937   12.7355    0.0009    0.0006    0.0000
C        17.3094   10.8903   12.7347    0.0191    0.0057    0.0002
C        18.7010   10.4413   12.7487   -0.0485   -0.0825   -0.0007
C        17.2595    8.6406   12.7332    0.0194   -0.0065    0.0002
C        18.6693    9.0275   12.7476   -0.0468    0.0853   -0.0006
C        15.1073    5.6184   12.7412    0.0029   -0.0047    0.0000
C        15.5559    7.0099   12.7320    0.0005    0.0002   -0.0000
N        16.9446   12.1735   12.7365   -0.0052    0.0008   -0.0000
N        16.8391    7.3745   12.7331   -0.0053   -0.0008   -0.0000
N        12.4947    9.8701   12.7367    0.0022   -0.0001   -0.0000
N        14.5362   11.8239   12.7312    0.0007    0.0000   -0.0000
N        16.4900    9.7831   12.7252    0.0022   -0.0001    0.0000
N        14.4485    7.8292   12.7301    0.0007    0.0001   -0.0000
C        13.1827   15.2473   12.7623   -0.0010    0.0056    0.0001
Zn       14.4924    9.8265   12.7264   -0.0005   -0.0000    0.0000
C        16.0384   15.1842   12.7549    0.0011   -0.0045   -0.0000
C        13.9324   16.4262   12.7720    0.0006   -0.0024   -0.0000
C        15.3413   16.3949   12.7682   -0.0032    0.0034    0.0000
H        12.0925   15.2624   12.7653   -0.0012   -0.0070   -0.0001
H        17.1282   15.1517   12.7524    0.0016    0.0053    0.0000
H        15.8945   17.3351   12.7765    0.0058   -0.0016   -0.0000
H        13.4215   17.3900   12.7831    0.0015   -0.0023   -0.0000
C        19.9141   11.1351   12.7666    0.0224    0.0468    0.0004
C        19.8494    8.2795   12.7644    0.0217   -0.0485    0.0003
C        21.0925   10.3847   12.7838    0.0173   -0.0806    0.0002
C        21.0605    8.9757   12.7834    0.0214    0.0803    0.0003
H        19.9307   12.2252   12.7677   -0.0274    0.0533   -0.0003
H        19.8161    7.1897   12.7642   -0.0322   -0.0527   -0.0005
H        22.0002    8.4217   12.7979   -0.0789   -0.0861   -0.0013
H        22.0566   10.8949   12.7993   -0.0731    0.0859   -0.0012
C         9.0706    8.5177   12.7651    0.0223    0.0467   -0.0002
C         9.1350   11.3733   12.7663    0.0217   -0.0484   -0.0002
C         7.8920    9.2680   12.7781    0.0174   -0.0805   -0.0002
C         7.9240   10.6769   12.7780    0.0214    0.0802   -0.0002
H         9.0541    7.4277   12.7650   -0.0272    0.0531    0.0003
H         9.1683   12.4630   12.7667   -0.0323   -0.0527    0.0003
H         6.9843   11.2312   12.7887   -0.0788   -0.0860    0.0008
H         6.9279    8.7580   12.7877   -0.0728    0.0856    0.0009
C        15.8019    4.4056   12.7477   -0.0010    0.0056   -0.0000
C        12.9464    4.4688   12.7613    0.0010   -0.0045    0.0000
C        15.0523    3.2268   12.7611    0.0006   -0.0025    0.0000
C        13.6434    3.2581   12.7682   -0.0031    0.0034   -0.0000
H        16.8920    4.3900   12.7428   -0.0012   -0.0070    0.0000
H        11.8565    4.5005   12.7666    0.0015    0.0053   -0.0001
H        13.0902    2.3178   12.7803    0.0057   -0.0015   -0.0000
H        15.5632    2.2628   12.7676    0.0016   -0.0022    0.0000
    57
stable frequency at   1577.031 1/cm IR int. is 6.886 a.m.u.; force const. is 10.091 mDyne/Ang.
C        10.3153   10.6255   12.7541   -0.0024   -0.0009    0.0000
C        11.7250   11.0126   12.7436   -0.0006    0.0009    0.0000
C        13.4288   12.6432   12.7402   -0.0057    0.0192    0.0001
C        13.8774   14.0347   12.7489    0.0824   -0.0484   -0.0006
C        10.2838    9.2117   12.7538    0.0047    0.0030   -0.0000
C        11.6752    8.7628   12.7434   -0.0002    0.0005    0.0000
C        13.3062    7.0594   12.7390    0.0065    0.0194   -0.0001
C        13.6935    5.6496   12.7468   -0.0852   -0.0469    0.0008
N        12.1457   12.2786   12.7444   -0.0008   -0.0052   -0.0000
N        12.0400    7.4796   12.7439    0.0008   -0.0053    0.0000
C        15.2912   14.0035   12.7457   -0.0851   -0.0467   -0.0002
C        15.6785   12.5937   12.7355    0.0065    0.0193    0.0001
C        17.3094   10.8903   12.7347   -0.0002    0.0005   -0.0000
C        18.7010   10.4413   12.7487    0.0047    0.0030    0.0001
C        17.2595    8.6406   12.7332   -0.0006    0.0010   -0.0000
C        18.6693    9.0275   12.7476   -0.0024   -0.0008   -0.0000
C        15.1073    5.6184   12.7412    0.0825   -0.0484    0.0000
C        15.5559    7.0099   12.7320   -0.0057    0.0192   -0.0001
N        16.9446   12.1735   12.7365    0.0008   -0.0053   -0.0000
N        16.8391    7.3745   12.7331   -0.0008   -0.0052    0.0000
N        12.4947    9.8701   12.7367   -0.0001    0.0007    0.0000
N        14.5362   11.8239   12.7312    0.0001    0.0022    0.0000
N        16.4900    9.7831   12.7252   -0.0000    0.0007   -0.0000
N        14.4485    7.8292   12.7301    0.0001    0.0022   -0.0000
C        13.1827   15.2473   12.7623   -0.0468    0.0223    0.0003
Zn       14.4924    9.8265   12.7264    0.0000   -0.0005   -0.0000
C        16.0384   15.1842   12.7549    0.0484    0.0217    0.0001
C        13.9324   16.4262   12.7720    0.0805    0.0174   -0.0000
C        15.3413   16.3949   12.7682   -0.0801    0.0213    0.0004
H        12.0925   15.2624   12.7653   -0.0532   -0.0273   -0.0001
H        17.1282   15.1517   12.7524    0.0527   -0.0321   -0.0004
H        15.8945   17.3351   12.7765    0.0858   -0.0785   -0.0010
H        13.4215   17.3900   12.7831   -0.0859   -0.0731   -0.0006
C        19.9141   11.1351   12.7666   -0.0056   -0.0010   -0.0001
C        19.8494    8.2795   12.7644    0.0046    0.0010    0.0001
C        21.0925   10.3847   12.7838    0.0025    0.0006    0.0000
C        21.0605    8.9757   12.7834   -0.0034   -0.0031   -0.0001
H        19.9307   12.2252   12.7677    0.0071   -0.0012    0.0001
H        19.8161    7.1897   12.7642   -0.0054    0.0015   -0.0001
H        22.0002    8.4217   12.7979    0.0016    0.0058    0.0000
H        22.0566   10.8949   12.7993    0.0023    0.0015    0.0000
C         9.0706    8.5177   12.7651   -0.0056   -0.0010    0.0001
C         9.1350   11.3733   12.7663    0.0046    0.0011   -0.0000
C         7.8920    9.2680   12.7781    0.0025    0.0006   -0.0000
C         7.9240   10.6769   12.7780   -0.0034   -0.0031    0.0000
H         9.0541    7.4277   12.7650    0.0071   -0.0012   -0.0001
H         9.1683   12.4630   12.7667   -0.0054    0.0016    0.0001
H         6.9843   11.2312   12.7887    0.0016    0.0058   -0.0000
H         6.9279    8.7580   12.7877    0.0023    0.0015   -0.0000
C        15.8019    4.4056   12.7477   -0.0468    0.0222    0.0000
C        12.9464    4.4688   12.7613    0.0484    0.0218   -0.0004
C        15.0523    3.2268   12.7611    0.0807    0.0176   -0.0006
C        13.6434    3.2581   12.7682   -0.0803    0.0213    0.0002
H        16.8920    4.3900   12.7428   -0.0533   -0.0272    0.0005
H        11.8565    4.5005   12.7666    0.0527   -0.0325   -0.0001
H        13.0902    2.3178   12.7803    0.0858   -0.0787    0.0003
H        15.5632    2.2628   12.7676   -0.0862   -0.0732    0.0011
    57
stable frequency at   1578.808 1/cm IR int. is 6.978 a.m.u.; force const. is 10.248 mDyne/Ang.
C        10.3153   10.6255   12.7541   -0.0338    0.0601    0.0003
C        11.7250   11.0126   12.7436    0.0154   -0.0082   -0.0001
C        13.4288   12.6432   12.7402    0.0074   -0.0155   -0.0001
C        13.8774   14.0347   12.7489   -0.0587    0.0353    0.0005
C        10.2838    9.2117   12.7538   -0.0349   -0.0581    0.0003
C        11.6752    8.7628   12.7434    0.0154    0.0074   -0.0001
C        13.3062    7.0594   12.7390    0.0082    0.0154   -0.0001
C        13.6935    5.6496   12.7468   -0.0605   -0.0340    0.0006
N        12.1457   12.2786   12.7444   -0.0040    0.0043    0.0000
N        12.0400    7.4796   12.7439   -0.0042   -0.0041    0.0000
C        15.2912   14.0035   12.7457    0.0606    0.0340    0.0002
C        15.6785   12.5937   12.7355   -0.0082   -0.0155   -0.0001
C        17.3094   10.8903   12.7347   -0.0154   -0.0074   -0.0002
C        18.7010   10.4413   12.7487    0.0349    0.0580    0.0005
C        17.2595    8.6406   12.7332   -0.0153    0.0083   -0.0002
C        18.6693    9.0275   12.7476    0.0336   -0.0599    0.0004
C        15.1073    5.6184   12.7412    0.0586   -0.0352    0.0000
C        15.5559    7.0099   12.7320   -0.0074    0.0155   -0.0001
N        16.9446   12.1735   12.7365    0.0042    0.0041    0.0000
N        16.8391    7.3745   12.7331    0.0040   -0.0043    0.0000
N        12.4947    9.8701   12.7367   -0.0003   -0.0000    0.0000
N        14.5362   11.8239   12.7312    0.0000    0.0003    0.0000
N        16.4900    9.7831   12.7252    0.0003    0.0000    0.0000
N        14.4485    7.8292   12.7301    0.0000   -0.0003    0.0000
C        13.1827   15.2473   12.7623    0.0332   -0.0163   -0.0002
Zn       14.4924    9.8265   12.7264   -0.0000    0.0000    0.0000
C        16.0384   15.1842   12.7549   -0.0344   -0.0157   -0.0001
C        13.9324   16.4262   12.7720   -0.0563   -0.0121    0.0000
C        15.3413   16.3949   12.7682    0.0561   -0.0149   -0.0003
H        12.0925   15.2624   12.7653    0.0378    0.0185    0.0001
H        17.1282   15.1517   12.7524   -0.0375    0.0219    0.0003
H        15.8945   17.3351   12.7765   -0.0602    0.0551    0.0007
H        13.4215   17.3900   12.7831    0.0601    0.0512    0.0004
C        19.9141   11.1351   12.7666   -0.0162   -0.0328   -0.0003
C        19.8494    8.2795   12.7644   -0.0155    0.0340   -0.0002
C        21.0925   10.3847   12.7838   -0.0119    0.0556   -0.0002
C        21.0605    8.9757   12.7834   -0.0148   -0.0555   -0.0002
H        19.9307   12.2252   12.7677    0.0184   -0.0374    0.0002
H        19.8161    7.1897   12.7642    0.0217    0.0371    0.0003
H        22.0002    8.4217   12.7979    0.0546    0.0597    0.0009
H        22.0566   10.8949   12.7993    0.0506   -0.0593    0.0008
C         9.0706    8.5177   12.7651    0.0161    0.0329   -0.0001
C         9.1350   11.3733   12.7663    0.0156   -0.0341   -0.0002
C         7.8920    9.2680   12.7781    0.0119   -0.0558   -0.0001
C         7.9240   10.6769   12.7780    0.0148    0.0556   -0.0001
H         9.0541    7.4277   12.7650   -0.0183    0.0375    0.0002
H         9.1683   12.4630   12.7667   -0.0219   -0.0372    0.0002
H         6.9843   11.2312   12.7887   -0.0548   -0.0598    0.0005
H         6.9279    8.7580   12.7877   -0.0506    0.0593    0.0006
C        15.8019    4.4056   12.7477   -0.0332    0.0162    0.0000
C        12.9464    4.4688   12.7613    0.0343    0.0158   -0.0003
C        15.0523    3.2268   12.7611    0.0563    0.0122   -0.0004
C        13.6434    3.2581   12.7682   -0.0560    0.0148    0.0002
H        16.8920    4.3900   12.7428   -0.0378   -0.0184    0.0003
H        11.8565    4.5005   12.7666    0.0375   -0.0222   -0.0001
H        13.0902    2.3178   12.7803    0.0601   -0.0551    0.0002
H        15.5632    2.2628   12.7676   -0.0601   -0.0511    0.0008
    57
stable frequency at   1597.394 1/cm IR int. is 6.995 a.m.u.; force const. is 10.516 mDyne/Ang.
C        10.3153   10.6255   12.7541   -0.0571    0.0181    0.0005
C        11.7250   11.0126   12.7436    0.0060   -0.0063   -0.0001
C        13.4288   12.6432   12.7402   -0.0062    0.0060    0.0001
C        13.8774   14.0347   12.7489    0.0156   -0.0560   -0.0005
C        10.2838    9.2117   12.7538    0.0580    0.0162   -0.0005
C        11.6752    8.7628   12.7434   -0.0063   -0.0062    0.0001
C        13.3062    7.0594   12.7390    0.0064    0.0059   -0.0001
C        13.6935    5.6496   12.7468   -0.0180   -0.0569    0.0006
N        12.1457   12.2786   12.7444    0.0048    0.0046   -0.0000
N        12.0400    7.4796   12.7439   -0.0046    0.0049    0.0000
C        15.2912   14.0035   12.7457    0.0175    0.0550    0.0004
C        15.6785   12.5937   12.7355   -0.0065   -0.0056   -0.0000
C        17.3094   10.8903   12.7347    0.0064    0.0061    0.0001
C        18.7010   10.4413   12.7487   -0.0586   -0.0163   -0.0008
C        17.2595    8.6406   12.7332   -0.0060    0.0065   -0.0001
C        18.6693    9.0275   12.7476    0.0575   -0.0183    0.0007
C        15.1073    5.6184   12.7412   -0.0162    0.0580   -0.0004
C        15.5559    7.0099   12.7320    0.0063   -0.0063    0.0000
N        16.9446   12.1735   12.7365    0.0046   -0.0048   -0.0000
N        16.8391    7.3745   12.7331   -0.0049   -0.0047    0.0000
N        12.4947    9.8701   12.7367   -0.0001   -0.0030   -0.0000
N        14.5362   11.8239   12.7312   -0.0028    0.0001    0.0000
N        16.4900    9.7831   12.7252    0.0001    0.0031    0.0000
N        14.4485    7.8292   12.7301    0.0030   -0.0001   -0.0000
C        13.1827   15.2473   12.7623   -0.0013    0.0663    0.0006
Zn       14.4924    9.8265   12.7264    0.0000    0.0000    0.0000
C        16.0384   15.1842   12.7549   -0.0038   -0.0661   -0.0006
C        13.9324   16.4262   12.7720   -0.0143   -0.0333   -0.0003
C        15.3413   16.3949   12.7682   -0.0138    0.0342    0.0004
H        12.0925   15.2624   12.7653   -0.0047   -0.0784   -0.0008
H        17.1282   15.1517   12.7524   -0.0010    0.0777    0.0007
H        15.8945   17.3351   12.7765    0.0403    0.0054   -0.0001
H        13.4215   17.3900   12.7831    0.0383   -0.0082   -0.0002
C        19.9141   11.1351   12.7666    0.0692    0.0013    0.0010
C        19.8494    8.2795   12.7644   -0.0690    0.0040   -0.0010
C        21.0925   10.3847   12.7838   -0.0347    0.0149   -0.0005
C        21.0605    8.9757   12.7834    0.0357    0.0145    0.0006
H        19.9307   12.2252   12.7677   -0.0819    0.0051   -0.0012
H        19.8161    7.1897   12.7642    0.0812    0.0010    0.0012
H        22.0002    8.4217   12.7979    0.0056   -0.0421    0.0000
H        22.0566   10.8949   12.7993   -0.0086   -0.0399   -0.0002
C         9.0706    8.5177   12.7651   -0.0686   -0.0013    0.0007
C         9.1350   11.3733   12.7663    0.0685   -0.0040   -0.0007
C         7.8920    9.2680   12.7781    0.0344   -0.0148   -0.0004
C         7.9240   10.6769   12.7780   -0.0354   -0.0143    0.0004
H         9.0541    7.4277   12.7650    0.0811   -0.0051   -0.0008
H         9.1683   12.4630   12.7667   -0.0805   -0.0010    0.0008
H         6.9843   11.2312   12.7887   -0.0055    0.0417   -0.0000
H         6.9279    8.7580   12.7877    0.0086    0.0396   -0.0001
C        15.8019    4.4056   12.7477    0.0013   -0.0686    0.0005
C        12.9464    4.4688   12.7613    0.0039    0.0683   -0.0006
C        15.0523    3.2268   12.7611    0.0147    0.0344   -0.0004
C        13.6434    3.2581   12.7682    0.0144   -0.0354    0.0002
H        16.8920    4.3900   12.7428    0.0050    0.0811   -0.0006
H        11.8565    4.5005   12.7666    0.0011   -0.0804    0.0007
H        13.0902    2.3178   12.7803   -0.0418   -0.0055    0.0002
H        15.5632    2.2628   12.7676   -0.0396    0.0085    0.0001
    57
stable frequency at   1598.774 1/cm IR int. is 7.029 a.m.u.; force const. is 10.586 mDyne/Ang.
C        10.3153   10.6255   12.7541   -0.0808    0.0240    0.0008
C        11.7250   11.0126   12.7436    0.0119   -0.0014   -0.0001
C        13.4288   12.6432   12.7402   -0.0079   -0.0043    0.0000
C        13.8774   14.0347   12.7489   -0.0008   -0.0034   -0.0000
C        10.2838    9.2117   12.7538    0.0828    0.0217   -0.0007
C        11.6752    8.7628   12.7434   -0.0130    0.0004    0.0001
C        13.3062    7.0594   12.7390    0.0075   -0.0068    0.0000
C        13.6935    5.6496   12.7468    0.0049    0.0104   -0.0001
N        12.1457   12.2786   12.7444    0.0030    0.0040    0.0000
N        12.0400    7.4796   12.7439   -0.0021    0.0037   -0.0000
C        15.2912   14.0035   12.7457    0.0051    0.0111    0.0001
C        15.6785   12.5937   12.7355    0.0075   -0.0069   -0.0000
C        17.3094   10.8903   12.7347   -0.0129    0.0004   -0.0001
C        18.7010   10.4413   12.7487    0.0825    0.0216    0.0011
C        17.2595    8.6406   12.7332    0.0120   -0.0014    0.0001
C        18.6693    9.0275   12.7476   -0.0807    0.0241   -0.0010
C        15.1073    5.6184   12.7412   -0.0010   -0.0027    0.0000
C        15.5559    7.0099   12.7320   -0.0079   -0.0044    0.0000
N        16.9446   12.1735   12.7365   -0.0021    0.0037    0.0000
N        16.8391    7.3745   12.7331    0.0029    0.0040   -0.0000
N        12.4947    9.8701   12.7367   -0.0001   -0.0077   -0.0000
N        14.5362   11.8239   12.7312   -0.0006    0.0009    0.0000
N        16.4900    9.7831   12.7252   -0.0001   -0.0077   -0.0000
N        14.4485    7.8292   12.7301   -0.0006    0.0009    0.0000
C        13.1827   15.2473   12.7623    0.0020    0.0074    0.0001
Zn       14.4924    9.8265   12.7264   -0.0000   -0.0001    0.0000
C        16.0384   15.1842   12.7549   -0.0027   -0.0096   -0.0001
C        13.9324   16.4262   12.7720   -0.0058   -0.0053   -0.0000
C        15.3413   16.3949   12.7682    0.0021    0.0031    0.0000
H        12.0925   15.2624   12.7653    0.0018   -0.0081   -0.0001
H        17.1282   15.1517   12.7524   -0.0025    0.0122    0.0001
H        15.8945   17.3351   12.7765    0.0017    0.0039    0.0000
H        13.4215   17.3900   12.7831    0.0085    0.0020   -0.0000
C        19.9141   11.1351   12.7666   -0.0952   -0.0018   -0.0014
C        19.8494    8.2795   12.7644    0.0948   -0.0053    0.0014
C        21.0925   10.3847   12.7838    0.0472   -0.0201    0.0007
C        21.0605    8.9757   12.7834   -0.0487   -0.0200   -0.0008
H        19.9307   12.2252   12.7677    0.1133   -0.0071    0.0016
H        19.8161    7.1897   12.7642   -0.1119   -0.0011   -0.0017
H        22.0002    8.4217   12.7979   -0.0073    0.0577   -0.0000
H        22.0566   10.8949   12.7993    0.0119    0.0542    0.0003
C         9.0706    8.5177   12.7651   -0.0954   -0.0019    0.0010
C         9.1350   11.3733   12.7663    0.0950   -0.0052   -0.0010
C         7.8920    9.2680   12.7781    0.0473   -0.0200   -0.0005
C         7.9240   10.6769   12.7780   -0.0489   -0.0202    0.0005
H         9.0541    7.4277   12.7650    0.1135   -0.0072   -0.0011
H         9.1683   12.4630   12.7667   -0.1121   -0.0010    0.0011
H         6.9843   11.2312   12.7887   -0.0072    0.0579   -0.0000
H         6.9279    8.7580   12.7877    0.0121    0.0542   -0.0002
C        15.8019    4.4056   12.7477    0.0020    0.0065   -0.0001
C        12.9464    4.4688   12.7613   -0.0026   -0.0087    0.0001
C        15.0523    3.2268   12.7611   -0.0056   -0.0049    0.0001
C        13.6434    3.2581   12.7682    0.0023    0.0027   -0.0000
H        16.8920    4.3900   12.7428    0.0018   -0.0071    0.0000
H        11.8565    4.5005   12.7666   -0.0025    0.0112   -0.0001
H        13.0902    2.3178   12.7803    0.0012    0.0038   -0.0000
H        15.5632    2.2628   12.7676    0.0080    0.0021   -0.0001
    57
stable frequency at   1598.838 1/cm IR int. is 7.025 a.m.u.; force const. is 10.581 mDyne/Ang.
C        10.3153   10.6255   12.7541    0.0095   -0.0046   -0.0001
C        11.7250   11.0126   12.7436   -0.0066   -0.0076    0.0000
C        13.4288   12.6432   12.7402    0.0003    0.0129    0.0001
C        13.8774   14.0347   12.7489    0.0216   -0.0827   -0.0008
C        10.2838    9.2117   12.7538   -0.0018    0.0012    0.0000
C        11.6752    8.7628   12.7434   -0.0045    0.0078    0.0000
C        13.3062    7.0594   12.7390   -0.0013   -0.0119    0.0001
C        13.6935    5.6496   12.7468    0.0239    0.0805   -0.0008
N        12.1457   12.2786   12.7444    0.0037    0.0021   -0.0000
N        12.0400    7.4796   12.7439    0.0040   -0.0029   -0.0000
C        15.2912   14.0035   12.7457    0.0241    0.0807    0.0006
C        15.6785   12.5937   12.7355   -0.0015   -0.0119   -0.0001
C        17.3094   10.8903   12.7347   -0.0041    0.0079   -0.0000
C        18.7010   10.4413   12.7487   -0.0043    0.0005   -0.0001
C        17.2595    8.6406   12.7332   -0.0070   -0.0075   -0.0000
C        18.6693    9.0275   12.7476    0.0120   -0.0053    0.0002
C        15.1073    5.6184   12.7412    0.0217   -0.0828    0.0005
C        15.5559    7.0099   12.7320    0.0006    0.0131   -0.0001
N        16.9446   12.1735   12.7365    0.0041   -0.0030    0.0000
N        16.8391    7.3745   12.7331    0.0036    0.0020    0.0000
N        12.4947    9.8701   12.7367    0.0009    0.0005   -0.0000
N        14.5362   11.8239   12.7312   -0.0076    0.0001    0.0000
N        16.4900    9.7831   12.7252    0.0009    0.0007    0.0000
N        14.4485    7.8292   12.7301   -0.0077    0.0001    0.0000
C        13.1827   15.2473   12.7623   -0.0019    0.0954    0.0009
Zn       14.4924    9.8265   12.7264   -0.0001    0.0000    0.0000
C        16.0384   15.1842   12.7549   -0.0053   -0.0949   -0.0009
C        13.9324   16.4262   12.7720   -0.0201   -0.0474   -0.0004
C        15.3413   16.3949   12.7682   -0.0201    0.0488    0.0005
H        12.0925   15.2624   12.7653   -0.0069   -0.1136   -0.0011
H        17.1282   15.1517   12.7524   -0.0012    0.1120    0.0011
H        15.8945   17.3351   12.7765    0.0578    0.0074   -0.0002
H        13.4215   17.3900   12.7831    0.0543   -0.0119   -0.0003
C        19.9141   11.1351   12.7666    0.0084   -0.0019    0.0001
C        19.8494    8.2795   12.7644   -0.0106    0.0027   -0.0002
C        21.0925   10.3847   12.7838   -0.0058    0.0060   -0.0001
C        21.0605    8.9757   12.7834    0.0037   -0.0019    0.0001
H        19.9307   12.2252   12.7677   -0.0093   -0.0017   -0.0001
H        19.8161    7.1897   12.7642    0.0135    0.0025    0.0002
H        22.0002    8.4217   12.7979    0.0040   -0.0023    0.0001
H        22.0566   10.8949   12.7993    0.0019   -0.0090    0.0000
C         9.0706    8.5177   12.7651    0.0055   -0.0020   -0.0001
C         9.1350   11.3733   12.7663   -0.0077    0.0025    0.0001
C         7.8920    9.2680   12.7781   -0.0043    0.0053    0.0000
C         7.9240   10.6769   12.7780    0.0021   -0.0025   -0.0000
H         9.0541    7.4277   12.7650   -0.0058   -0.0019    0.0001
H         9.1683   12.4630   12.7667    0.0100    0.0024   -0.0001
H         6.9843   11.2312   12.7887    0.0037   -0.0005   -0.0000
H         6.9279    8.7580   12.7877    0.0022   -0.0073   -0.0000
C        15.8019    4.4056   12.7477   -0.0019    0.0954   -0.0008
C        12.9464    4.4688   12.7613   -0.0051   -0.0947    0.0009
C        15.0523    3.2268   12.7611   -0.0200   -0.0473    0.0005
C        13.6434    3.2581   12.7682   -0.0202    0.0488   -0.0003
H        16.8920    4.3900   12.7428   -0.0070   -0.1135    0.0009
H        11.8565    4.5005   12.7666   -0.0012    0.1119   -0.0010
H        13.0902    2.3178   12.7803    0.0579    0.0072   -0.0003
H        15.5632    2.2628   12.7676    0.0543   -0.0120   -0.0002
    57
stable frequency at   1600.218 1/cm IR int. is 7.053 a.m.u.; force const. is 10.642 mDyne/Ang.
C        10.3153   10.6255   12.7541    0.0582   -0.0166   -0.0005
C        11.7250   11.0126   12.7436   -0.0115   -0.0040    0.0001
C        13.4288   12.6432   12.7402    0.0043    0.0115    0.0001
C        13.8774   14.0347   12.7489    0.0149   -0.0608   -0.0006
C        10.2838    9.2117   12.7538   -0.0589   -0.0144    0.0005
C        11.6752    8.7628   12.7434    0.0112   -0.0043   -0.0001
C        13.3062    7.0594   12.7390   -0.0038    0.0113   -0.0001
C        13.6935    5.6496   12.7468   -0.0166   -0.0582    0.0006
N        12.1457   12.2786   12.7444    0.0011   -0.0011   -0.0000
N        12.0400    7.4796   12.7439   -0.0011   -0.0010    0.0000
C        15.2912   14.0035   12.7457    0.0172    0.0599    0.0005
C        15.6785   12.5937   12.7355    0.0037   -0.0116   -0.0001
C        17.3094   10.8903   12.7347   -0.0111    0.0044   -0.0001
C        18.7010   10.4413   12.7487    0.0583    0.0142    0.0008
C        17.2595    8.6406   12.7332    0.0113    0.0039    0.0001
C        18.6693    9.0275   12.7476   -0.0576    0.0165   -0.0007
C        15.1073    5.6184   12.7412   -0.0145    0.0591   -0.0004
C        15.5559    7.0099   12.7320   -0.0042   -0.0112    0.0000
N        16.9446   12.1735   12.7365    0.0012    0.0010    0.0000
N        16.8391    7.3745   12.7331   -0.0011    0.0011   -0.0000
N        12.4947    9.8701   12.7367    0.0002    0.0073    0.0000
N        14.5362   11.8239   12.7312   -0.0074    0.0002    0.0000
N        16.4900    9.7831   12.7252   -0.0002   -0.0073   -0.0000
N        14.4485    7.8292   12.7301    0.0073   -0.0002   -0.0000
C        13.1827   15.2473   12.7623   -0.0012    0.0690    0.0007
Zn       14.4924    9.8265   12.7264   -0.0000    0.0000    0.0000
C        16.0384   15.1842   12.7549   -0.0040   -0.0688   -0.0006
C        13.9324   16.4262   12.7720   -0.0148   -0.0341   -0.0003
C        15.3413   16.3949   12.7682   -0.0141    0.0349    0.0004
H        12.0925   15.2624   12.7653   -0.0048   -0.0824   -0.0008
H        17.1282   15.1517   12.7524   -0.0011    0.0816    0.0008
H        15.8945   17.3351   12.7765    0.0412    0.0056   -0.0001
H        13.4215   17.3900   12.7831    0.0393   -0.0083   -0.0002
C        19.9141   11.1351   12.7666   -0.0661   -0.0011   -0.0010
C        19.8494    8.2795   12.7644    0.0660   -0.0038    0.0010
C        21.0925   10.3847   12.7838    0.0326   -0.0142    0.0005
C        21.0605    8.9757   12.7834   -0.0335   -0.0135   -0.0005
H        19.9307   12.2252   12.7677    0.0789   -0.0048    0.0011
H        19.8161    7.1897   12.7642   -0.0784   -0.0010   -0.0012
H        22.0002    8.4217   12.7979   -0.0053    0.0394   -0.0000
H        22.0566   10.8949   12.7993    0.0080    0.0376    0.0002
C         9.0706    8.5177   12.7651    0.0667    0.0011   -0.0007
C         9.1350   11.3733   12.7663   -0.0666    0.0039    0.0007
C         7.8920    9.2680   12.7781   -0.0329    0.0143    0.0004
C         7.9240   10.6769   12.7780    0.0339    0.0137   -0.0003
H         9.0541    7.4277   12.7650   -0.0796    0.0048    0.0008
H         9.1683   12.4630   12.7667    0.0791    0.0009   -0.0008
H         6.9843   11.2312   12.7887    0.0054   -0.0398    0.0000
H         6.9279    8.7580   12.7877   -0.0081   -0.0380    0.0001
C        15.8019    4.4056   12.7477    0.0012   -0.0671    0.0005
C        12.9464    4.4688   12.7613    0.0038    0.0668   -0.0006
C        15.0523    3.2268   12.7611    0.0143    0.0331   -0.0004
C        13.6434    3.2581   12.7682    0.0138   -0.0340    0.0002
H        16.8920    4.3900   12.7428    0.0048    0.0800   -0.0006
H        11.8565    4.5005   12.7666    0.0011   -0.0794    0.0007
H        13.0902    2.3178   12.7803   -0.0401   -0.0054    0.0002
H        15.5632    2.2628   12.7676   -0.0382    0.0081    0.0001
    57
stable frequency at   3116.469 1/cm IR int. is 1.086 a.m.u.; force const. is 6.213 mDyne/Ang.
C        10.3153   10.6255   12.7541    0.0000    0.0000    0.0000
C        11.7250   11.0126   12.7436    0.0000    0.0000    0.0000
C        13.4288   12.6432   12.7402    0.0000   -0.0000    0.0000
C        13.8774   14.0347   12.7489    0.0000    0.0000    0.0000
C        10.2838    9.2117   12.7538   -0.0000    0.0000    0.0000
C        11.6752    8.7628   12.7434    0.0000   -0.0000    0.0000
C        13.3062    7.0594   12.7390   -0.0000    0.0000    0.0000
C        13.6935    5.6496   12.7468   -0.0000    0.0003    0.0000
N        12.1457   12.2786   12.7444   -0.0000   -0.0000    0.0000
N        12.0400    7.4796   12.7439    0.0000    0.0000    0.0000
C        15.2912   14.0035   12.7457    0.0000   -0.0000    0.0000
C        15.6785   12.5937   12.7355    0.0000    0.0000    0.0000
C        17.3094   10.8903   12.7347    0.0000   -0.0000    0.0000
C        18.7010   10.4413   12.7487    0.0001   -0.0000    0.0000
C        17.2595    8.6406   12.7332    0.0000    0.0000    0.0000
C        18.6693    9.0275   12.7476   -0.0001   -0.0000    0.0000
C        15.1073    5.6184   12.7412   -0.0000   -0.0003    0.0000
C        15.5559    7.0099   12.7320   -0.0000    0.0000    0.0000
N        16.9446   12.1735   12.7365   -0.0000    0.0000    0.0000
N        16.8391    7.3745   12.7331    0.0000    0.0000    0.0000
N        12.4947    9.8701   12.7367    0.0000   -0.0000    0.0000
N        14.5362   11.8239   12.7312   -0.0000   -0.0000    0.0000
N        16.4900    9.7831   12.7252    0.0000   -0.0000    0.0000
N        14.4485    7.8292   12.7301   -0.0001   -0.0000    0.0000
C        13.1827   15.2473   12.7623    0.0017   -0.0002   -0.0000
Zn       14.4924    9.8265   12.7264    0.0000   -0.0000    0.0000
C        16.0384   15.1842   12.7549    0.0017    0.0001   -0.0000
C        13.9324   16.4262   12.7720   -0.0031    0.0062    0.0001
C        15.3413   16.3949   12.7682   -0.0032   -0.0057   -0.0001
H        12.0925   15.2624   12.7653   -0.0218    0.0005    0.0001
H        17.1282   15.1517   12.7524   -0.0208    0.0004    0.0001
H        15.8945   17.3351   12.7765    0.0388    0.0667    0.0006
H        13.4215   17.3900   12.7831    0.0379   -0.0723   -0.0008
C        19.9141   11.1351   12.7666   -0.0007   -0.0072   -0.0000
C        19.8494    8.2795   12.7644    0.0004   -0.0075    0.0000
C        21.0925   10.3847   12.7838    0.0233    0.0117    0.0004
C        21.0605    8.9757   12.7834   -0.0228    0.0128   -0.0004
H        19.9307   12.2252   12.7677    0.0026    0.0901    0.0001
H        19.8161    7.1897   12.7642    0.0018    0.0934    0.0000
H        22.0002    8.4217   12.7979    0.2664   -0.1557    0.0042
H        22.0566   10.8949   12.7993   -0.2733   -0.1434   -0.0043
C         9.0706    8.5177   12.7651    0.0001    0.0011   -0.0000
C         9.1350   11.3733   12.7663   -0.0001    0.0014    0.0000
C         7.8920    9.2680   12.7781   -0.0052   -0.0026    0.0001
C         7.9240   10.6769   12.7780    0.0064   -0.0036   -0.0001
H         9.0541    7.4277   12.7650   -0.0002   -0.0139    0.0000
H         9.1683   12.4630   12.7667   -0.0003   -0.0188   -0.0000
H         6.9843   11.2312   12.7887   -0.0739    0.0431    0.0008
H         6.9279    8.7580   12.7877    0.0613    0.0318   -0.0006
C        15.8019    4.4056   12.7477   -0.0135    0.0013    0.0001
C        12.9464    4.4688   12.7613   -0.0139   -0.0006    0.0001
C        15.0523    3.2268   12.7611    0.0218   -0.0431    0.0003
C        13.6434    3.2581   12.7682    0.0225    0.0404   -0.0005
H        16.8920    4.3900   12.7428    0.1682   -0.0046   -0.0007
H        11.8565    4.5005   12.7666    0.1716   -0.0029   -0.0008
H        13.0902    2.3178   12.7803   -0.2749   -0.4711    0.0061
H        15.5632    2.2628   12.7676   -0.2656    0.5050   -0.0033
    57
stable frequency at   3116.636 1/cm IR int. is 1.086 a.m.u.; force const. is 6.214 mDyne/Ang.
C        10.3153   10.6255   12.7541   -0.0000   -0.0000    0.0000
C        11.7250   11.0126   12.7436    0.0000   -0.0000    0.0000
C        13.4288   12.6432   12.7402   -0.0000   -0.0000   -0.0000
C        13.8774   14.0347   12.7489   -0.0000   -0.0001   -0.0000
C        10.2838    9.2117   12.7538   -0.0000    0.0000    0.0000
C        11.6752    8.7628   12.7434    0.0000   -0.0000    0.0000
C        13.3062    7.0594   12.7390    0.0000   -0.0000    0.0000
C        13.6935    5.6496   12.7468    0.0000    0.0002   -0.0000
N        12.1457   12.2786   12.7444    0.0000   -0.0000   -0.0000
N        12.0400    7.4796   12.7439    0.0000    0.0000    0.0000
C        15.2912   14.0035   12.7457   -0.0000    0.0001   -0.0000
C        15.6785   12.5937   12.7355    0.0000   -0.0000   -0.0000
C        17.3094   10.8903   12.7347    0.0000   -0.0000   -0.0000
C        18.7010   10.4413   12.7487   -0.0003    0.0000   -0.0000
C        17.2595    8.6406   12.7332    0.0000    0.0000   -0.0000
C        18.6693    9.0275   12.7476    0.0003    0.0000    0.0000
C        15.1073    5.6184   12.7412   -0.0000   -0.0002    0.0000
C        15.5559    7.0099   12.7320   -0.0000   -0.0000   -0.0000
N        16.9446   12.1735   12.7365   -0.0000   -0.0000   -0.0000
N        16.8391    7.3745   12.7331    0.0000   -0.0000   -0.0000
N        12.4947    9.8701   12.7367   -0.0000    0.0000    0.0000
N        14.5362   11.8239   12.7312   -0.0000   -0.0000   -0.0000
N        16.4900    9.7831   12.7252   -0.0000    0.0001   -0.0000
N        14.4485    7.8292   12.7301   -0.0000   -0.0000   -0.0000
C        13.1827   15.2473   12.7623   -0.0040    0.0004    0.0000
Zn       14.4924    9.8265   12.7264    0.0000   -0.0000   -0.0000
C        16.0384   15.1842   12.7549   -0.0035   -0.0002    0.0000
C        13.9324   16.4262   12.7720    0.0064   -0.0125   -0.0001
C        15.3413   16.3949   12.7682    0.0058    0.0105    0.0001
H        12.0925   15.2624   12.7653    0.0493   -0.0015   -0.0002
H        17.1282   15.1517   12.7524    0.0432   -0.0009   -0.0001
H        15.8945   17.3351   12.7765   -0.0716   -0.1230   -0.0011
H        13.4215   17.3900   12.7831   -0.0770    0.1463    0.0016
C        19.9141   11.1351   12.7666    0.0012    0.0131    0.0000
C        19.8494    8.2795   12.7644   -0.0006    0.0142   -0.0000
C        21.0925   10.3847   12.7838   -0.0399   -0.0200   -0.0006
C        21.0605    8.9757   12.7834    0.0408   -0.0229    0.0007
H        19.9307   12.2252   12.7677   -0.0045   -0.1619   -0.0003
H        19.8161    7.1897   12.7642   -0.0030   -0.1747   -0.0000
H        22.0002    8.4217   12.7979   -0.4755    0.2784   -0.0074
H        22.0566   10.8949   12.7993    0.4684    0.2460    0.0074
C         9.0706    8.5177   12.7651    0.0000    0.0002    0.0000
C         9.1350   11.3733   12.7663   -0.0000    0.0002    0.0000
C         7.8920    9.2680   12.7781   -0.0010   -0.0005    0.0000
C         7.9240   10.6769   12.7780    0.0012   -0.0007   -0.0000
H         9.0541    7.4277   12.7650   -0.0001   -0.0021    0.0000
H         9.1683   12.4630   12.7667    0.0000   -0.0031    0.0000
H         6.9843   11.2312   12.7887   -0.0144    0.0084    0.0002
H         6.9279    8.7580   12.7877    0.0114    0.0060   -0.0001
C        15.8019    4.4056   12.7477   -0.0086    0.0007    0.0000
C        12.9464    4.4688   12.7613   -0.0086   -0.0003    0.0000
C        15.0523    3.2268   12.7611    0.0126   -0.0249    0.0002
C        13.6434    3.2581   12.7682    0.0124    0.0223   -0.0003
H        16.8920    4.3900   12.7428    0.1060   -0.0031   -0.0005
H        11.8565    4.5005   12.7666    0.1052   -0.0019   -0.0005
H        13.0902    2.3178   12.7803   -0.1523   -0.2606    0.0034
H        15.5632    2.2628   12.7676   -0.1536    0.2911   -0.0019
    57
stable frequency at   3116.905 1/cm IR int. is 1.086 a.m.u.; force const. is 6.215 mDyne/Ang.
C        10.3153   10.6255   12.7541   -0.0000   -0.0000   -0.0000
C        11.7250   11.0126   12.7436    0.0000    0.0000   -0.0000
C        13.4288   12.6432   12.7402   -0.0000    0.0000   -0.0000
C        13.8774   14.0347   12.7489   -0.0000   -0.0003   -0.0000
C        10.2838    9.2117   12.7538    0.0000   -0.0000   -0.0000
C        11.6752    8.7628   12.7434    0.0000   -0.0000   -0.0000
C        13.3062    7.0594   12.7390    0.0000    0.0000    0.0000
C        13.6935    5.6496   12.7468    0.0000    0.0000    0.0000
N        12.1457   12.2786   12.7444    0.0000   -0.0000   -0.0000
N        12.0400    7.4796   12.7439   -0.0000    0.0000   -0.0000
C        15.2912   14.0035   12.7457   -0.0000    0.0003    0.0000
C        15.6785   12.5937   12.7355   -0.0000    0.0000   -0.0000
C        17.3094   10.8903   12.7347    0.0000   -0.0000   -0.0000
C        18.7010   10.4413   12.7487    0.0001   -0.0000    0.0000
C        17.2595    8.6406   12.7332    0.0000    0.0000    0.0000
C        18.6693    9.0275   12.7476   -0.0001    0.0000   -0.0000
C        15.1073    5.6184   12.7412   -0.0000   -0.0000    0.0000
C        15.5559    7.0099   12.7320    0.0000    0.0000    0.0000
N        16.9446   12.1735   12.7365    0.0000    0.0000   -0.0000
N        16.8391    7.3745   12.7331   -0.0000   -0.0000    0.0000
N        12.4947    9.8701   12.7367    0.0000   -0.0000   -0.0000
N        14.5362   11.8239   12.7312   -0.0001   -0.0000   -0.0000
N        16.4900    9.7831   12.7252    0.0000   -0.0000   -0.0000
N        14.4485    7.8292   12.7301   -0.0000   -0.0000    0.0000
C        13.1827   15.2473   12.7623   -0.0158    0.0014    0.0001
Zn       14.4924    9.8265   12.7264    0.0000   -0.0000   -0.0000
C        16.0384   15.1842   12.7549   -0.0152   -0.0006    0.0000
C        13.9324   16.4262   12.7720    0.0240   -0.0475   -0.0005
C        15.3413   16.3949   12.7682    0.0244    0.0437    0.0004
H        12.0925   15.2624   12.7653    0.1954   -0.0053   -0.0006
H        17.1282   15.1517   12.7524    0.1875   -0.0032   -0.0004
H        15.8945   17.3351   12.7765   -0.2977   -0.5100   -0.0046
H        13.4215   17.3900   12.7831   -0.2927    0.5562    0.0063
C        19.9141   11.1351   12.7666   -0.0004   -0.0050   -0.0000
C        19.8494    8.2795   12.7644    0.0002   -0.0051    0.0000
C        21.0925   10.3847   12.7838    0.0132    0.0067    0.0002
C        21.0605    8.9757   12.7834   -0.0124    0.0070   -0.0002
H        19.9307   12.2252   12.7677    0.0019    0.0613    0.0001
H        19.8161    7.1897   12.7642    0.0012    0.0619    0.0000
H        22.0002    8.4217   12.7979    0.1450   -0.0851    0.0023
H        22.0566   10.8949   12.7993   -0.1551   -0.0818   -0.0025
C         9.0706    8.5177   12.7651   -0.0003   -0.0027    0.0000
C         9.1350   11.3733   12.7663    0.0001   -0.0028   -0.0000
C         7.8920    9.2680   12.7781    0.0091    0.0046   -0.0001
C         7.9240   10.6769   12.7780   -0.0087    0.0049    0.0001
H         9.0541    7.4277   12.7650    0.0011    0.0341   -0.0000
H         9.1683   12.4630   12.7667    0.0008    0.0344   -0.0000
H         6.9843   11.2312   12.7887    0.1015   -0.0593   -0.0012
H         6.9279    8.7580   12.7877   -0.1065   -0.0559    0.0010
C        15.8019    4.4056   12.7477   -0.0001    0.0000    0.0000
C        12.9464    4.4688   12.7613   -0.0001   -0.0000    0.0000
C        15.0523    3.2268   12.7611    0.0003   -0.0005    0.0000
C        13.6434    3.2581   12.7682    0.0002    0.0004   -0.0000
H        16.8920    4.3900   12.7428    0.0017   -0.0001    0.0000
H        11.8565    4.5005   12.7666    0.0013    0.0000    0.0000
H        13.0902    2.3178   12.7803   -0.0027   -0.0046    0.0001
H        15.5632    2.2628   12.7676   -0.0031    0.0059   -0.0000
    57
stable frequency at   3117.220 1/cm IR int. is 1.086 a.m.u.; force const. is 6.216 mDyne/Ang.
C        10.3153   10.6255   12.7541    0.0003    0.0000   -0.0000
C        11.7250   11.0126   12.7436    0.0000    0.0000    0.0000
C        13.4288   12.6432   12.7402   -0.0000   -0.0000    0.0000
C        13.8774   14.0347   12.7489   -0.0000   -0.0001    0.0000
C        10.2838    9.2117   12.7538   -0.0003    0.0000    0.0000
C        11.6752    8.7628   12.7434   -0.0000    0.0000    0.0000
C        13.3062    7.0594   12.7390    0.0000   -0.0000    0.0000
C        13.6935    5.6496   12.7468   -0.0000   -0.0001    0.0000
N        12.1457   12.2786   12.7444    0.0000   -0.0000    0.0000
N        12.0400    7.4796   12.7439   -0.0000   -0.0000    0.0000
C        15.2912   14.0035   12.7457    0.0000    0.0001    0.0000
C        15.6785   12.5937   12.7355   -0.0000   -0.0000    0.0000
C        17.3094   10.8903   12.7347   -0.0000   -0.0000   -0.0000
C        18.7010   10.4413   12.7487    0.0000    0.0000   -0.0000
C        17.2595    8.6406   12.7332   -0.0000   -0.0000   -0.0000
C        18.6693    9.0275   12.7476   -0.0000   -0.0000   -0.0000
C        15.1073    5.6184   12.7412    0.0000    0.0000    0.0000
C        15.5559    7.0099   12.7320   -0.0000   -0.0000    0.0000
N        16.9446   12.1735   12.7365   -0.0000    0.0000   -0.0000
N        16.8391    7.3745   12.7331    0.0000    0.0000   -0.0000
N        12.4947    9.8701   12.7367   -0.0000    0.0001    0.0000
N        14.5362   11.8239   12.7312   -0.0000   -0.0000    0.0000
N        16.4900    9.7831   12.7252   -0.0000    0.0000   -0.0000
N        14.4485    7.8292   12.7301    0.0000   -0.0000    0.0000
C        13.1827   15.2473   12.7623   -0.0039    0.0003    0.0000
Zn       14.4924    9.8265   12.7264   -0.0000   -0.0000    0.0000
C        16.0384   15.1842   12.7549   -0.0036   -0.0001    0.0000
C        13.9324   16.4262   12.7720    0.0049   -0.0095   -0.0001
C        15.3413   16.3949   12.7682    0.0045    0.0080    0.0001
H        12.0925   15.2624   12.7653    0.0473   -0.0014   -0.0001
H        17.1282   15.1517   12.7524    0.0429   -0.0008   -0.0001
H        15.8945   17.3351   12.7765   -0.0549   -0.0937   -0.0008
H        13.4215   17.3900   12.7831   -0.0592    0.1119    0.0013
C        19.9141   11.1351   12.7666   -0.0000   -0.0002   -0.0000
C        19.8494    8.2795   12.7644    0.0000   -0.0003   -0.0000
C        21.0925   10.3847   12.7838    0.0003    0.0002    0.0000
C        21.0605    8.9757   12.7834   -0.0008    0.0005   -0.0000
H        19.9307   12.2252   12.7677   -0.0000    0.0020   -0.0000
H        19.8161    7.1897   12.7642    0.0001    0.0042   -0.0000
H        22.0002    8.4217   12.7979    0.0093   -0.0055    0.0001
H        22.0566   10.8949   12.7993   -0.0043   -0.0022   -0.0001
C         9.0706    8.5177   12.7651    0.0013    0.0152   -0.0000
C         9.1350   11.3733   12.7663   -0.0008    0.0170    0.0000
C         7.8920    9.2680   12.7781   -0.0455   -0.0227    0.0004
C         7.9240   10.6769   12.7780    0.0485   -0.0273   -0.0006
H         9.0541    7.4277   12.7650   -0.0052   -0.1872    0.0000
H         9.1683   12.4630   12.7667   -0.0037   -0.2095   -0.0001
H         6.9843   11.2312   12.7887   -0.5651    0.3310    0.0064
H         6.9279    8.7580   12.7877    0.5333    0.2800   -0.0052
C        15.8019    4.4056   12.7477    0.0019   -0.0002   -0.0000
C        12.9464    4.4688   12.7613    0.0023    0.0001   -0.0000
C        15.0523    3.2268   12.7611   -0.0025    0.0051   -0.0000
C        13.6434    3.2581   12.7682   -0.0032   -0.0057    0.0001
H        16.8920    4.3900   12.7428   -0.0237    0.0006    0.0001
H        11.8565    4.5005   12.7666   -0.0282    0.0003    0.0002
H        13.0902    2.3178   12.7803    0.0387    0.0659   -0.0008
H        15.5632    2.2628   12.7676    0.0314   -0.0596    0.0004
    57
stable frequency at   3129.578 1/cm IR int. is 1.090 a.m.u.; force const. is 6.288 mDyne/Ang.
C        10.3153   10.6255   12.7541   -0.0000   -0.0000    0.0000
C        11.7250   11.0126   12.7436    0.0000    0.0000    0.0000
C        13.4288   12.6432   12.7402   -0.0000   -0.0000    0.0000
C        13.8774   14.0347   12.7489   -0.0001   -0.0001   -0.0000
C        10.2838    9.2117   12.7538   -0.0000    0.0000    0.0000
C        11.6752    8.7628   12.7434    0.0000   -0.0000    0.0000
C        13.3062    7.0594   12.7390   -0.0001    0.0001    0.0000
C        13.6935    5.6496   12.7468   -0.0001    0.0007   -0.0000
N        12.1457   12.2786   12.7444    0.0000   -0.0000    0.0000
N        12.0400    7.4796   12.7439    0.0001   -0.0000    0.0000
C        15.2912   14.0035   12.7457    0.0000   -0.0001   -0.0000
C        15.6785   12.5937   12.7355    0.0000   -0.0000   -0.0000
C        17.3094   10.8903   12.7347    0.0000    0.0000    0.0000
C        18.7010   10.4413   12.7487    0.0001   -0.0000    0.0000
C        17.2595    8.6406   12.7332   -0.0000   -0.0000    0.0000
C        18.6693    9.0275   12.7476    0.0001    0.0000    0.0000
C        15.1073    5.6184   12.7412    0.0003    0.0005   -0.0000
C        15.5559    7.0099   12.7320    0.0001    0.0001    0.0000
N        16.9446   12.1735   12.7365   -0.0000    0.0000   -0.0000
N        16.8391    7.3745   12.7331   -0.0001   -0.0000    0.0000
N        12.4947    9.8701   12.7367    0.0000    0.0000    0.0000
N        14.5362   11.8239   12.7312   -0.0000    0.0000    0.0000
N        16.4900    9.7831   12.7252   -0.0000   -0.0000    0.0000
N        14.4485    7.8292   12.7301   -0.0000   -0.0001    0.0000
C        13.1827   15.2473   12.7623   -0.0059    0.0005    0.0000
Zn       14.4924    9.8265   12.7264    0.0000    0.0000    0.0000
C        16.0384   15.1842   12.7549    0.0061    0.0002   -0.0000
C        13.9324   16.4262   12.7720    0.0048   -0.0082   -0.0001
C        15.3413   16.3949   12.7682   -0.0053   -0.0083   -0.0001
H        12.0925   15.2624   12.7653    0.0703   -0.0020   -0.0002
H        17.1282   15.1517   12.7524   -0.0728    0.0011    0.0001
H        15.8945   17.3351   12.7765    0.0573    0.0965    0.0008
H        13.4215   17.3900   12.7831   -0.0515    0.0963    0.0011
C        19.9141   11.1351   12.7666   -0.0003   -0.0048   -0.0000
C        19.8494    8.2795   12.7644   -0.0002    0.0043   -0.0000
C        21.0925   10.3847   12.7838    0.0061    0.0036    0.0001
C        21.0605    8.9757   12.7834    0.0064   -0.0040    0.0001
H        19.9307   12.2252   12.7677    0.0016    0.0565    0.0001
H        19.8161    7.1897   12.7642   -0.0009   -0.0514    0.0000
H        22.0002    8.4217   12.7979   -0.0741    0.0440   -0.0011
H        22.0566   10.8949   12.7993   -0.0715   -0.0383   -0.0011
C         9.0706    8.5177   12.7651    0.0001    0.0009    0.0000
C         9.1350   11.3733   12.7663    0.0000   -0.0009   -0.0000
C         7.8920    9.2680   12.7781   -0.0019   -0.0011    0.0000
C         7.9240   10.6769   12.7780   -0.0009    0.0006    0.0000
H         9.0541    7.4277   12.7650   -0.0003   -0.0106    0.0000
H         9.1683   12.4630   12.7667    0.0002    0.0108    0.0000
H         6.9843   11.2312   12.7887    0.0100   -0.0060   -0.0001
H         6.9279    8.7580   12.7877    0.0225    0.0120   -0.0002
C        15.8019    4.4056   12.7477    0.0271   -0.0022   -0.0001
C        12.9464    4.4688   12.7613   -0.0332   -0.0009    0.0002
C        15.0523    3.2268   12.7611   -0.0237    0.0412   -0.0002
C        13.6434    3.2581   12.7682    0.0258    0.0403   -0.0006
H        16.8920    4.3900   12.7428   -0.3232    0.0092    0.0014
H        11.8565    4.5005   12.7666    0.3930   -0.0063   -0.0019
H        13.0902    2.3178   12.7803   -0.2793   -0.4707    0.0061
H        15.5632    2.2628   12.7676    0.2568   -0.4803    0.0032
    57
stable frequency at   3129.704 1/cm IR int. is 1.090 a.m.u.; force const. is 6.288 mDyne/Ang.
C        10.3153   10.6255   12.7541    0.0001    0.0000   -0.0000
C        11.7250   11.0126   12.7436    0.0000    0.0000   -0.0000
C        13.4288   12.6432   12.7402   -0.0000   -0.0000    0.0000
C        13.8774   14.0347   12.7489   -0.0000    0.0000    0.0000
C        10.2838    9.2117   12.7538    0.0001   -0.0000   -0.0000
C        11.6752    8.7628   12.7434    0.0000   -0.0000    0.0000
C        13.3062    7.0594   12.7390   -0.0000    0.0000    0.0000
C        13.6935    5.6496   12.7468   -0.0000    0.0001   -0.0000
N        12.1457   12.2786   12.7444    0.0000    0.0000   -0.0000
N        12.0400    7.4796   12.7439    0.0000   -0.0000    0.0000
C        15.2912   14.0035   12.7457   -0.0000   -0.0000    0.0000
C        15.6785   12.5937   12.7355    0.0000   -0.0000    0.0000
C        17.3094   10.8903   12.7347   -0.0001    0.0001    0.0000
C        18.7010   10.4413   12.7487   -0.0006    0.0003   -0.0000
C        17.2595    8.6406   12.7332   -0.0001   -0.0001    0.0000
C        18.6693    9.0275   12.7476   -0.0007   -0.0002   -0.0000
C        15.1073    5.6184   12.7412    0.0000    0.0001    0.0000
C        15.5559    7.0099   12.7320    0.0001    0.0000    0.0000
N        16.9446   12.1735   12.7365    0.0000   -0.0001   -0.0000
N        16.8391    7.3745   12.7331   -0.0000    0.0001    0.0000
N        12.4947    9.8701   12.7367   -0.0000   -0.0000    0.0000
N        14.5362   11.8239   12.7312    0.0000   -0.0000    0.0000
N        16.4900    9.7831   12.7252    0.0001   -0.0000    0.0000
N        14.4485    7.8292   12.7301   -0.0000   -0.0000    0.0000
C        13.1827   15.2473   12.7623    0.0006   -0.0000   -0.0000
Zn       14.4924    9.8265   12.7264   -0.0000    0.0000    0.0000
C        16.0384   15.1842   12.7549    0.0001   -0.0000   -0.0000
C        13.9324   16.4262   12.7720    0.0002   -0.0004   -0.0000
C        15.3413   16.3949   12.7682    0.0003    0.0006    0.0000
H        12.0925   15.2624   12.7653   -0.0061    0.0001    0.0000
H        17.1282   15.1517   12.7524   -0.0009   -0.0000    0.0000
H        15.8945   17.3351   12.7765   -0.0038   -0.0067   -0.0001
H        13.4215   17.3900   12.7831   -0.0023    0.0045    0.0000
C        19.9141   11.1351   12.7666    0.0023    0.0292    0.0001
C        19.8494    8.2795   12.7644    0.0009   -0.0313    0.0000
C        21.0925   10.3847   12.7838   -0.0433   -0.0249   -0.0007
C        21.0605    8.9757   12.7834   -0.0399    0.0256   -0.0007
H        19.9307   12.2252   12.7677   -0.0101   -0.3486   -0.0004
H        19.8161    7.1897   12.7642    0.0063    0.3715    0.0000
H        22.0002    8.4217   12.7979    0.4655   -0.2769    0.0073
H        22.0566   10.8949   12.7993    0.5050    0.2695    0.0081
C         9.0706    8.5177   12.7651   -0.0002   -0.0031    0.0000
C         9.1350   11.3733   12.7663   -0.0001    0.0025    0.0000
C         7.8920    9.2680   12.7781    0.0045    0.0026   -0.0000
C         7.9240   10.6769   12.7780    0.0038   -0.0024   -0.0000
H         9.0541    7.4277   12.7650    0.0011    0.0370   -0.0000
H         9.1683   12.4630   12.7667   -0.0004   -0.0301   -0.0000
H         6.9843   11.2312   12.7887   -0.0440    0.0263    0.0005
H         6.9279    8.7580   12.7877   -0.0526   -0.0281    0.0005
C        15.8019    4.4056   12.7477    0.0043   -0.0003   -0.0000
C        12.9464    4.4688   12.7613   -0.0052   -0.0002    0.0000
C        15.0523    3.2268   12.7611   -0.0035    0.0061   -0.0000
C        13.6434    3.2581   12.7682    0.0043    0.0068   -0.0001
H        16.8920    4.3900   12.7428   -0.0516    0.0015    0.0002
H        11.8565    4.5005   12.7666    0.0623   -0.0010   -0.0003
H        13.0902    2.3178   12.7803   -0.0472   -0.0796    0.0010
H        15.5632    2.2628   12.7676    0.0378   -0.0707    0.0005
    57
stable frequency at   3129.972 1/cm IR int. is 1.090 a.m.u.; force const. is 6.289 mDyne/Ang.
C        10.3153   10.6255   12.7541    0.0000    0.0000   -0.0000
C        11.7250   11.0126   12.7436   -0.0000   -0.0000   -0.0000
C        13.4288   12.6432   12.7402    0.0001    0.0001   -0.0000
C        13.8774   14.0347   12.7489    0.0003    0.0006    0.0000
C        10.2838    9.2117   12.7538    0.0001   -0.0000   -0.0000
C        11.6752    8.7628   12.7434    0.0000   -0.0000    0.0000
C        13.3062    7.0594   12.7390   -0.0000    0.0000    0.0000
C        13.6935    5.6496   12.7468   -0.0000    0.0002   -0.0000
N        12.1457   12.2786   12.7444   -0.0001   -0.0000    0.0000
N        12.0400    7.4796   12.7439    0.0000   -0.0000    0.0000
C        15.2912   14.0035   12.7457   -0.0002    0.0007    0.0000
C        15.6785   12.5937   12.7355   -0.0001    0.0001   -0.0000
C        17.3094   10.8903   12.7347    0.0000   -0.0001   -0.0000
C        18.7010   10.4413   12.7487    0.0000    0.0000    0.0000
C        17.2595    8.6406   12.7332    0.0000    0.0000   -0.0000
C        18.6693    9.0275   12.7476    0.0000    0.0000   -0.0000
C        15.1073    5.6184   12.7412    0.0001    0.0001   -0.0000
C        15.5559    7.0099   12.7320    0.0000    0.0000    0.0000
N        16.9446   12.1735   12.7365    0.0001   -0.0000   -0.0000
N        16.8391    7.3745   12.7331   -0.0000   -0.0000   -0.0000
N        12.4947    9.8701   12.7367   -0.0000   -0.0000    0.0000
N        14.5362   11.8239   12.7312   -0.0000   -0.0001   -0.0000
N        16.4900    9.7831   12.7252   -0.0000   -0.0000   -0.0000
N        14.4485    7.8292   12.7301   -0.0000   -0.0000    0.0000
C        13.1827   15.2473   12.7623    0.0286   -0.0022   -0.0001
Zn       14.4924    9.8265   12.7264    0.0000    0.0000   -0.0000
C        16.0384   15.1842   12.7549   -0.0329   -0.0009    0.0001
C        13.9324   16.4262   12.7720   -0.0234    0.0404    0.0004
C        15.3413   16.3949   12.7682    0.0265    0.0415    0.0004
H        12.0925   15.2624   12.7653   -0.3402    0.0094    0.0010
H        17.1282   15.1517   12.7524    0.3900   -0.0065   -0.0009
H        15.8945   17.3351   12.7765   -0.2875   -0.4848   -0.0043
H        13.4215   17.3900   12.7831    0.2523   -0.4718   -0.0054
C        19.9141   11.1351   12.7666   -0.0001   -0.0015   -0.0000
C        19.8494    8.2795   12.7644   -0.0001    0.0011   -0.0000
C        21.0925   10.3847   12.7838    0.0011    0.0007    0.0000
C        21.0605    8.9757   12.7834    0.0022   -0.0013    0.0000
H        19.9307   12.2252   12.7677    0.0005    0.0180    0.0000
H        19.8161    7.1897   12.7642   -0.0002   -0.0131   -0.0000
H        22.0002    8.4217   12.7979   -0.0254    0.0150   -0.0004
H        22.0566   10.8949   12.7993   -0.0132   -0.0071   -0.0002
C         9.0706    8.5177   12.7651   -0.0001   -0.0023    0.0000
C         9.1350   11.3733   12.7663   -0.0001    0.0015    0.0000
C         7.8920    9.2680   12.7781    0.0021    0.0013   -0.0000
C         7.9240   10.6769   12.7780    0.0030   -0.0019   -0.0000
H         9.0541    7.4277   12.7650    0.0007    0.0274    0.0000
H         9.1683   12.4630   12.7667   -0.0003   -0.0179   -0.0000
H         6.9843   11.2312   12.7887   -0.0350    0.0207    0.0004
H         6.9279    8.7580   12.7877   -0.0249   -0.0134    0.0002
C        15.8019    4.4056   12.7477    0.0052   -0.0004   -0.0000
C        12.9464    4.4688   12.7613   -0.0071   -0.0002    0.0000
C        15.0523    3.2268   12.7611   -0.0046    0.0080   -0.0000
C        13.6434    3.2581   12.7682    0.0051    0.0080   -0.0001
H        16.8920    4.3900   12.7428   -0.0622    0.0017    0.0003
H        11.8565    4.5005   12.7666    0.0836   -0.0014   -0.0004
H        13.0902    2.3178   12.7803   -0.0556   -0.0938    0.0012
H        15.5632    2.2628   12.7676    0.0498   -0.0932    0.0006
    57
stable frequency at   3130.344 1/cm IR int. is 1.090 a.m.u.; force const. is 6.291 mDyne/Ang.
C        10.3153   10.6255   12.7541   -0.0007   -0.0002    0.0000
C        11.7250   11.0126   12.7436   -0.0001   -0.0001   -0.0000
C        13.4288   12.6432   12.7402    0.0001    0.0000   -0.0000
C        13.8774   14.0347   12.7489    0.0000    0.0001   -0.0000
C        10.2838    9.2117   12.7538   -0.0006    0.0003    0.0000
C        11.6752    8.7628   12.7434   -0.0001    0.0001   -0.0000
C        13.3062    7.0594   12.7390    0.0000   -0.0000   -0.0000
C        13.6935    5.6496   12.7468   -0.0000   -0.0000    0.0000
N        12.1457   12.2786   12.7444    0.0000    0.0001   -0.0000
N        12.0400    7.4796   12.7439    0.0000   -0.0001   -0.0000
C        15.2912   14.0035   12.7457   -0.0000    0.0000    0.0000
C        15.6785   12.5937   12.7355   -0.0000    0.0000   -0.0000
C        17.3094   10.8903   12.7347   -0.0000    0.0000    0.0000
C        18.7010   10.4413   12.7487   -0.0000    0.0000   -0.0000
C        17.2595    8.6406   12.7332   -0.0000   -0.0000    0.0000
C        18.6693    9.0275   12.7476   -0.0001   -0.0000   -0.0000
C        15.1073    5.6184   12.7412   -0.0000    0.0000   -0.0000
C        15.5559    7.0099   12.7320   -0.0000   -0.0000    0.0000
N        16.9446   12.1735   12.7365    0.0000   -0.0000   -0.0000
N        16.8391    7.3745   12.7331    0.0000    0.0000    0.0000
N        12.4947    9.8701   12.7367    0.0001    0.0000   -0.0000
N        14.5362   11.8239   12.7312    0.0000   -0.0000   -0.0000
N        16.4900    9.7831   12.7252    0.0000   -0.0000    0.0000
N        14.4485    7.8292   12.7301    0.0000   -0.0000   -0.0000
C        13.1827   15.2473   12.7623    0.0023   -0.0001   -0.0000
Zn       14.4924    9.8265   12.7264   -0.0000    0.0000   -0.0000
C        16.0384   15.1842   12.7549   -0.0023   -0.0001    0.0000
C        13.9324   16.4262   12.7720   -0.0013    0.0021    0.0000
C        15.3413   16.3949   12.7682    0.0020    0.0032    0.0000
H        12.0925   15.2624   12.7653   -0.0271    0.0007    0.0001
H        17.1282   15.1517   12.7524    0.0271   -0.0004   -0.0001
H        15.8945   17.3351   12.7765   -0.0222   -0.0376   -0.0003
H        13.4215   17.3900   12.7831    0.0131   -0.0245   -0.0003
C        19.9141   11.1351   12.7666    0.0002    0.0027    0.0000
C        19.8494    8.2795   12.7644    0.0001   -0.0034    0.0000
C        21.0925   10.3847   12.7838   -0.0041   -0.0024   -0.0001
C        21.0605    8.9757   12.7834   -0.0041    0.0026   -0.0001
H        19.9307   12.2252   12.7677   -0.0009   -0.0317   -0.0000
H        19.8161    7.1897   12.7642    0.0008    0.0403    0.0000
H        22.0002    8.4217   12.7979    0.0475   -0.0281    0.0008
H        22.0566   10.8949   12.7993    0.0482    0.0257    0.0008
C         9.0706    8.5177   12.7651    0.0024    0.0310   -0.0000
C         9.1350   11.3733   12.7663    0.0009   -0.0310   -0.0000
C         7.8920    9.2680   12.7781   -0.0444   -0.0255    0.0004
C         7.9240   10.6769   12.7780   -0.0391    0.0252    0.0005
H         9.0541    7.4277   12.7650   -0.0105   -0.3695   -0.0000
H         9.1683   12.4630   12.7667    0.0063    0.3670    0.0002
H         6.9843   11.2312   12.7887    0.4553   -0.2709   -0.0052
H         6.9279    8.7580   12.7877    0.5189    0.2768   -0.0052
C        15.8019    4.4056   12.7477    0.0003    0.0000   -0.0000
C        12.9464    4.4688   12.7613    0.0007   -0.0000   -0.0000
C        15.0523    3.2268   12.7611    0.0004   -0.0007    0.0000
C        13.6434    3.2581   12.7682    0.0002    0.0004   -0.0000
H        16.8920    4.3900   12.7428   -0.0033    0.0000    0.0000
H        11.8565    4.5005   12.7666   -0.0080    0.0001    0.0000
H        13.0902    2.3178   12.7803   -0.0027   -0.0048    0.0001
H        15.5632    2.2628   12.7676   -0.0044    0.0084   -0.0001
    57
stable frequency at   3141.766 1/cm IR int. is 1.094 a.m.u.; force const. is 6.360 mDyne/Ang.
C        10.3153   10.6255   12.7541   -0.0003    0.0002    0.0000
C        11.7250   11.0126   12.7436   -0.0000   -0.0001   -0.0000
C        13.4288   12.6432   12.7402    0.0001    0.0000   -0.0000
C        13.8774   14.0347   12.7489   -0.0003    0.0005    0.0000
C        10.2838    9.2117   12.7538    0.0002    0.0001   -0.0000
C        11.6752    8.7628   12.7434    0.0000   -0.0001   -0.0000
C        13.3062    7.0594   12.7390   -0.0004    0.0001    0.0000
C        13.6935    5.6496   12.7468    0.0011    0.0019   -0.0000
N        12.1457   12.2786   12.7444   -0.0000    0.0000    0.0000
N        12.0400    7.4796   12.7439    0.0002   -0.0000   -0.0000
C        15.2912   14.0035   12.7457   -0.0003   -0.0005   -0.0000
C        15.6785   12.5937   12.7355    0.0001   -0.0000    0.0000
C        17.3094   10.8903   12.7347   -0.0000    0.0002    0.0000
C        18.7010   10.4413   12.7487   -0.0008   -0.0005   -0.0000
C        17.2595    8.6406   12.7332    0.0001    0.0002   -0.0000
C        18.6693    9.0275   12.7476    0.0008   -0.0005    0.0000
C        15.1073    5.6184   12.7412    0.0010   -0.0015    0.0000
C        15.5559    7.0099   12.7320   -0.0003   -0.0001   -0.0000
N        16.9446   12.1735   12.7365   -0.0000   -0.0001   -0.0000
N        16.8391    7.3745   12.7331    0.0001   -0.0001    0.0000
N        12.4947    9.8701   12.7367    0.0000    0.0000   -0.0000
N        14.5362   11.8239   12.7312    0.0000    0.0000    0.0000
N        16.4900    9.7831   12.7252   -0.0000    0.0000    0.0000
N        14.4485    7.8292   12.7301   -0.0000   -0.0000    0.0000
C        13.1827   15.2473   12.7623    0.0130   -0.0002   -0.0000
Zn       14.4924    9.8265   12.7264   -0.0000    0.0000   -0.0000
C        16.0384   15.1842   12.7549    0.0133   -0.0004   -0.0000
C        13.9324   16.4262   12.7720    0.0013   -0.0039   -0.0000
C        15.3413   16.3949   12.7682    0.0019    0.0045    0.0000
H        12.0925   15.2624   12.7653   -0.1470    0.0031    0.0004
H        17.1282   15.1517   12.7524   -0.1505    0.0034    0.0003
H        15.8945   17.3351   12.7765   -0.0266   -0.0467   -0.0004
H        13.4215   17.3900   12.7831   -0.0204    0.0400    0.0005
C        19.9141   11.1351   12.7666    0.0003    0.0213    0.0000
C        19.8494    8.2795   12.7644    0.0008    0.0234    0.0000
C        21.0925   10.3847   12.7838    0.0062    0.0020    0.0001
C        21.0605    8.9757   12.7834   -0.0086    0.0037   -0.0001
H        19.9307   12.2252   12.7677   -0.0053   -0.2420   -0.0003
H        19.8161    7.1897   12.7642   -0.0062   -0.2649   -0.0000
H        22.0002    8.4217   12.7979    0.0887   -0.0506    0.0014
H        22.0566   10.8949   12.7993   -0.0636   -0.0322   -0.0010
C         9.0706    8.5177   12.7651   -0.0001   -0.0054   -0.0000
C         9.1350   11.3733   12.7663   -0.0003   -0.0087   -0.0000
C         7.8920    9.2680   12.7781   -0.0020   -0.0007    0.0000
C         7.9240   10.6769   12.7780    0.0029   -0.0013   -0.0000
H         9.0541    7.4277   12.7650    0.0015    0.0610   -0.0000
H         9.1683   12.4630   12.7667    0.0024    0.0988    0.0000
H         6.9843   11.2312   12.7887   -0.0300    0.0172    0.0003
H         6.9279    8.7580   12.7877    0.0211    0.0107   -0.0002
C        15.8019    4.4056   12.7477   -0.0428    0.0007    0.0002
C        12.9464    4.4688   12.7613   -0.0549    0.0019    0.0003
C        15.0523    3.2268   12.7611   -0.0020    0.0092   -0.0001
C        13.6434    3.2581   12.7682   -0.0094   -0.0211    0.0003
H        16.8920    4.3900   12.7428    0.4865   -0.0105   -0.0021
H        11.8565    4.5005   12.7666    0.6224   -0.0140   -0.0030
H        13.0902    2.3178   12.7803    0.1261    0.2196   -0.0028
H        15.5632    2.2628   12.7676    0.0443   -0.0897    0.0006
    57
stable frequency at   3142.001 1/cm IR int. is 1.094 a.m.u.; force const. is 6.361 mDyne/Ang.
C        10.3153   10.6255   12.7541    0.0001   -0.0001   -0.0000
C        11.7250   11.0126   12.7436    0.0000    0.0000    0.0000
C        13.4288   12.6432   12.7402   -0.0002   -0.0001    0.0000
C        13.8774   14.0347   12.7489    0.0006   -0.0011   -0.0000
C        10.2838    9.2117   12.7538   -0.0002   -0.0001    0.0000
C        11.6752    8.7628   12.7434   -0.0000    0.0000   -0.0000
C        13.3062    7.0594   12.7390   -0.0002    0.0001    0.0000
C        13.6935    5.6496   12.7468    0.0006    0.0010   -0.0000
N        12.1457   12.2786   12.7444    0.0001   -0.0000   -0.0000
N        12.0400    7.4796   12.7439    0.0001   -0.0000   -0.0000
C        15.2912   14.0035   12.7457    0.0007    0.0011    0.0000
C        15.6785   12.5937   12.7355   -0.0002    0.0001   -0.0000
C        17.3094   10.8903   12.7347    0.0001   -0.0003   -0.0000
C        18.7010   10.4413   12.7487    0.0012    0.0008    0.0000
C        17.2595    8.6406   12.7332   -0.0001   -0.0003   -0.0000
C        18.6693    9.0275   12.7476   -0.0015    0.0009   -0.0000
C        15.1073    5.6184   12.7412    0.0005   -0.0008    0.0000
C        15.5559    7.0099   12.7320   -0.0001   -0.0000   -0.0000
N        16.9446   12.1735   12.7365    0.0001    0.0001    0.0000
N        16.8391    7.3745   12.7331    0.0001    0.0001   -0.0000
N        12.4947    9.8701   12.7367    0.0000    0.0000   -0.0000
N        14.5362   11.8239   12.7312   -0.0000    0.0000   -0.0000
N        16.4900    9.7831   12.7252    0.0000   -0.0000   -0.0000
N        14.4485    7.8292   12.7301   -0.0000   -0.0000   -0.0000
C        13.1827   15.2473   12.7623   -0.0321    0.0004    0.0001
Zn       14.4924    9.8265   12.7264   -0.0000   -0.0000   -0.0000
C        16.0384   15.1842   12.7549   -0.0298    0.0010    0.0001
C        13.9324   16.4262   12.7720   -0.0032    0.0095    0.0001
C        15.3413   16.3949   12.7682   -0.0043   -0.0106   -0.0001
H        12.0925   15.2624   12.7653    0.3640   -0.0075   -0.0010
H        17.1282   15.1517   12.7524    0.3383   -0.0076   -0.0008
H        15.8945   17.3351   12.7765    0.0620    0.1090    0.0010
H        13.4215   17.3900   12.7831    0.0496   -0.0973   -0.0011
C        19.9141   11.1351   12.7666   -0.0005   -0.0337   -0.0000
C        19.8494    8.2795   12.7644   -0.0015   -0.0436   -0.0000
C        21.0925   10.3847   12.7838   -0.0082   -0.0021   -0.0001
C        21.0605    8.9757   12.7834    0.0149   -0.0064    0.0002
H        19.9307   12.2252   12.7677    0.0086    0.3827    0.0004
H        19.8161    7.1897   12.7642    0.0117    0.4951    0.0000
H        22.0002    8.4217   12.7979   -0.1528    0.0878   -0.0024
H        22.0566   10.8949   12.7993    0.0817    0.0408    0.0013
C         9.0706    8.5177   12.7651    0.0001    0.0043    0.0000
C         9.1350   11.3733   12.7663    0.0001    0.0026    0.0000
C         7.8920    9.2680   12.7781    0.0014    0.0005   -0.0000
C         7.9240   10.6769   12.7780   -0.0011    0.0004    0.0000
H         9.0541    7.4277   12.7650   -0.0010   -0.0487   -0.0000
H         9.1683   12.4630   12.7667   -0.0007   -0.0296   -0.0000
H         6.9843   11.2312   12.7887    0.0114   -0.0063   -0.0001
H         6.9279    8.7580   12.7877   -0.0139   -0.0072    0.0002
C        15.8019    4.4056   12.7477   -0.0242    0.0004    0.0001
C        12.9464    4.4688   12.7613   -0.0282    0.0010    0.0001
C        15.0523    3.2268   12.7611   -0.0010    0.0048   -0.0000
C        13.6434    3.2581   12.7682   -0.0048   -0.0109    0.0001
H        16.8920    4.3900   12.7428    0.2756   -0.0058   -0.0012
H        11.8565    4.5005   12.7666    0.3192   -0.0071   -0.0016
H        13.0902    2.3178   12.7803    0.0651    0.1135   -0.0015
H        15.5632    2.2628   12.7676    0.0230   -0.0464    0.0003
    57
stable frequency at   3142.148 1/cm IR int. is 1.093 a.m.u.; force const. is 6.361 mDyne/Ang.
C        10.3153   10.6255   12.7541   -0.0002    0.0002    0.0000
C        11.7250   11.0126   12.7436   -0.0000   -0.0001   -0.0000
C        13.4288   12.6432   12.7402    0.0003    0.0001   -0.0000
C        13.8774   14.0347   12.7489   -0.0009    0.0015    0.0000
C        10.2838    9.2117   12.7538    0.0003    0.0001   -0.0000
C        11.6752    8.7628   12.7434    0.0000   -0.0001    0.0000
C        13.3062    7.0594   12.7390   -0.0000    0.0000    0.0000
C        13.6935    5.6496   12.7468    0.0001    0.0001   -0.0000
N        12.1457   12.2786   12.7444   -0.0001    0.0000    0.0000
N        12.0400    7.4796   12.7439    0.0000    0.0000   -0.0000
C        15.2912   14.0035   12.7457   -0.0010   -0.0016   -0.0000
C        15.6785   12.5937   12.7355    0.0003   -0.0001   -0.0000
C        17.3094   10.8903   12.7347    0.0000   -0.0002   -0.0000
C        18.7010   10.4413   12.7487    0.0011    0.0007    0.0000
C        17.2595    8.6406   12.7332   -0.0001   -0.0003   -0.0000
C        18.6693    9.0275   12.7476   -0.0013    0.0008   -0.0000
C        15.1073    5.6184   12.7412    0.0001   -0.0001    0.0000
C        15.5559    7.0099   12.7320    0.0000    0.0000   -0.0000
N        16.9446   12.1735   12.7365   -0.0001    0.0001   -0.0000
N        16.8391    7.3745   12.7331    0.0000    0.0001   -0.0000
N        12.4947    9.8701   12.7367   -0.0000    0.0000   -0.0000
N        14.5362   11.8239   12.7312    0.0001    0.0000   -0.0000
N        16.4900    9.7831   12.7252    0.0000   -0.0000   -0.0000
N        14.4485    7.8292   12.7301   -0.0000    0.0000   -0.0000
C        13.1827   15.2473   12.7623    0.0428   -0.0005   -0.0001
Zn       14.4924    9.8265   12.7264    0.0000   -0.0000   -0.0000
C        16.0384   15.1842   12.7549    0.0460   -0.0015   -0.0001
C        13.9324   16.4262   12.7720    0.0034   -0.0114   -0.0001
C        15.3413   16.3949   12.7682    0.0063    0.0153    0.0001
H        12.0925   15.2624   12.7653   -0.4866    0.0102    0.0014
H        17.1282   15.1517   12.7524   -0.5225    0.0119    0.0011
H        15.8945   17.3351   12.7765   -0.0892   -0.1560   -0.0014
H        13.4215   17.3900   12.7831   -0.0578    0.1144    0.0013
C        19.9141   11.1351   12.7666   -0.0005   -0.0321   -0.0000
C        19.8494    8.2795   12.7644   -0.0012   -0.0362   -0.0000
C        21.0925   10.3847   12.7838   -0.0077   -0.0021   -0.0001
C        21.0605    8.9757   12.7834    0.0125   -0.0053    0.0002
H        19.9307   12.2252   12.7677    0.0080    0.3645    0.0004
H        19.8161    7.1897   12.7642    0.0096    0.4110    0.0000
H        22.0002    8.4217   12.7979   -0.1287    0.0737   -0.0020
H        22.0566   10.8949   12.7993    0.0768    0.0385    0.0012
C         9.0706    8.5177   12.7651   -0.0001   -0.0078   -0.0000
C         9.1350   11.3733   12.7663   -0.0002   -0.0063   -0.0000
C         7.8920    9.2680   12.7781   -0.0028   -0.0010    0.0000
C         7.9240   10.6769   12.7780    0.0027   -0.0011   -0.0000
H         9.0541    7.4277   12.7650    0.0019    0.0885    0.0000
H         9.1683   12.4630   12.7667    0.0016    0.0710    0.0000
H         6.9843   11.2312   12.7887   -0.0280    0.0158    0.0003
H         6.9279    8.7580   12.7877    0.0292    0.0150   -0.0003
C        15.8019    4.4056   12.7477   -0.0033    0.0000    0.0000
C        12.9464    4.4688   12.7613   -0.0025    0.0001    0.0000
C        15.0523    3.2268   12.7611   -0.0001    0.0006   -0.0000
C        13.6434    3.2581   12.7682   -0.0003   -0.0008    0.0000
H        16.8920    4.3900   12.7428    0.0372   -0.0007   -0.0002
H        11.8565    4.5005   12.7666    0.0278   -0.0006   -0.0001
H        13.0902    2.3178   12.7803    0.0049    0.0087   -0.0001
H        15.5632    2.2628   12.7676    0.0027   -0.0054    0.0000
    57
stable frequency at   3142.547 1/cm IR int. is 1.094 a.m.u.; force const. is 6.363 mDyne/Ang.
C        10.3153   10.6255   12.7541    0.0021   -0.0013   -0.0000
C        11.7250   11.0126   12.7436    0.0002    0.0004   -0.0000
C        13.4288   12.6432   12.7402    0.0000    0.0000   -0.0000
C        13.8774   14.0347   12.7489   -0.0002    0.0004    0.0000
C        10.2838    9.2117   12.7538   -0.0018   -0.0011    0.0000
C        11.6752    8.7628   12.7434   -0.0001    0.0004   -0.0000
C        13.3062    7.0594   12.7390   -0.0000    0.0000   -0.0000
C        13.6935    5.6496   12.7468    0.0001    0.0003   -0.0000
N        12.1457   12.2786   12.7444   -0.0000   -0.0002   -0.0000
N        12.0400    7.4796   12.7439    0.0000   -0.0001   -0.0000
C        15.2912   14.0035   12.7457   -0.0002   -0.0003   -0.0000
C        15.6785   12.5937   12.7355    0.0001   -0.0000   -0.0000
C        17.3094   10.8903   12.7347   -0.0000    0.0000    0.0000
C        18.7010   10.4413   12.7487   -0.0000   -0.0000   -0.0000
C        17.2595    8.6406   12.7332    0.0000    0.0000    0.0000
C        18.6693    9.0275   12.7476    0.0000   -0.0000    0.0000
C        15.1073    5.6184   12.7412    0.0001   -0.0001   -0.0000
C        15.5559    7.0099   12.7320   -0.0000    0.0000   -0.0000
N        16.9446   12.1735   12.7365   -0.0000   -0.0000   -0.0000
N        16.8391    7.3745   12.7331    0.0000   -0.0000    0.0000
N        12.4947    9.8701   12.7367   -0.0000    0.0001   -0.0000
N        14.5362   11.8239   12.7312    0.0000   -0.0000   -0.0000
N        16.4900    9.7831   12.7252    0.0000   -0.0000   -0.0000
N        14.4485    7.8292   12.7301   -0.0000   -0.0000   -0.0000
C        13.1827   15.2473   12.7623    0.0110   -0.0001   -0.0000
Zn       14.4924    9.8265   12.7264    0.0000    0.0000   -0.0000
C        16.0384   15.1842   12.7549    0.0078   -0.0002   -0.0000
C        13.9324   16.4262   12.7720    0.0009   -0.0028   -0.0000
C        15.3413   16.3949   12.7682    0.0009    0.0025    0.0000
H        12.0925   15.2624   12.7653   -0.1253    0.0025    0.0003
H        17.1282   15.1517   12.7524   -0.0881    0.0019    0.0002
H        15.8945   17.3351   12.7765   -0.0141   -0.0252   -0.0002
H        13.4215   17.3900   12.7831   -0.0144    0.0281    0.0003
C        19.9141   11.1351   12.7666    0.0000    0.0012    0.0000
C        19.8494    8.2795   12.7644    0.0000    0.0005    0.0000
C        21.0925   10.3847   12.7838    0.0005    0.0002    0.0000
C        21.0605    8.9757   12.7834   -0.0004    0.0002   -0.0000
H        19.9307   12.2252   12.7677   -0.0003   -0.0141   -0.0000
H        19.8161    7.1897   12.7642   -0.0001   -0.0051    0.0000
H        22.0002    8.4217   12.7979    0.0044   -0.0025    0.0001
H        22.0566   10.8949   12.7993   -0.0056   -0.0029   -0.0001
C         9.0706    8.5177   12.7651    0.0007    0.0497    0.0000
C         9.1350   11.3733   12.7663    0.0020    0.0607    0.0000
C         7.8920    9.2680   12.7781    0.0128    0.0036   -0.0001
C         7.9240   10.6769   12.7780   -0.0204    0.0086    0.0002
H         9.0541    7.4277   12.7650   -0.0125   -0.5642   -0.0000
H         9.1683   12.4630   12.7667   -0.0162   -0.6889   -0.0003
H         6.9843   11.2312   12.7887    0.2094   -0.1200   -0.0024
H         6.9279    8.7580   12.7877   -0.1284   -0.0645    0.0012
C        15.8019    4.4056   12.7477   -0.0021    0.0001    0.0000
C        12.9464    4.4688   12.7613   -0.0078    0.0003    0.0000
C        15.0523    3.2268   12.7611    0.0006   -0.0007    0.0000
C        13.6434    3.2581   12.7682   -0.0012   -0.0026    0.0000
H        16.8920    4.3900   12.7428    0.0243   -0.0006   -0.0001
H        11.8565    4.5005   12.7666    0.0891   -0.0021   -0.0004
H        13.0902    2.3178   12.7803    0.0153    0.0260   -0.0003
H        15.5632    2.2628   12.7676   -0.0050    0.0088   -0.0001
    57
stable frequency at   3145.414 1/cm IR int. is 1.096 a.m.u.; force const. is 6.388 mDyne/Ang.
C        10.3153   10.6255   12.7541   -0.0002    0.0000    0.0000
C        11.7250   11.0126   12.7436   -0.0000   -0.0000    0.0000
C        13.4288   12.6432   12.7402   -0.0001   -0.0001    0.0000
C        13.8774   14.0347   12.7489    0.0001   -0.0005   -0.0000
C        10.2838    9.2117   12.7538   -0.0001   -0.0000    0.0000
C        11.6752    8.7628   12.7434   -0.0000    0.0000    0.0000
C        13.3062    7.0594   12.7390   -0.0002    0.0002    0.0000
C        13.6935    5.6496   12.7468    0.0001    0.0012   -0.0000
N        12.1457   12.2786   12.7444    0.0001    0.0001   -0.0000
N        12.0400    7.4796   12.7439    0.0001   -0.0001   -0.0000
C        15.2912   14.0035   12.7457   -0.0001   -0.0004   -0.0000
C        15.6785   12.5937   12.7355    0.0001   -0.0001   -0.0000
C        17.3094   10.8903   12.7347    0.0001   -0.0002    0.0000
C        18.7010   10.4413   12.7487    0.0012    0.0002    0.0000
C        17.2595    8.6406   12.7332    0.0001    0.0001    0.0000
C        18.6693    9.0275   12.7476    0.0009   -0.0001    0.0000
C        15.1073    5.6184   12.7412   -0.0003    0.0017   -0.0000
C        15.5559    7.0099   12.7320    0.0003    0.0002   -0.0000
N        16.9446   12.1735   12.7365   -0.0001    0.0001    0.0000
N        16.8391    7.3745   12.7331   -0.0002   -0.0001   -0.0000
N        12.4947    9.8701   12.7367    0.0001   -0.0000   -0.0000
N        14.5362   11.8239   12.7312   -0.0000    0.0001    0.0000
N        16.4900    9.7831   12.7252   -0.0002   -0.0000   -0.0000
N        14.4485    7.8292   12.7301    0.0000   -0.0003    0.0000
C        13.1827   15.2473   12.7623   -0.0134   -0.0000    0.0000
Zn       14.4924    9.8265   12.7264    0.0000    0.0000   -0.0000
C        16.0384   15.1842   12.7549    0.0110   -0.0005   -0.0000
C        13.9324   16.4262   12.7720   -0.0037    0.0074    0.0001
C        15.3413   16.3949   12.7682    0.0039    0.0068    0.0001
H        12.0925   15.2624   12.7653    0.1513   -0.0029   -0.0004
H        17.1282   15.1517   12.7524   -0.1236    0.0031    0.0003
H        15.8945   17.3351   12.7765   -0.0432   -0.0734   -0.0006
H        13.4215   17.3900   12.7831    0.0423   -0.0798   -0.0009
C        19.9141   11.1351   12.7666   -0.0001   -0.0320   -0.0000
C        19.8494    8.2795   12.7644    0.0011    0.0235    0.0000
C        21.0925   10.3847   12.7838   -0.0175   -0.0087   -0.0003
C        21.0605    8.9757   12.7834   -0.0147    0.0086   -0.0002
H        19.9307   12.2252   12.7677    0.0075    0.3599    0.0004
H        19.8161    7.1897   12.7642   -0.0067   -0.2642   -0.0000
H        22.0002    8.4217   12.7979    0.1591   -0.0940    0.0025
H        22.0566   10.8949   12.7993    0.1889    0.0997    0.0030
C         9.0706    8.5177   12.7651   -0.0000    0.0042    0.0000
C         9.1350   11.3733   12.7663   -0.0002   -0.0053   -0.0000
C         7.8920    9.2680   12.7781    0.0028    0.0014   -0.0000
C         7.9240   10.6769   12.7780    0.0027   -0.0015   -0.0000
H         9.0541    7.4277   12.7650   -0.0009   -0.0465   -0.0000
H         9.1683   12.4630   12.7667    0.0015    0.0603    0.0000
H         6.9843   11.2312   12.7887   -0.0290    0.0171    0.0003
H         6.9279    8.7580   12.7877   -0.0303   -0.0160    0.0003
C        15.8019    4.4056   12.7477    0.0460   -0.0001   -0.0002
C        12.9464    4.4688   12.7613   -0.0325    0.0015    0.0001
C        15.0523    3.2268   12.7611    0.0122   -0.0247    0.0002
C        13.6434    3.2581   12.7682   -0.0124   -0.0213    0.0003
H        16.8920    4.3900   12.7428   -0.5187    0.0103    0.0023
H        11.8565    4.5005   12.7666    0.3652   -0.0088   -0.0018
H        13.0902    2.3178   12.7803    0.1357    0.2304   -0.0030
H        15.5632    2.2628   12.7676   -0.1402    0.2655   -0.0018
    57
stable frequency at   3145.548 1/cm IR int. is 1.096 a.m.u.; force const. is 6.389 mDyne/Ang.
C        10.3153   10.6255   12.7541   -0.0001    0.0001    0.0000
C        11.7250   11.0126   12.7436   -0.0000   -0.0000   -0.0000
C        13.4288   12.6432   12.7402    0.0002    0.0002   -0.0000
C        13.8774   14.0347   12.7489   -0.0002    0.0012    0.0000
C        10.2838    9.2117   12.7538    0.0001    0.0001   -0.0000
C        11.6752    8.7628   12.7434   -0.0000   -0.0000    0.0000
C        13.3062    7.0594   12.7390   -0.0001    0.0001   -0.0000
C        13.6935    5.6496   12.7468    0.0001    0.0008   -0.0000
N        12.1457   12.2786   12.7444   -0.0001   -0.0000    0.0000
N        12.0400    7.4796   12.7439    0.0001   -0.0000   -0.0000
C        15.2912   14.0035   12.7457    0.0002    0.0011    0.0000
C        15.6785   12.5937   12.7355   -0.0002    0.0002    0.0000
C        17.3094   10.8903   12.7347   -0.0001    0.0002   -0.0000
C        18.7010   10.4413   12.7487   -0.0010   -0.0002   -0.0000
C        17.2595    8.6406   12.7332   -0.0001   -0.0002   -0.0000
C        18.6693    9.0275   12.7476   -0.0009    0.0001   -0.0000
C        15.1073    5.6184   12.7412   -0.0003    0.0012   -0.0000
C        15.5559    7.0099   12.7320    0.0002    0.0001   -0.0000
N        16.9446   12.1735   12.7365    0.0001   -0.0001   -0.0000
N        16.8391    7.3745   12.7331   -0.0001    0.0001   -0.0000
N        12.4947    9.8701   12.7367    0.0000   -0.0000   -0.0000
N        14.5362   11.8239   12.7312   -0.0000   -0.0003   -0.0000
N        16.4900    9.7831   12.7252    0.0002   -0.0000    0.0000
N        14.4485    7.8292   12.7301    0.0000   -0.0002    0.0000
C        13.1827   15.2473   12.7623    0.0333    0.0000   -0.0001
Zn       14.4924    9.8265   12.7264   -0.0000    0.0000   -0.0000
C        16.0384   15.1842   12.7549   -0.0303    0.0014    0.0001
C        13.9324   16.4262   12.7720    0.0098   -0.0192   -0.0002
C        15.3413   16.3949   12.7682   -0.0108   -0.0190   -0.0002
H        12.0925   15.2624   12.7653   -0.3751    0.0073    0.0011
H        17.1282   15.1517   12.7524    0.3411   -0.0083   -0.0008
H        15.8945   17.3351   12.7765    0.1205    0.2050    0.0018
H        13.4215   17.3900   12.7831   -0.1099    0.2077    0.0024
C        19.9141   11.1351   12.7666    0.0000    0.0279    0.0000
C        19.8494    8.2795   12.7644   -0.0011   -0.0246   -0.0000
C        21.0925   10.3847   12.7838    0.0162    0.0082    0.0002
C        21.0605    8.9757   12.7834    0.0147   -0.0084    0.0002
H        19.9307   12.2252   12.7677   -0.0065   -0.3135   -0.0004
H        19.8161    7.1897   12.7642    0.0069    0.2769    0.0000
H        22.0002    8.4217   12.7979   -0.1587    0.0935   -0.0025
H        22.0566   10.8949   12.7993   -0.1748   -0.0923   -0.0028
C         9.0706    8.5177   12.7651   -0.0000   -0.0022   -0.0000
C         9.1350   11.3733   12.7663   -0.0001   -0.0030   -0.0000
C         7.8920    9.2680   12.7781   -0.0002    0.0000    0.0000
C         7.9240   10.6769   12.7780    0.0011   -0.0005   -0.0000
H         9.0541    7.4277   12.7650    0.0005    0.0257   -0.0000
H         9.1683   12.4630   12.7667    0.0008    0.0343    0.0000
H         6.9843   11.2312   12.7887   -0.0112    0.0064    0.0001
H         6.9279    8.7580   12.7877    0.0016    0.0007   -0.0000
C        15.8019    4.4056   12.7477    0.0337   -0.0001   -0.0002
C        12.9464    4.4688   12.7613   -0.0219    0.0010    0.0001
C        15.0523    3.2268   12.7611    0.0087   -0.0176    0.0001
C        13.6434    3.2581   12.7682   -0.0088   -0.0150    0.0002
H        16.8920    4.3900   12.7428   -0.3795    0.0076    0.0017
H        11.8565    4.5005   12.7666    0.2462   -0.0059   -0.0012
H        13.0902    2.3178   12.7803    0.0958    0.1625   -0.0021
H        15.5632    2.2628   12.7676   -0.0999    0.1892   -0.0013
    57
stable frequency at   3145.677 1/cm IR int. is 1.096 a.m.u.; force const. is 6.390 mDyne/Ang.
C        10.3153   10.6255   12.7541   -0.0002    0.0000    0.0000
C        11.7250   11.0126   12.7436   -0.0000   -0.0000    0.0000
C        13.4288   12.6432   12.7402   -0.0002   -0.0002    0.0000
C        13.8774   14.0347   12.7489    0.0002   -0.0013   -0.0000
C        10.2838    9.2117   12.7538   -0.0003   -0.0001    0.0000
C        11.6752    8.7628   12.7434   -0.0000    0.0001    0.0000
C        13.3062    7.0594   12.7390   -0.0000    0.0000    0.0000
C        13.6935    5.6496   12.7468    0.0000    0.0002   -0.0000
N        12.1457   12.2786   12.7444    0.0001    0.0001   -0.0000
N        12.0400    7.4796   12.7439    0.0000   -0.0000   -0.0000
C        15.2912   14.0035   12.7457   -0.0003   -0.0013   -0.0000
C        15.6785   12.5937   12.7355    0.0003   -0.0002   -0.0000
C        17.3094   10.8903   12.7347   -0.0002    0.0003   -0.0000
C        18.7010   10.4413   12.7487   -0.0013   -0.0003   -0.0000
C        17.2595    8.6406   12.7332   -0.0001   -0.0002   -0.0000
C        18.6693    9.0275   12.7476   -0.0010    0.0001   -0.0000
C        15.1073    5.6184   12.7412   -0.0001    0.0005   -0.0000
C        15.5559    7.0099   12.7320    0.0001    0.0000   -0.0000
N        16.9446   12.1735   12.7365   -0.0001   -0.0001   -0.0000
N        16.8391    7.3745   12.7331   -0.0000    0.0001   -0.0000
N        12.4947    9.8701   12.7367    0.0001   -0.0000   -0.0000
N        14.5362   11.8239   12.7312    0.0000    0.0003    0.0000
N        16.4900    9.7831   12.7252    0.0002    0.0000    0.0000
N        14.4485    7.8292   12.7301    0.0000   -0.0001    0.0000
C        13.1827   15.2473   12.7623   -0.0361   -0.0001    0.0001
Zn       14.4924    9.8265   12.7264   -0.0000   -0.0000   -0.0000
C        16.0384   15.1842   12.7549    0.0354   -0.0016   -0.0001
C        13.9324   16.4262   12.7720   -0.0109    0.0215    0.0002
C        15.3413   16.3949   12.7682    0.0123    0.0217    0.0002
H        12.0925   15.2624   12.7653    0.4060   -0.0078   -0.0012
H        17.1282   15.1517   12.7524   -0.3989    0.0097    0.0009
H        15.8945   17.3351   12.7765   -0.1372   -0.2335   -0.0021
H        13.4215   17.3900   12.7831    0.1229   -0.2319   -0.0027
C        19.9141   11.1351   12.7666    0.0001    0.0373    0.0000
C        19.8494    8.2795   12.7644   -0.0013   -0.0270   -0.0000
C        21.0925   10.3847   12.7838    0.0203    0.0100    0.0003
C        21.0605    8.9757   12.7834    0.0171   -0.0099    0.0003
H        19.9307   12.2252   12.7677   -0.0087   -0.4207   -0.0005
H        19.8161    7.1897   12.7642    0.0077    0.3031    0.0000
H        22.0002    8.4217   12.7979   -0.1845    0.1088   -0.0029
H        22.0566   10.8949   12.7993   -0.2183   -0.1151   -0.0035
C         9.0706    8.5177   12.7651    0.0000    0.0088    0.0000
C         9.1350   11.3733   12.7663   -0.0003   -0.0061   -0.0000
C         7.8920    9.2680   12.7781    0.0047    0.0023   -0.0000
C         7.9240   10.6769   12.7780    0.0039   -0.0023   -0.0000
H         9.0541    7.4277   12.7650   -0.0021   -0.0991   -0.0000
H         9.1683   12.4630   12.7667    0.0017    0.0681    0.0000
H         6.9843   11.2312   12.7887   -0.0416    0.0246    0.0005
H         6.9279    8.7580   12.7877   -0.0504   -0.0265    0.0005
C        15.8019    4.4056   12.7477    0.0143   -0.0000   -0.0001
C        12.9464    4.4688   12.7613   -0.0070    0.0004    0.0000
C        15.0523    3.2268   12.7611    0.0033   -0.0069    0.0000
C        13.6434    3.2581   12.7682   -0.0030   -0.0050    0.0001
H        16.8920    4.3900   12.7428   -0.1608    0.0032    0.0007
H        11.8565    4.5005   12.7666    0.0788   -0.0020   -0.0004
H        13.0902    2.3178   12.7803    0.0323    0.0545   -0.0007
H        15.5632    2.2628   12.7676   -0.0386    0.0733   -0.0005
    57
stable frequency at   3146.110 1/cm IR int. is 1.096 a.m.u.; force const. is 6.392 mDyne/Ang.
C        10.3153   10.6255   12.7541    0.0015   -0.0002   -0.0000
C        11.7250   11.0126   12.7436    0.0002    0.0003   -0.0000
C        13.4288   12.6432   12.7402   -0.0001   -0.0000    0.0000
C        13.8774   14.0347   12.7489    0.0001   -0.0003   -0.0000
C        10.2838    9.2117   12.7538    0.0020    0.0004   -0.0000
C        11.6752    8.7628   12.7434    0.0002   -0.0004   -0.0000
C        13.3062    7.0594   12.7390   -0.0001    0.0000    0.0000
C        13.6935    5.6496   12.7468    0.0000    0.0002   -0.0000
N        12.1457   12.2786   12.7444   -0.0000   -0.0002   -0.0000
N        12.0400    7.4796   12.7439   -0.0000    0.0002   -0.0000
C        15.2912   14.0035   12.7457   -0.0000   -0.0002   -0.0000
C        15.6785   12.5937   12.7355    0.0000   -0.0000   -0.0000
C        17.3094   10.8903   12.7347   -0.0000    0.0000   -0.0000
C        18.7010   10.4413   12.7487   -0.0001   -0.0000   -0.0000
C        17.2595    8.6406   12.7332   -0.0000   -0.0000   -0.0000
C        18.6693    9.0275   12.7476   -0.0000    0.0000   -0.0000
C        15.1073    5.6184   12.7412   -0.0000    0.0002   -0.0000
C        15.5559    7.0099   12.7320    0.0000    0.0000   -0.0000
N        16.9446   12.1735   12.7365   -0.0000   -0.0000   -0.0000
N        16.8391    7.3745   12.7331   -0.0000    0.0000   -0.0000
N        12.4947    9.8701   12.7367   -0.0004   -0.0000    0.0000
N        14.5362   11.8239   12.7312   -0.0000    0.0000    0.0000
N        16.4900    9.7831   12.7252    0.0000    0.0000   -0.0000
N        14.4485    7.8292   12.7301   -0.0000   -0.0000    0.0000
C        13.1827   15.2473   12.7623   -0.0083    0.0000    0.0000
Zn       14.4924    9.8265   12.7264    0.0000   -0.0000   -0.0000
C        16.0384   15.1842   12.7549    0.0046   -0.0002   -0.0000
C        13.9324   16.4262   12.7720   -0.0020    0.0041    0.0000
C        15.3413   16.3949   12.7682    0.0020    0.0034    0.0000
H        12.0925   15.2624   12.7653    0.0935   -0.0018   -0.0003
H        17.1282   15.1517   12.7524   -0.0510    0.0013    0.0001
H        15.8945   17.3351   12.7765   -0.0216   -0.0367   -0.0003
H        13.4215   17.3900   12.7831    0.0232   -0.0440   -0.0005
C        19.9141   11.1351   12.7666    0.0000    0.0033    0.0000
C        19.8494    8.2795   12.7644   -0.0001   -0.0017   -0.0000
C        21.0925   10.3847   12.7838    0.0015    0.0007    0.0000
C        21.0605    8.9757   12.7834    0.0009   -0.0005    0.0000
H        19.9307   12.2252   12.7677   -0.0007   -0.0372   -0.0000
H        19.8161    7.1897   12.7642    0.0005    0.0196    0.0000
H        22.0002    8.4217   12.7979   -0.0098    0.0058   -0.0001
H        22.0566   10.8949   12.7993   -0.0161   -0.0085   -0.0003
C         9.0706    8.5177   12.7651   -0.0000   -0.0554   -0.0000
C         9.1350   11.3733   12.7663    0.0020    0.0424    0.0000
C         7.8920    9.2680   12.7781   -0.0317   -0.0158    0.0003
C         7.9240   10.6769   12.7780   -0.0264    0.0153    0.0003
H         9.0541    7.4277   12.7650    0.0128    0.6233    0.0000
H         9.1683   12.4630   12.7667   -0.0120   -0.4768   -0.0002
H         6.9843   11.2312   12.7887    0.2855   -0.1685   -0.0032
H         6.9279    8.7580   12.7877    0.3428    0.1809   -0.0034
C        15.8019    4.4056   12.7477    0.0056    0.0000   -0.0000
C        12.9464    4.4688   12.7613   -0.0054    0.0002    0.0000
C        15.0523    3.2268   12.7611    0.0017   -0.0034    0.0000
C        13.6434    3.2581   12.7682   -0.0019   -0.0033    0.0000
H        16.8920    4.3900   12.7428   -0.0628    0.0012    0.0003
H        11.8565    4.5005   12.7666    0.0606   -0.0014   -0.0003
H        13.0902    2.3178   12.7803    0.0210    0.0357   -0.0005
H        15.5632    2.2628   12.7676   -0.0195    0.0367   -0.0002
