   258
unstable frequency at     -9.147 1/cm IR int. is 15.492 a.m.u.; force const. is 0.001 mDyne/Ang.
C         0.0000    0.0372   -0.8071    0.0906    0.0000   -0.0000
O         0.0000    0.0952    0.3403    0.2374    0.0000   -0.0000
Ag       -7.3486  -10.2881   -9.0591    0.0000    0.0000    0.0000
Ag       -4.4092  -10.2881   -9.0591    0.0000    0.0000    0.0000
Ag       -1.4697  -10.2881   -9.0591    0.0000    0.0000    0.0000
Ag        1.4697  -10.2881   -9.0591    0.0000    0.0000    0.0000
Ag        4.4092  -10.2881   -9.0591    0.0000    0.0000    0.0000
Ag        7.3486  -10.2881   -9.0591    0.0000    0.0000    0.0000
Ag       10.2880  -10.2881   -9.0591    0.0000    0.0000    0.0000
Ag       13.2275  -10.2881   -9.0591    0.0000    0.0000    0.0000
Ag       -7.3486   -7.3486   -9.0591    0.0000    0.0000    0.0000
Ag       -4.4092   -7.3486   -9.0591    0.0000    0.0000    0.0000
Ag       -1.4697   -7.3486   -9.0591    0.0000    0.0000    0.0000
Ag        1.4697   -7.3486   -9.0591    0.0000    0.0000    0.0000
Ag        4.4092   -7.3486   -9.0591    0.0000    0.0000    0.0000
Ag        7.3486   -7.3486   -9.0591    0.0000    0.0000    0.0000
Ag       10.2880   -7.3486   -9.0591    0.0000    0.0000    0.0000
Ag       13.2275   -7.3486   -9.0591    0.0000    0.0000    0.0000
Ag       -7.3486   -4.4092   -9.0591    0.0000    0.0000    0.0000
Ag       -4.4092   -4.4092   -9.0591    0.0000    0.0000    0.0000
Ag       -1.4697   -4.4092   -9.0591    0.0000    0.0000    0.0000
Ag        1.4697   -4.4092   -9.0591    0.0000    0.0000    0.0000
Ag        4.4092   -4.4092   -9.0591    0.0000    0.0000    0.0000
Ag        7.3486   -4.4092   -9.0591    0.0000    0.0000    0.0000
Ag       10.2880   -4.4092   -9.0591    0.0000    0.0000    0.0000
Ag       13.2275   -4.4092   -9.0591    0.0000    0.0000    0.0000
Ag       -7.3486   -1.4698   -9.0591    0.0000    0.0000    0.0000
Ag       -4.4092   -1.4698   -9.0591    0.0000    0.0000    0.0000
Ag       -1.4697   -1.4698   -9.0591    0.0000    0.0000    0.0000
Ag        1.4697   -1.4698   -9.0591    0.0000    0.0000    0.0000
Ag        4.4092   -1.4698   -9.0591    0.0000    0.0000    0.0000
Ag        7.3486   -1.4698   -9.0591    0.0000    0.0000    0.0000
Ag       10.2880   -1.4698   -9.0591    0.0000    0.0000    0.0000
Ag       13.2275   -1.4698   -9.0591    0.0000    0.0000    0.0000
Ag       -7.3486    1.4697   -9.0591    0.0000    0.0000    0.0000
Ag       -4.4092    1.4697   -9.0591    0.0000    0.0000    0.0000
Ag       -1.4697    1.4697   -9.0591    0.0000    0.0000    0.0000
Ag        1.4697    1.4697   -9.0591    0.0000    0.0000    0.0000
Ag        4.4092    1.4697   -9.0591    0.0000    0.0000    0.0000
Ag        7.3486    1.4697   -9.0591    0.0000    0.0000    0.0000
Ag       10.2880    1.4697   -9.0591    0.0000    0.0000    0.0000
Ag       13.2275    1.4697   -9.0591    0.0000    0.0000    0.0000
Ag       -7.3486    4.4091   -9.0591    0.0000    0.0000    0.0000
Ag       -4.4092    4.4091   -9.0591    0.0000    0.0000    0.0000
Ag       -1.4697    4.4091   -9.0591    0.0000    0.0000    0.0000
Ag        1.4697    4.4091   -9.0591    0.0000    0.0000    0.0000
Ag        4.4092    4.4091   -9.0591    0.0000    0.0000    0.0000
Ag        7.3486    4.4091   -9.0591    0.0000    0.0000    0.0000
Ag       10.2880    4.4091   -9.0591    0.0000    0.0000    0.0000
Ag       13.2275    4.4091   -9.0591    0.0000    0.0000    0.0000
Ag       -7.3486    7.3486   -9.0591    0.0000    0.0000    0.0000
Ag       -4.4092    7.3486   -9.0591    0.0000    0.0000    0.0000
Ag       -1.4697    7.3486   -9.0591    0.0000    0.0000    0.0000
Ag        1.4697    7.3486   -9.0591    0.0000    0.0000    0.0000
Ag        4.4092    7.3486   -9.0591    0.0000    0.0000    0.0000
Ag        7.3486    7.3486   -9.0591    0.0000    0.0000    0.0000
Ag       10.2880    7.3486   -9.0591    0.0000    0.0000    0.0000
Ag       13.2275    7.3486   -9.0591    0.0000    0.0000    0.0000
Ag       -7.3486   10.2880   -9.0591    0.0000    0.0000    0.0000
Ag       -4.4092   10.2880   -9.0591    0.0000    0.0000    0.0000
Ag       -1.4697   10.2880   -9.0591    0.0000    0.0000    0.0000
Ag        1.4697   10.2880   -9.0591    0.0000    0.0000    0.0000
Ag        4.4092   10.2880   -9.0591    0.0000    0.0000    0.0000
Ag        7.3486   10.2880   -9.0591    0.0000    0.0000    0.0000
Ag       10.2880   10.2880   -9.0591    0.0000    0.0000    0.0000
Ag       13.2275   10.2880   -9.0591    0.0000    0.0000    0.0000
Ag       -8.8183  -11.7578   -6.9806    0.0000    0.0000    0.0000
Ag       -5.8789  -11.7578   -6.9806    0.0000    0.0000    0.0000
Ag       -2.9394  -11.7578   -6.9806    0.0000    0.0000    0.0000
Ag       -0.0000  -11.7578   -6.9806    0.0000    0.0000    0.0000
Ag        2.9394  -11.7578   -6.9806    0.0000    0.0000    0.0000
Ag        5.8789  -11.7578   -6.9806    0.0000    0.0000    0.0000
Ag        8.8183  -11.7578   -6.9806    0.0000    0.0000    0.0000
Ag       11.7578  -11.7578   -6.9806    0.0000    0.0000    0.0000
Ag       -8.8183   -8.8184   -6.9806    0.0000    0.0000    0.0000
Ag       -5.8789   -8.8184   -6.9806    0.0000    0.0000    0.0000
Ag       -2.9394   -8.8184   -6.9806    0.0000    0.0000    0.0000
Ag       -0.0000   -8.8184   -6.9806    0.0000    0.0000    0.0000
Ag        2.9394   -8.8184   -6.9806    0.0000    0.0000    0.0000
Ag        5.8789   -8.8184   -6.9806    0.0000    0.0000    0.0000
Ag        8.8183   -8.8184   -6.9806    0.0000    0.0000    0.0000
Ag       11.7578   -8.8184   -6.9806    0.0000    0.0000    0.0000
Ag       -8.8183   -5.8789   -6.9806    0.0000    0.0000    0.0000
Ag       -5.8789   -5.8789   -6.9806    0.0000    0.0000    0.0000
Ag       -2.9394   -5.8789   -6.9806    0.0000    0.0000    0.0000
Ag       -0.0000   -5.8789   -6.9806    0.0000    0.0000    0.0000
Ag        2.9394   -5.8789   -6.9806    0.0000    0.0000    0.0000
Ag        5.8789   -5.8789   -6.9806    0.0000    0.0000    0.0000
Ag        8.8183   -5.8789   -6.9806    0.0000    0.0000    0.0000
Ag       11.7578   -5.8789   -6.9806    0.0000    0.0000    0.0000
Ag       -8.8183   -2.9395   -6.9806    0.0000    0.0000    0.0000
Ag       -5.8789   -2.9395   -6.9806    0.0000    0.0000    0.0000
Ag       -2.9394   -2.9395   -6.9806    0.0000    0.0000    0.0000
Ag       -0.0000   -2.9395   -6.9806    0.0000    0.0000    0.0000
Ag        2.9394   -2.9395   -6.9806    0.0000    0.0000    0.0000
Ag        5.8789   -2.9395   -6.9806    0.0000    0.0000    0.0000
Ag        8.8183   -2.9395   -6.9806    0.0000    0.0000    0.0000
Ag       11.7578   -2.9395   -6.9806    0.0000    0.0000    0.0000
Ag       -8.8183   -0.0000   -6.9806    0.0000    0.0000    0.0000
Ag       -5.8789   -0.0000   -6.9806    0.0000    0.0000    0.0000
Ag       -2.9394   -0.0000   -6.9806    0.0000    0.0000    0.0000
Ag       -0.0000   -0.0000   -6.9806    0.0000    0.0000    0.0000
Ag        2.9394   -0.0000   -6.9806    0.0000    0.0000    0.0000
Ag        5.8789   -0.0000   -6.9806    0.0000    0.0000    0.0000
Ag        8.8183   -0.0000   -6.9806    0.0000    0.0000    0.0000
Ag       11.7578   -0.0000   -6.9806    0.0000    0.0000    0.0000
Ag       -8.8183    2.9394   -6.9806    0.0000    0.0000    0.0000
Ag       -5.8789    2.9394   -6.9806    0.0000    0.0000    0.0000
Ag       -2.9394    2.9394   -6.9806    0.0000    0.0000    0.0000
Ag       -0.0000    2.9394   -6.9806    0.0000    0.0000    0.0000
Ag        2.9394    2.9394   -6.9806    0.0000    0.0000    0.0000
Ag        5.8789    2.9394   -6.9806    0.0000    0.0000    0.0000
Ag        8.8183    2.9394   -6.9806    0.0000    0.0000    0.0000
Ag       11.7578    2.9394   -6.9806    0.0000    0.0000    0.0000
Ag       -8.8183    5.8788   -6.9806    0.0000    0.0000    0.0000
Ag       -5.8789    5.8788   -6.9806    0.0000    0.0000    0.0000
Ag       -2.9394    5.8788   -6.9806    0.0000    0.0000    0.0000
Ag       -0.0000    5.8788   -6.9806    0.0000    0.0000    0.0000
Ag        2.9394    5.8788   -6.9806    0.0000    0.0000    0.0000
Ag        5.8789    5.8788   -6.9806    0.0000    0.0000    0.0000
Ag        8.8183    5.8788   -6.9806    0.0000    0.0000    0.0000
Ag       11.7578    5.8788   -6.9806    0.0000    0.0000    0.0000
Ag       -8.8183    8.8183   -6.9806    0.0000    0.0000    0.0000
Ag       -5.8789    8.8183   -6.9806    0.0000    0.0000    0.0000
Ag       -2.9394    8.8183   -6.9806    0.0000    0.0000    0.0000
Ag       -0.0000    8.8183   -6.9806    0.0000    0.0000    0.0000
Ag        2.9394    8.8183   -6.9806    0.0000    0.0000    0.0000
Ag        5.8789    8.8183   -6.9806    0.0000    0.0000    0.0000
Ag        8.8183    8.8183   -6.9806    0.0000    0.0000    0.0000
Ag       11.7578    8.8183   -6.9806    0.0000    0.0000    0.0000
Ag       -7.3471  -10.2894   -4.9835    0.0000    0.0000    0.0000
Ag       -4.4100  -10.2895   -4.9836    0.0000    0.0000    0.0000
Ag       -1.4714  -10.2899   -4.9842    0.0000    0.0000    0.0000
Ag        1.4714  -10.2899   -4.9842    0.0000    0.0000    0.0000
Ag        4.4100  -10.2895   -4.9836    0.0000    0.0000    0.0000
Ag        7.3471  -10.2894   -4.9835    0.0000    0.0000    0.0000
Ag       10.2877  -10.2878   -4.9842    0.0000    0.0000    0.0000
Ag       13.2278  -10.2878   -4.9842    0.0000    0.0000    0.0000
Ag       -7.3484   -7.3484   -4.9840    0.0000    0.0000    0.0000
Ag       -4.4093   -7.3492   -4.9840    0.0000    0.0000    0.0000
Ag       -1.4710   -7.3515   -4.9850    0.0000    0.0000    0.0000
Ag        1.4710   -7.3515   -4.9850    0.0000    0.0000    0.0000
Ag        4.4093   -7.3492   -4.9840    0.0000    0.0000    0.0000
Ag        7.3484   -7.3484   -4.9840    0.0000    0.0000    0.0000
Ag       10.2893   -7.3472   -4.9836    0.0000    0.0000    0.0000
Ag       13.2262   -7.3472   -4.9836    0.0000    0.0000    0.0000
Ag       -7.3491   -4.4094   -4.9840    0.0000    0.0000    0.0000
Ag       -4.4095   -4.4096   -4.9840    0.0000    0.0000    0.0000
Ag       -1.4738   -4.4110   -4.9905    0.0000    0.0000    0.0000
Ag        1.4738   -4.4110   -4.9905    0.0000    0.0000    0.0000
Ag        4.4095   -4.4096   -4.9840    0.0000    0.0000    0.0000
Ag        7.3491   -4.4094   -4.9840    0.0000    0.0000    0.0000
Ag       10.2895   -4.4101   -4.9836    0.0000    0.0000    0.0000
Ag       13.2261   -4.4101   -4.9836    0.0000    0.0000    0.0000
Ag       -7.3515   -1.4710   -4.9850    0.0000    0.0000    0.0000
Ag       -4.4110   -1.4739   -4.9906    0.0000    0.0000    0.0000
Ag       -1.4563   -1.4565   -4.9700    0.0000    0.0000    0.0000
Ag        1.4563   -1.4565   -4.9700    0.0000    0.0000    0.0000
Ag        4.4110   -1.4739   -4.9906    0.0000    0.0000    0.0000
Ag        7.3515   -1.4710   -4.9850    0.0000    0.0000    0.0000
Ag       10.2898   -1.4714   -4.9843    0.0000    0.0000    0.0000
Ag       13.2257   -1.4714   -4.9843    0.0000    0.0000    0.0000
Ag       -7.3515    1.4709   -4.9850    0.0000    0.0000    0.0000
Ag       -4.4110    1.4738   -4.9906    0.0000    0.0000    0.0000
Ag       -1.4565    1.4563   -4.9702    0.0000    0.0000    0.0000
Ag        1.4565    1.4563   -4.9702    0.0000    0.0000    0.0000
Ag        4.4110    1.4738   -4.9906    0.0000    0.0000    0.0000
Ag        7.3515    1.4709   -4.9850    0.0000    0.0000    0.0000
Ag       10.2898    1.4713   -4.9842    0.0000    0.0000    0.0000
Ag       13.2257    1.4713   -4.9842    0.0000    0.0000    0.0000
Ag       -7.3491    4.4093   -4.9840    0.0000    0.0000    0.0000
Ag       -4.4095    4.4094   -4.9840    0.0000    0.0000    0.0000
Ag       -1.4739    4.4110   -4.9907    0.0000    0.0000    0.0000
Ag        1.4739    4.4110   -4.9907    0.0000    0.0000    0.0000
Ag        4.4095    4.4094   -4.9840    0.0000    0.0000    0.0000
Ag        7.3491    4.4093   -4.9840    0.0000    0.0000    0.0000
Ag       10.2895    4.4100   -4.9836    0.0000    0.0000    0.0000
Ag       13.2261    4.4100   -4.9836    0.0000    0.0000    0.0000
Ag       -7.3484    7.3483   -4.9840    0.0000    0.0000    0.0000
Ag       -4.4093    7.3491   -4.9840    0.0000    0.0000    0.0000
Ag       -1.4710    7.3515   -4.9850    0.0000    0.0000    0.0000
Ag        1.4710    7.3515   -4.9850    0.0000    0.0000    0.0000
Ag        4.4093    7.3491   -4.9840    0.0000    0.0000    0.0000
Ag        7.3484    7.3483   -4.9840    0.0000    0.0000    0.0000
Ag       10.2893    7.3471   -4.9836    0.0000    0.0000    0.0000
Ag       13.2262    7.3471   -4.9836    0.0000    0.0000    0.0000
Ag       -7.3471   10.2893   -4.9836    0.0000    0.0000    0.0000
Ag       -4.4100   10.2894   -4.9836    0.0000    0.0000    0.0000
Ag       -1.4714   10.2898   -4.9842    0.0000    0.0000    0.0000
Ag        1.4714   10.2898   -4.9842    0.0000    0.0000    0.0000
Ag        4.4100   10.2894   -4.9836    0.0000    0.0000    0.0000
Ag        7.3471   10.2893   -4.9836    0.0000    0.0000    0.0000
Ag       10.2877   10.2877   -4.9842    0.0000    0.0000    0.0000
Ag       13.2278   10.2877   -4.9842    0.0000    0.0000    0.0000
Ag       -8.8160  -11.7578   -3.0097    0.0000    0.0000    0.0000
Ag       -5.8765  -11.7578   -3.0042    0.0000    0.0000    0.0000
Ag       -2.9406  -11.7579   -3.0069    0.0000    0.0000    0.0000
Ag       -0.0000  -11.7578   -3.0101    0.0000    0.0000    0.0000
Ag        2.9406  -11.7579   -3.0069    0.0000    0.0000    0.0000
Ag        5.8765  -11.7578   -3.0042    0.0000    0.0000    0.0000
Ag        8.8160  -11.7578   -3.0097    0.0000    0.0000    0.0000
Ag       11.7578  -11.7579   -3.0116    0.0000    0.0000    0.0000
Ag       -8.8178   -8.8178   -3.0122    0.0000    0.0000    0.0000
Ag       -5.8777   -8.8188   -3.0099    0.0000    0.0000    0.0000
Ag       -2.9396   -8.8187   -3.0100    0.0000    0.0000    0.0000
Ag       -0.0000   -8.8215   -3.0120    0.0000    0.0000    0.0000
Ag        2.9396   -8.8187   -3.0100    0.0000    0.0000    0.0000
Ag        5.8777   -8.8188   -3.0099    0.0000    0.0000    0.0000
Ag        8.8178   -8.8178   -3.0122    0.0000    0.0000    0.0000
Ag       11.7578   -8.8160   -3.0097    0.0000    0.0000    0.0000
Ag       -8.8188   -5.8777   -3.0098    0.0000    0.0000    0.0000
Ag       -5.8786   -5.8786   -3.0112    0.0000    0.0000    0.0000
Ag       -2.9388   -5.8768   -3.0116    0.0000    0.0000    0.0000
Ag       -0.0000   -5.8874   -3.0135    0.0000    0.0000    0.0000
Ag        2.9388   -5.8768   -3.0116    0.0000    0.0000    0.0000
Ag        5.8786   -5.8786   -3.0112    0.0000    0.0000    0.0000
Ag        8.8188   -5.8777   -3.0098    0.0000    0.0000    0.0000
Ag       11.7578   -5.8766   -3.0042    0.0000    0.0000    0.0000
Ag       -8.8186   -2.9396   -3.0100    0.0000    0.0000    0.0000
Ag       -5.8767   -2.9389   -3.0116    0.0000    0.0000    0.0000
Ag       -2.9362   -2.9362   -3.0149    0.0000    0.0000    0.0000
Ag       -0.0000   -2.9716   -3.0213    0.0000    0.0000    0.0000
Ag        2.9362   -2.9362   -3.0149    0.0000    0.0000    0.0000
Ag        5.8767   -2.9389   -3.0116    0.0000    0.0000    0.0000
Ag        8.8186   -2.9396   -3.0100    0.0000    0.0000    0.0000
Ag       11.7578   -2.9406   -3.0070    0.0000    0.0000    0.0000
Ag       -8.8215   -0.0000   -3.0120    0.0000    0.0000    0.0000
Ag       -5.8873   -0.0001   -3.0136    0.0000    0.0000    0.0000
Ag       -2.9717   -0.0003   -3.0217    0.0000    0.0000    0.0000
Ag       -0.0000   -0.0010   -2.9411    0.0000    0.0000    0.0000
Ag        2.9717   -0.0003   -3.0217    0.0000    0.0000    0.0000
Ag        5.8873   -0.0001   -3.0136    0.0000    0.0000    0.0000
Ag        8.8215   -0.0000   -3.0120    0.0000    0.0000    0.0000
Ag       11.7578   -0.0000   -3.0101    0.0000    0.0000    0.0000
Ag       -8.8186    2.9395   -3.0100    0.0000    0.0000    0.0000
Ag       -5.8767    2.9387   -3.0116    0.0000    0.0000    0.0000
Ag       -2.9360    2.9360   -3.0150    0.0000    0.0000    0.0000
Ag       -0.0000    2.9719   -3.0222    0.0000    0.0000    0.0000
Ag        2.9360    2.9360   -3.0150    0.0000    0.0000    0.0000
Ag        5.8767    2.9387   -3.0116    0.0000    0.0000    0.0000
Ag        8.8186    2.9395   -3.0100    0.0000    0.0000    0.0000
Ag       11.7578    2.9405   -3.0069    0.0000    0.0000    0.0000
Ag       -8.8188    5.8776   -3.0099    0.0000    0.0000    0.0000
Ag       -5.8786    5.8785   -3.0112    0.0000    0.0000    0.0000
Ag       -2.9388    5.8766   -3.0116    0.0000    0.0000    0.0000
Ag       -0.0000    5.8872   -3.0136    0.0000    0.0000    0.0000
Ag        2.9388    5.8766   -3.0116    0.0000    0.0000    0.0000
Ag        5.8786    5.8786   -3.0112    0.0000    0.0000    0.0000
Ag        8.8188    5.8776   -3.0099    0.0000    0.0000    0.0000
Ag       11.7578    5.8765   -3.0042    0.0000    0.0000    0.0000
Ag       -8.8178    8.8177   -3.0121    0.0000    0.0000    0.0000
Ag       -5.8777    8.8188   -3.0098    0.0000    0.0000    0.0000
Ag       -2.9396    8.8185   -3.0100    0.0000    0.0000    0.0000
Ag       -0.0000    8.8214   -3.0120    0.0000    0.0000    0.0000
Ag        2.9396    8.8185   -3.0100    0.0000    0.0000    0.0000
Ag        5.8777    8.8188   -3.0098    0.0000    0.0000    0.0000
Ag        8.8178    8.8178   -3.0121    0.0000    0.0000    0.0000
Ag       11.7578    8.8160   -3.0097    0.0000    0.0000    0.0000
   258
stable frequency at     18.102 1/cm IR int. is 15.453 a.m.u.; force const. is 0.003 mDyne/Ang.
C         0.0000    0.0372   -0.8071    0.0000   -0.0941    0.0008
O         0.0000    0.0952    0.3403    0.0000   -0.2362    0.0078
Ag       -7.3486  -10.2881   -9.0591    0.0000    0.0000    0.0000
Ag       -4.4092  -10.2881   -9.0591    0.0000    0.0000    0.0000
Ag       -1.4697  -10.2881   -9.0591    0.0000    0.0000    0.0000
Ag        1.4697  -10.2881   -9.0591    0.0000    0.0000    0.0000
Ag        4.4092  -10.2881   -9.0591    0.0000    0.0000    0.0000
Ag        7.3486  -10.2881   -9.0591    0.0000    0.0000    0.0000
Ag       10.2880  -10.2881   -9.0591    0.0000    0.0000    0.0000
Ag       13.2275  -10.2881   -9.0591    0.0000    0.0000    0.0000
Ag       -7.3486   -7.3486   -9.0591    0.0000    0.0000    0.0000
Ag       -4.4092   -7.3486   -9.0591    0.0000    0.0000    0.0000
Ag       -1.4697   -7.3486   -9.0591    0.0000    0.0000    0.0000
Ag        1.4697   -7.3486   -9.0591    0.0000    0.0000    0.0000
Ag        4.4092   -7.3486   -9.0591    0.0000    0.0000    0.0000
Ag        7.3486   -7.3486   -9.0591    0.0000    0.0000    0.0000
Ag       10.2880   -7.3486   -9.0591    0.0000    0.0000    0.0000
Ag       13.2275   -7.3486   -9.0591    0.0000    0.0000    0.0000
Ag       -7.3486   -4.4092   -9.0591    0.0000    0.0000    0.0000
Ag       -4.4092   -4.4092   -9.0591    0.0000    0.0000    0.0000
Ag       -1.4697   -4.4092   -9.0591    0.0000    0.0000    0.0000
Ag        1.4697   -4.4092   -9.0591    0.0000    0.0000    0.0000
Ag        4.4092   -4.4092   -9.0591    0.0000    0.0000    0.0000
Ag        7.3486   -4.4092   -9.0591    0.0000    0.0000    0.0000
Ag       10.2880   -4.4092   -9.0591    0.0000    0.0000    0.0000
Ag       13.2275   -4.4092   -9.0591    0.0000    0.0000    0.0000
Ag       -7.3486   -1.4698   -9.0591    0.0000    0.0000    0.0000
Ag       -4.4092   -1.4698   -9.0591    0.0000    0.0000    0.0000
Ag       -1.4697   -1.4698   -9.0591    0.0000    0.0000    0.0000
Ag        1.4697   -1.4698   -9.0591    0.0000    0.0000    0.0000
Ag        4.4092   -1.4698   -9.0591    0.0000    0.0000    0.0000
Ag        7.3486   -1.4698   -9.0591    0.0000    0.0000    0.0000
Ag       10.2880   -1.4698   -9.0591    0.0000    0.0000    0.0000
Ag       13.2275   -1.4698   -9.0591    0.0000    0.0000    0.0000
Ag       -7.3486    1.4697   -9.0591    0.0000    0.0000    0.0000
Ag       -4.4092    1.4697   -9.0591    0.0000    0.0000    0.0000
Ag       -1.4697    1.4697   -9.0591    0.0000    0.0000    0.0000
Ag        1.4697    1.4697   -9.0591    0.0000    0.0000    0.0000
Ag        4.4092    1.4697   -9.0591    0.0000    0.0000    0.0000
Ag        7.3486    1.4697   -9.0591    0.0000    0.0000    0.0000
Ag       10.2880    1.4697   -9.0591    0.0000    0.0000    0.0000
Ag       13.2275    1.4697   -9.0591    0.0000    0.0000    0.0000
Ag       -7.3486    4.4091   -9.0591    0.0000    0.0000    0.0000
Ag       -4.4092    4.4091   -9.0591    0.0000    0.0000    0.0000
Ag       -1.4697    4.4091   -9.0591    0.0000    0.0000    0.0000
Ag        1.4697    4.4091   -9.0591    0.0000    0.0000    0.0000
Ag        4.4092    4.4091   -9.0591    0.0000    0.0000    0.0000
Ag        7.3486    4.4091   -9.0591    0.0000    0.0000    0.0000
Ag       10.2880    4.4091   -9.0591    0.0000    0.0000    0.0000
Ag       13.2275    4.4091   -9.0591    0.0000    0.0000    0.0000
Ag       -7.3486    7.3486   -9.0591    0.0000    0.0000    0.0000
Ag       -4.4092    7.3486   -9.0591    0.0000    0.0000    0.0000
Ag       -1.4697    7.3486   -9.0591    0.0000    0.0000    0.0000
Ag        1.4697    7.3486   -9.0591    0.0000    0.0000    0.0000
Ag        4.4092    7.3486   -9.0591    0.0000    0.0000    0.0000
Ag        7.3486    7.3486   -9.0591    0.0000    0.0000    0.0000
Ag       10.2880    7.3486   -9.0591    0.0000    0.0000    0.0000
Ag       13.2275    7.3486   -9.0591    0.0000    0.0000    0.0000
Ag       -7.3486   10.2880   -9.0591    0.0000    0.0000    0.0000
Ag       -4.4092   10.2880   -9.0591    0.0000    0.0000    0.0000
Ag       -1.4697   10.2880   -9.0591    0.0000    0.0000    0.0000
Ag        1.4697   10.2880   -9.0591    0.0000    0.0000    0.0000
Ag        4.4092   10.2880   -9.0591    0.0000    0.0000    0.0000
Ag        7.3486   10.2880   -9.0591    0.0000    0.0000    0.0000
Ag       10.2880   10.2880   -9.0591    0.0000    0.0000    0.0000
Ag       13.2275   10.2880   -9.0591    0.0000    0.0000    0.0000
Ag       -8.8183  -11.7578   -6.9806    0.0000    0.0000    0.0000
Ag       -5.8789  -11.7578   -6.9806    0.0000    0.0000    0.0000
Ag       -2.9394  -11.7578   -6.9806    0.0000    0.0000    0.0000
Ag       -0.0000  -11.7578   -6.9806    0.0000    0.0000    0.0000
Ag        2.9394  -11.7578   -6.9806    0.0000    0.0000    0.0000
Ag        5.8789  -11.7578   -6.9806    0.0000    0.0000    0.0000
Ag        8.8183  -11.7578   -6.9806    0.0000    0.0000    0.0000
Ag       11.7578  -11.7578   -6.9806    0.0000    0.0000    0.0000
Ag       -8.8183   -8.8184   -6.9806    0.0000    0.0000    0.0000
Ag       -5.8789   -8.8184   -6.9806    0.0000    0.0000    0.0000
Ag       -2.9394   -8.8184   -6.9806    0.0000    0.0000    0.0000
Ag       -0.0000   -8.8184   -6.9806    0.0000    0.0000    0.0000
Ag        2.9394   -8.8184   -6.9806    0.0000    0.0000    0.0000
Ag        5.8789   -8.8184   -6.9806    0.0000    0.0000    0.0000
Ag        8.8183   -8.8184   -6.9806    0.0000    0.0000    0.0000
Ag       11.7578   -8.8184   -6.9806    0.0000    0.0000    0.0000
Ag       -8.8183   -5.8789   -6.9806    0.0000    0.0000    0.0000
Ag       -5.8789   -5.8789   -6.9806    0.0000    0.0000    0.0000
Ag       -2.9394   -5.8789   -6.9806    0.0000    0.0000    0.0000
Ag       -0.0000   -5.8789   -6.9806    0.0000    0.0000    0.0000
Ag        2.9394   -5.8789   -6.9806    0.0000    0.0000    0.0000
Ag        5.8789   -5.8789   -6.9806    0.0000    0.0000    0.0000
Ag        8.8183   -5.8789   -6.9806    0.0000    0.0000    0.0000
Ag       11.7578   -5.8789   -6.9806    0.0000    0.0000    0.0000
Ag       -8.8183   -2.9395   -6.9806    0.0000    0.0000    0.0000
Ag       -5.8789   -2.9395   -6.9806    0.0000    0.0000    0.0000
Ag       -2.9394   -2.9395   -6.9806    0.0000    0.0000    0.0000
Ag       -0.0000   -2.9395   -6.9806    0.0000    0.0000    0.0000
Ag        2.9394   -2.9395   -6.9806    0.0000    0.0000    0.0000
Ag        5.8789   -2.9395   -6.9806    0.0000    0.0000    0.0000
Ag        8.8183   -2.9395   -6.9806    0.0000    0.0000    0.0000
Ag       11.7578   -2.9395   -6.9806    0.0000    0.0000    0.0000
Ag       -8.8183   -0.0000   -6.9806    0.0000    0.0000    0.0000
Ag       -5.8789   -0.0000   -6.9806    0.0000    0.0000    0.0000
Ag       -2.9394   -0.0000   -6.9806    0.0000    0.0000    0.0000
Ag       -0.0000   -0.0000   -6.9806    0.0000    0.0000    0.0000
Ag        2.9394   -0.0000   -6.9806    0.0000    0.0000    0.0000
Ag        5.8789   -0.0000   -6.9806    0.0000    0.0000    0.0000
Ag        8.8183   -0.0000   -6.9806    0.0000    0.0000    0.0000
Ag       11.7578   -0.0000   -6.9806    0.0000    0.0000    0.0000
Ag       -8.8183    2.9394   -6.9806    0.0000    0.0000    0.0000
Ag       -5.8789    2.9394   -6.9806    0.0000    0.0000    0.0000
Ag       -2.9394    2.9394   -6.9806    0.0000    0.0000    0.0000
Ag       -0.0000    2.9394   -6.9806    0.0000    0.0000    0.0000
Ag        2.9394    2.9394   -6.9806    0.0000    0.0000    0.0000
Ag        5.8789    2.9394   -6.9806    0.0000    0.0000    0.0000
Ag        8.8183    2.9394   -6.9806    0.0000    0.0000    0.0000
Ag       11.7578    2.9394   -6.9806    0.0000    0.0000    0.0000
Ag       -8.8183    5.8788   -6.9806    0.0000    0.0000    0.0000
Ag       -5.8789    5.8788   -6.9806    0.0000    0.0000    0.0000
Ag       -2.9394    5.8788   -6.9806    0.0000    0.0000    0.0000
Ag       -0.0000    5.8788   -6.9806    0.0000    0.0000    0.0000
Ag        2.9394    5.8788   -6.9806    0.0000    0.0000    0.0000
Ag        5.8789    5.8788   -6.9806    0.0000    0.0000    0.0000
Ag        8.8183    5.8788   -6.9806    0.0000    0.0000    0.0000
Ag       11.7578    5.8788   -6.9806    0.0000    0.0000    0.0000
Ag       -8.8183    8.8183   -6.9806    0.0000    0.0000    0.0000
Ag       -5.8789    8.8183   -6.9806    0.0000    0.0000    0.0000
Ag       -2.9394    8.8183   -6.9806    0.0000    0.0000    0.0000
Ag       -0.0000    8.8183   -6.9806    0.0000    0.0000    0.0000
Ag        2.9394    8.8183   -6.9806    0.0000    0.0000    0.0000
Ag        5.8789    8.8183   -6.9806    0.0000    0.0000    0.0000
Ag        8.8183    8.8183   -6.9806    0.0000    0.0000    0.0000
Ag       11.7578    8.8183   -6.9806    0.0000    0.0000    0.0000
Ag       -7.3471  -10.2894   -4.9835    0.0000    0.0000    0.0000
Ag       -4.4100  -10.2895   -4.9836    0.0000    0.0000    0.0000
Ag       -1.4714  -10.2899   -4.9842    0.0000    0.0000    0.0000
Ag        1.4714  -10.2899   -4.9842    0.0000    0.0000    0.0000
Ag        4.4100  -10.2895   -4.9836    0.0000    0.0000    0.0000
Ag        7.3471  -10.2894   -4.9835    0.0000    0.0000    0.0000
Ag       10.2877  -10.2878   -4.9842    0.0000    0.0000    0.0000
Ag       13.2278  -10.2878   -4.9842    0.0000    0.0000    0.0000
Ag       -7.3484   -7.3484   -4.9840    0.0000    0.0000    0.0000
Ag       -4.4093   -7.3492   -4.9840    0.0000    0.0000    0.0000
Ag       -1.4710   -7.3515   -4.9850    0.0000    0.0000    0.0000
Ag        1.4710   -7.3515   -4.9850    0.0000    0.0000    0.0000
Ag        4.4093   -7.3492   -4.9840    0.0000    0.0000    0.0000
Ag        7.3484   -7.3484   -4.9840    0.0000    0.0000    0.0000
Ag       10.2893   -7.3472   -4.9836    0.0000    0.0000    0.0000
Ag       13.2262   -7.3472   -4.9836    0.0000    0.0000    0.0000
Ag       -7.3491   -4.4094   -4.9840    0.0000    0.0000    0.0000
Ag       -4.4095   -4.4096   -4.9840    0.0000    0.0000    0.0000
Ag       -1.4738   -4.4110   -4.9905    0.0000    0.0000    0.0000
Ag        1.4738   -4.4110   -4.9905    0.0000    0.0000    0.0000
Ag        4.4095   -4.4096   -4.9840    0.0000    0.0000    0.0000
Ag        7.3491   -4.4094   -4.9840    0.0000    0.0000    0.0000
Ag       10.2895   -4.4101   -4.9836    0.0000    0.0000    0.0000
Ag       13.2261   -4.4101   -4.9836    0.0000    0.0000    0.0000
Ag       -7.3515   -1.4710   -4.9850    0.0000    0.0000    0.0000
Ag       -4.4110   -1.4739   -4.9906    0.0000    0.0000    0.0000
Ag       -1.4563   -1.4565   -4.9700    0.0000    0.0000    0.0000
Ag        1.4563   -1.4565   -4.9700    0.0000    0.0000    0.0000
Ag        4.4110   -1.4739   -4.9906    0.0000    0.0000    0.0000
Ag        7.3515   -1.4710   -4.9850    0.0000    0.0000    0.0000
Ag       10.2898   -1.4714   -4.9843    0.0000    0.0000    0.0000
Ag       13.2257   -1.4714   -4.9843    0.0000    0.0000    0.0000
Ag       -7.3515    1.4709   -4.9850    0.0000    0.0000    0.0000
Ag       -4.4110    1.4738   -4.9906    0.0000    0.0000    0.0000
Ag       -1.4565    1.4563   -4.9702    0.0000    0.0000    0.0000
Ag        1.4565    1.4563   -4.9702    0.0000    0.0000    0.0000
Ag        4.4110    1.4738   -4.9906    0.0000    0.0000    0.0000
Ag        7.3515    1.4709   -4.9850    0.0000    0.0000    0.0000
Ag       10.2898    1.4713   -4.9842    0.0000    0.0000    0.0000
Ag       13.2257    1.4713   -4.9842    0.0000    0.0000    0.0000
Ag       -7.3491    4.4093   -4.9840    0.0000    0.0000    0.0000
Ag       -4.4095    4.4094   -4.9840    0.0000    0.0000    0.0000
Ag       -1.4739    4.4110   -4.9907    0.0000    0.0000    0.0000
Ag        1.4739    4.4110   -4.9907    0.0000    0.0000    0.0000
Ag        4.4095    4.4094   -4.9840    0.0000    0.0000    0.0000
Ag        7.3491    4.4093   -4.9840    0.0000    0.0000    0.0000
Ag       10.2895    4.4100   -4.9836    0.0000    0.0000    0.0000
Ag       13.2261    4.4100   -4.9836    0.0000    0.0000    0.0000
Ag       -7.3484    7.3483   -4.9840    0.0000    0.0000    0.0000
Ag       -4.4093    7.3491   -4.9840    0.0000    0.0000    0.0000
Ag       -1.4710    7.3515   -4.9850    0.0000    0.0000    0.0000
Ag        1.4710    7.3515   -4.9850    0.0000    0.0000    0.0000
Ag        4.4093    7.3491   -4.9840    0.0000    0.0000    0.0000
Ag        7.3484    7.3483   -4.9840    0.0000    0.0000    0.0000
Ag       10.2893    7.3471   -4.9836    0.0000    0.0000    0.0000
Ag       13.2262    7.3471   -4.9836    0.0000    0.0000    0.0000
Ag       -7.3471   10.2893   -4.9836    0.0000    0.0000    0.0000
Ag       -4.4100   10.2894   -4.9836    0.0000    0.0000    0.0000
Ag       -1.4714   10.2898   -4.9842    0.0000    0.0000    0.0000
Ag        1.4714   10.2898   -4.9842    0.0000    0.0000    0.0000
Ag        4.4100   10.2894   -4.9836    0.0000    0.0000    0.0000
Ag        7.3471   10.2893   -4.9836    0.0000    0.0000    0.0000
Ag       10.2877   10.2877   -4.9842    0.0000    0.0000    0.0000
Ag       13.2278   10.2877   -4.9842    0.0000    0.0000    0.0000
Ag       -8.8160  -11.7578   -3.0097    0.0000    0.0000    0.0000
Ag       -5.8765  -11.7578   -3.0042    0.0000    0.0000    0.0000
Ag       -2.9406  -11.7579   -3.0069    0.0000    0.0000    0.0000
Ag       -0.0000  -11.7578   -3.0101    0.0000    0.0000    0.0000
Ag        2.9406  -11.7579   -3.0069    0.0000    0.0000    0.0000
Ag        5.8765  -11.7578   -3.0042    0.0000    0.0000    0.0000
Ag        8.8160  -11.7578   -3.0097    0.0000    0.0000    0.0000
Ag       11.7578  -11.7579   -3.0116    0.0000    0.0000    0.0000
Ag       -8.8178   -8.8178   -3.0122    0.0000    0.0000    0.0000
Ag       -5.8777   -8.8188   -3.0099    0.0000    0.0000    0.0000
Ag       -2.9396   -8.8187   -3.0100    0.0000    0.0000    0.0000
Ag       -0.0000   -8.8215   -3.0120    0.0000    0.0000    0.0000
Ag        2.9396   -8.8187   -3.0100    0.0000    0.0000    0.0000
Ag        5.8777   -8.8188   -3.0099    0.0000    0.0000    0.0000
Ag        8.8178   -8.8178   -3.0122    0.0000    0.0000    0.0000
Ag       11.7578   -8.8160   -3.0097    0.0000    0.0000    0.0000
Ag       -8.8188   -5.8777   -3.0098    0.0000    0.0000    0.0000
Ag       -5.8786   -5.8786   -3.0112    0.0000    0.0000    0.0000
Ag       -2.9388   -5.8768   -3.0116    0.0000    0.0000    0.0000
Ag       -0.0000   -5.8874   -3.0135    0.0000    0.0000    0.0000
Ag        2.9388   -5.8768   -3.0116    0.0000    0.0000    0.0000
Ag        5.8786   -5.8786   -3.0112    0.0000    0.0000    0.0000
Ag        8.8188   -5.8777   -3.0098    0.0000    0.0000    0.0000
Ag       11.7578   -5.8766   -3.0042    0.0000    0.0000    0.0000
Ag       -8.8186   -2.9396   -3.0100    0.0000    0.0000    0.0000
Ag       -5.8767   -2.9389   -3.0116    0.0000    0.0000    0.0000
Ag       -2.9362   -2.9362   -3.0149    0.0000    0.0000    0.0000
Ag       -0.0000   -2.9716   -3.0213    0.0000    0.0000    0.0000
Ag        2.9362   -2.9362   -3.0149    0.0000    0.0000    0.0000
Ag        5.8767   -2.9389   -3.0116    0.0000    0.0000    0.0000
Ag        8.8186   -2.9396   -3.0100    0.0000    0.0000    0.0000
Ag       11.7578   -2.9406   -3.0070    0.0000    0.0000    0.0000
Ag       -8.8215   -0.0000   -3.0120    0.0000    0.0000    0.0000
Ag       -5.8873   -0.0001   -3.0136    0.0000    0.0000    0.0000
Ag       -2.9717   -0.0003   -3.0217    0.0000    0.0000    0.0000
Ag       -0.0000   -0.0010   -2.9411    0.0000    0.0000    0.0000
Ag        2.9717   -0.0003   -3.0217    0.0000    0.0000    0.0000
Ag        5.8873   -0.0001   -3.0136    0.0000    0.0000    0.0000
Ag        8.8215   -0.0000   -3.0120    0.0000    0.0000    0.0000
Ag       11.7578   -0.0000   -3.0101    0.0000    0.0000    0.0000
Ag       -8.8186    2.9395   -3.0100    0.0000    0.0000    0.0000
Ag       -5.8767    2.9387   -3.0116    0.0000    0.0000    0.0000
Ag       -2.9360    2.9360   -3.0150    0.0000    0.0000    0.0000
Ag       -0.0000    2.9719   -3.0222    0.0000    0.0000    0.0000
Ag        2.9360    2.9360   -3.0150    0.0000    0.0000    0.0000
Ag        5.8767    2.9387   -3.0116    0.0000    0.0000    0.0000
Ag        8.8186    2.9395   -3.0100    0.0000    0.0000    0.0000
Ag       11.7578    2.9405   -3.0069    0.0000    0.0000    0.0000
Ag       -8.8188    5.8776   -3.0099    0.0000    0.0000    0.0000
Ag       -5.8786    5.8785   -3.0112    0.0000    0.0000    0.0000
Ag       -2.9388    5.8766   -3.0116    0.0000    0.0000    0.0000
Ag       -0.0000    5.8872   -3.0136    0.0000    0.0000    0.0000
Ag        2.9388    5.8766   -3.0116    0.0000    0.0000    0.0000
Ag        5.8786    5.8786   -3.0112    0.0000    0.0000    0.0000
Ag        8.8188    5.8776   -3.0099    0.0000    0.0000    0.0000
Ag       11.7578    5.8765   -3.0042    0.0000    0.0000    0.0000
Ag       -8.8178    8.8177   -3.0121    0.0000    0.0000    0.0000
Ag       -5.8777    8.8188   -3.0098    0.0000    0.0000    0.0000
Ag       -2.9396    8.8185   -3.0100    0.0000    0.0000    0.0000
Ag       -0.0000    8.8214   -3.0120    0.0000    0.0000    0.0000
Ag        2.9396    8.8185   -3.0100    0.0000    0.0000    0.0000
Ag        5.8777    8.8188   -3.0098    0.0000    0.0000    0.0000
Ag        8.8178    8.8178   -3.0121    0.0000    0.0000    0.0000
Ag       11.7578    8.8160   -3.0097    0.0000    0.0000    0.0000
   258
stable frequency at    149.001 1/cm IR int. is 12.340 a.m.u.; force const. is 0.161 mDyne/Ang.
C         0.0000    0.0372   -0.8071    0.0000   -0.2725    0.0082
O         0.0000    0.0952    0.3403   -0.0000    0.0812   -0.0097
Ag       -7.3486  -10.2881   -9.0591    0.0000    0.0000    0.0000
Ag       -4.4092  -10.2881   -9.0591    0.0000    0.0000    0.0000
Ag       -1.4697  -10.2881   -9.0591    0.0000    0.0000    0.0000
Ag        1.4697  -10.2881   -9.0591    0.0000    0.0000    0.0000
Ag        4.4092  -10.2881   -9.0591    0.0000    0.0000    0.0000
Ag        7.3486  -10.2881   -9.0591    0.0000    0.0000    0.0000
Ag       10.2880  -10.2881   -9.0591    0.0000    0.0000    0.0000
Ag       13.2275  -10.2881   -9.0591    0.0000    0.0000    0.0000
Ag       -7.3486   -7.3486   -9.0591    0.0000    0.0000    0.0000
Ag       -4.4092   -7.3486   -9.0591    0.0000    0.0000    0.0000
Ag       -1.4697   -7.3486   -9.0591    0.0000    0.0000    0.0000
Ag        1.4697   -7.3486   -9.0591    0.0000    0.0000    0.0000
Ag        4.4092   -7.3486   -9.0591    0.0000    0.0000    0.0000
Ag        7.3486   -7.3486   -9.0591    0.0000    0.0000    0.0000
Ag       10.2880   -7.3486   -9.0591    0.0000    0.0000    0.0000
Ag       13.2275   -7.3486   -9.0591    0.0000    0.0000    0.0000
Ag       -7.3486   -4.4092   -9.0591    0.0000    0.0000    0.0000
Ag       -4.4092   -4.4092   -9.0591    0.0000    0.0000    0.0000
Ag       -1.4697   -4.4092   -9.0591    0.0000    0.0000    0.0000
Ag        1.4697   -4.4092   -9.0591    0.0000    0.0000    0.0000
Ag        4.4092   -4.4092   -9.0591    0.0000    0.0000    0.0000
Ag        7.3486   -4.4092   -9.0591    0.0000    0.0000    0.0000
Ag       10.2880   -4.4092   -9.0591    0.0000    0.0000    0.0000
Ag       13.2275   -4.4092   -9.0591    0.0000    0.0000    0.0000
Ag       -7.3486   -1.4698   -9.0591    0.0000    0.0000    0.0000
Ag       -4.4092   -1.4698   -9.0591    0.0000    0.0000    0.0000
Ag       -1.4697   -1.4698   -9.0591    0.0000    0.0000    0.0000
Ag        1.4697   -1.4698   -9.0591    0.0000    0.0000    0.0000
Ag        4.4092   -1.4698   -9.0591    0.0000    0.0000    0.0000
Ag        7.3486   -1.4698   -9.0591    0.0000    0.0000    0.0000
Ag       10.2880   -1.4698   -9.0591    0.0000    0.0000    0.0000
Ag       13.2275   -1.4698   -9.0591    0.0000    0.0000    0.0000
Ag       -7.3486    1.4697   -9.0591    0.0000    0.0000    0.0000
Ag       -4.4092    1.4697   -9.0591    0.0000    0.0000    0.0000
Ag       -1.4697    1.4697   -9.0591    0.0000    0.0000    0.0000
Ag        1.4697    1.4697   -9.0591    0.0000    0.0000    0.0000
Ag        4.4092    1.4697   -9.0591    0.0000    0.0000    0.0000
Ag        7.3486    1.4697   -9.0591    0.0000    0.0000    0.0000
Ag       10.2880    1.4697   -9.0591    0.0000    0.0000    0.0000
Ag       13.2275    1.4697   -9.0591    0.0000    0.0000    0.0000
Ag       -7.3486    4.4091   -9.0591    0.0000    0.0000    0.0000
Ag       -4.4092    4.4091   -9.0591    0.0000    0.0000    0.0000
Ag       -1.4697    4.4091   -9.0591    0.0000    0.0000    0.0000
Ag        1.4697    4.4091   -9.0591    0.0000    0.0000    0.0000
Ag        4.4092    4.4091   -9.0591    0.0000    0.0000    0.0000
Ag        7.3486    4.4091   -9.0591    0.0000    0.0000    0.0000
Ag       10.2880    4.4091   -9.0591    0.0000    0.0000    0.0000
Ag       13.2275    4.4091   -9.0591    0.0000    0.0000    0.0000
Ag       -7.3486    7.3486   -9.0591    0.0000    0.0000    0.0000
Ag       -4.4092    7.3486   -9.0591    0.0000    0.0000    0.0000
Ag       -1.4697    7.3486   -9.0591    0.0000    0.0000    0.0000
Ag        1.4697    7.3486   -9.0591    0.0000    0.0000    0.0000
Ag        4.4092    7.3486   -9.0591    0.0000    0.0000    0.0000
Ag        7.3486    7.3486   -9.0591    0.0000    0.0000    0.0000
Ag       10.2880    7.3486   -9.0591    0.0000    0.0000    0.0000
Ag       13.2275    7.3486   -9.0591    0.0000    0.0000    0.0000
Ag       -7.3486   10.2880   -9.0591    0.0000    0.0000    0.0000
Ag       -4.4092   10.2880   -9.0591    0.0000    0.0000    0.0000
Ag       -1.4697   10.2880   -9.0591    0.0000    0.0000    0.0000
Ag        1.4697   10.2880   -9.0591    0.0000    0.0000    0.0000
Ag        4.4092   10.2880   -9.0591    0.0000    0.0000    0.0000
Ag        7.3486   10.2880   -9.0591    0.0000    0.0000    0.0000
Ag       10.2880   10.2880   -9.0591    0.0000    0.0000    0.0000
Ag       13.2275   10.2880   -9.0591    0.0000    0.0000    0.0000
Ag       -8.8183  -11.7578   -6.9806    0.0000    0.0000    0.0000
Ag       -5.8789  -11.7578   -6.9806    0.0000    0.0000    0.0000
Ag       -2.9394  -11.7578   -6.9806    0.0000    0.0000    0.0000
Ag       -0.0000  -11.7578   -6.9806    0.0000    0.0000    0.0000
Ag        2.9394  -11.7578   -6.9806    0.0000    0.0000    0.0000
Ag        5.8789  -11.7578   -6.9806    0.0000    0.0000    0.0000
Ag        8.8183  -11.7578   -6.9806    0.0000    0.0000    0.0000
Ag       11.7578  -11.7578   -6.9806    0.0000    0.0000    0.0000
Ag       -8.8183   -8.8184   -6.9806    0.0000    0.0000    0.0000
Ag       -5.8789   -8.8184   -6.9806    0.0000    0.0000    0.0000
Ag       -2.9394   -8.8184   -6.9806    0.0000    0.0000    0.0000
Ag       -0.0000   -8.8184   -6.9806    0.0000    0.0000    0.0000
Ag        2.9394   -8.8184   -6.9806    0.0000    0.0000    0.0000
Ag        5.8789   -8.8184   -6.9806    0.0000    0.0000    0.0000
Ag        8.8183   -8.8184   -6.9806    0.0000    0.0000    0.0000
Ag       11.7578   -8.8184   -6.9806    0.0000    0.0000    0.0000
Ag       -8.8183   -5.8789   -6.9806    0.0000    0.0000    0.0000
Ag       -5.8789   -5.8789   -6.9806    0.0000    0.0000    0.0000
Ag       -2.9394   -5.8789   -6.9806    0.0000    0.0000    0.0000
Ag       -0.0000   -5.8789   -6.9806    0.0000    0.0000    0.0000
Ag        2.9394   -5.8789   -6.9806    0.0000    0.0000    0.0000
Ag        5.8789   -5.8789   -6.9806    0.0000    0.0000    0.0000
Ag        8.8183   -5.8789   -6.9806    0.0000    0.0000    0.0000
Ag       11.7578   -5.8789   -6.9806    0.0000    0.0000    0.0000
Ag       -8.8183   -2.9395   -6.9806    0.0000    0.0000    0.0000
Ag       -5.8789   -2.9395   -6.9806    0.0000    0.0000    0.0000
Ag       -2.9394   -2.9395   -6.9806    0.0000    0.0000    0.0000
Ag       -0.0000   -2.9395   -6.9806    0.0000    0.0000    0.0000
Ag        2.9394   -2.9395   -6.9806    0.0000    0.0000    0.0000
Ag        5.8789   -2.9395   -6.9806    0.0000    0.0000    0.0000
Ag        8.8183   -2.9395   -6.9806    0.0000    0.0000    0.0000
Ag       11.7578   -2.9395   -6.9806    0.0000    0.0000    0.0000
Ag       -8.8183   -0.0000   -6.9806    0.0000    0.0000    0.0000
Ag       -5.8789   -0.0000   -6.9806    0.0000    0.0000    0.0000
Ag       -2.9394   -0.0000   -6.9806    0.0000    0.0000    0.0000
Ag       -0.0000   -0.0000   -6.9806    0.0000    0.0000    0.0000
Ag        2.9394   -0.0000   -6.9806    0.0000    0.0000    0.0000
Ag        5.8789   -0.0000   -6.9806    0.0000    0.0000    0.0000
Ag        8.8183   -0.0000   -6.9806    0.0000    0.0000    0.0000
Ag       11.7578   -0.0000   -6.9806    0.0000    0.0000    0.0000
Ag       -8.8183    2.9394   -6.9806    0.0000    0.0000    0.0000
Ag       -5.8789    2.9394   -6.9806    0.0000    0.0000    0.0000
Ag       -2.9394    2.9394   -6.9806    0.0000    0.0000    0.0000
Ag       -0.0000    2.9394   -6.9806    0.0000    0.0000    0.0000
Ag        2.9394    2.9394   -6.9806    0.0000    0.0000    0.0000
Ag        5.8789    2.9394   -6.9806    0.0000    0.0000    0.0000
Ag        8.8183    2.9394   -6.9806    0.0000    0.0000    0.0000
Ag       11.7578    2.9394   -6.9806    0.0000    0.0000    0.0000
Ag       -8.8183    5.8788   -6.9806    0.0000    0.0000    0.0000
Ag       -5.8789    5.8788   -6.9806    0.0000    0.0000    0.0000
Ag       -2.9394    5.8788   -6.9806    0.0000    0.0000    0.0000
Ag       -0.0000    5.8788   -6.9806    0.0000    0.0000    0.0000
Ag        2.9394    5.8788   -6.9806    0.0000    0.0000    0.0000
Ag        5.8789    5.8788   -6.9806    0.0000    0.0000    0.0000
Ag        8.8183    5.8788   -6.9806    0.0000    0.0000    0.0000
Ag       11.7578    5.8788   -6.9806    0.0000    0.0000    0.0000
Ag       -8.8183    8.8183   -6.9806    0.0000    0.0000    0.0000
Ag       -5.8789    8.8183   -6.9806    0.0000    0.0000    0.0000
Ag       -2.9394    8.8183   -6.9806    0.0000    0.0000    0.0000
Ag       -0.0000    8.8183   -6.9806    0.0000    0.0000    0.0000
Ag        2.9394    8.8183   -6.9806    0.0000    0.0000    0.0000
Ag        5.8789    8.8183   -6.9806    0.0000    0.0000    0.0000
Ag        8.8183    8.8183   -6.9806    0.0000    0.0000    0.0000
Ag       11.7578    8.8183   -6.9806    0.0000    0.0000    0.0000
Ag       -7.3471  -10.2894   -4.9835    0.0000    0.0000    0.0000
Ag       -4.4100  -10.2895   -4.9836    0.0000    0.0000    0.0000
Ag       -1.4714  -10.2899   -4.9842    0.0000    0.0000    0.0000
Ag        1.4714  -10.2899   -4.9842    0.0000    0.0000    0.0000
Ag        4.4100  -10.2895   -4.9836    0.0000    0.0000    0.0000
Ag        7.3471  -10.2894   -4.9835    0.0000    0.0000    0.0000
Ag       10.2877  -10.2878   -4.9842    0.0000    0.0000    0.0000
Ag       13.2278  -10.2878   -4.9842    0.0000    0.0000    0.0000
Ag       -7.3484   -7.3484   -4.9840    0.0000    0.0000    0.0000
Ag       -4.4093   -7.3492   -4.9840    0.0000    0.0000    0.0000
Ag       -1.4710   -7.3515   -4.9850    0.0000    0.0000    0.0000
Ag        1.4710   -7.3515   -4.9850    0.0000    0.0000    0.0000
Ag        4.4093   -7.3492   -4.9840    0.0000    0.0000    0.0000
Ag        7.3484   -7.3484   -4.9840    0.0000    0.0000    0.0000
Ag       10.2893   -7.3472   -4.9836    0.0000    0.0000    0.0000
Ag       13.2262   -7.3472   -4.9836    0.0000    0.0000    0.0000
Ag       -7.3491   -4.4094   -4.9840    0.0000    0.0000    0.0000
Ag       -4.4095   -4.4096   -4.9840    0.0000    0.0000    0.0000
Ag       -1.4738   -4.4110   -4.9905    0.0000    0.0000    0.0000
Ag        1.4738   -4.4110   -4.9905    0.0000    0.0000    0.0000
Ag        4.4095   -4.4096   -4.9840    0.0000    0.0000    0.0000
Ag        7.3491   -4.4094   -4.9840    0.0000    0.0000    0.0000
Ag       10.2895   -4.4101   -4.9836    0.0000    0.0000    0.0000
Ag       13.2261   -4.4101   -4.9836    0.0000    0.0000    0.0000
Ag       -7.3515   -1.4710   -4.9850    0.0000    0.0000    0.0000
Ag       -4.4110   -1.4739   -4.9906    0.0000    0.0000    0.0000
Ag       -1.4563   -1.4565   -4.9700    0.0000    0.0000    0.0000
Ag        1.4563   -1.4565   -4.9700    0.0000    0.0000    0.0000
Ag        4.4110   -1.4739   -4.9906    0.0000    0.0000    0.0000
Ag        7.3515   -1.4710   -4.9850    0.0000    0.0000    0.0000
Ag       10.2898   -1.4714   -4.9843    0.0000    0.0000    0.0000
Ag       13.2257   -1.4714   -4.9843    0.0000    0.0000    0.0000
Ag       -7.3515    1.4709   -4.9850    0.0000    0.0000    0.0000
Ag       -4.4110    1.4738   -4.9906    0.0000    0.0000    0.0000
Ag       -1.4565    1.4563   -4.9702    0.0000    0.0000    0.0000
Ag        1.4565    1.4563   -4.9702    0.0000    0.0000    0.0000
Ag        4.4110    1.4738   -4.9906    0.0000    0.0000    0.0000
Ag        7.3515    1.4709   -4.9850    0.0000    0.0000    0.0000
Ag       10.2898    1.4713   -4.9842    0.0000    0.0000    0.0000
Ag       13.2257    1.4713   -4.9842    0.0000    0.0000    0.0000
Ag       -7.3491    4.4093   -4.9840    0.0000    0.0000    0.0000
Ag       -4.4095    4.4094   -4.9840    0.0000    0.0000    0.0000
Ag       -1.4739    4.4110   -4.9907    0.0000    0.0000    0.0000
Ag        1.4739    4.4110   -4.9907    0.0000    0.0000    0.0000
Ag        4.4095    4.4094   -4.9840    0.0000    0.0000    0.0000
Ag        7.3491    4.4093   -4.9840    0.0000    0.0000    0.0000
Ag       10.2895    4.4100   -4.9836    0.0000    0.0000    0.0000
Ag       13.2261    4.4100   -4.9836    0.0000    0.0000    0.0000
Ag       -7.3484    7.3483   -4.9840    0.0000    0.0000    0.0000
Ag       -4.4093    7.3491   -4.9840    0.0000    0.0000    0.0000
Ag       -1.4710    7.3515   -4.9850    0.0000    0.0000    0.0000
Ag        1.4710    7.3515   -4.9850    0.0000    0.0000    0.0000
Ag        4.4093    7.3491   -4.9840    0.0000    0.0000    0.0000
Ag        7.3484    7.3483   -4.9840    0.0000    0.0000    0.0000
Ag       10.2893    7.3471   -4.9836    0.0000    0.0000    0.0000
Ag       13.2262    7.3471   -4.9836    0.0000    0.0000    0.0000
Ag       -7.3471   10.2893   -4.9836    0.0000    0.0000    0.0000
Ag       -4.4100   10.2894   -4.9836    0.0000    0.0000    0.0000
Ag       -1.4714   10.2898   -4.9842    0.0000    0.0000    0.0000
Ag        1.4714   10.2898   -4.9842    0.0000    0.0000    0.0000
Ag        4.4100   10.2894   -4.9836    0.0000    0.0000    0.0000
Ag        7.3471   10.2893   -4.9836    0.0000    0.0000    0.0000
Ag       10.2877   10.2877   -4.9842    0.0000    0.0000    0.0000
Ag       13.2278   10.2877   -4.9842    0.0000    0.0000    0.0000
Ag       -8.8160  -11.7578   -3.0097    0.0000    0.0000    0.0000
Ag       -5.8765  -11.7578   -3.0042    0.0000    0.0000    0.0000
Ag       -2.9406  -11.7579   -3.0069    0.0000    0.0000    0.0000
Ag       -0.0000  -11.7578   -3.0101    0.0000    0.0000    0.0000
Ag        2.9406  -11.7579   -3.0069    0.0000    0.0000    0.0000
Ag        5.8765  -11.7578   -3.0042    0.0000    0.0000    0.0000
Ag        8.8160  -11.7578   -3.0097    0.0000    0.0000    0.0000
Ag       11.7578  -11.7579   -3.0116    0.0000    0.0000    0.0000
Ag       -8.8178   -8.8178   -3.0122    0.0000    0.0000    0.0000
Ag       -5.8777   -8.8188   -3.0099    0.0000    0.0000    0.0000
Ag       -2.9396   -8.8187   -3.0100    0.0000    0.0000    0.0000
Ag       -0.0000   -8.8215   -3.0120    0.0000    0.0000    0.0000
Ag        2.9396   -8.8187   -3.0100    0.0000    0.0000    0.0000
Ag        5.8777   -8.8188   -3.0099    0.0000    0.0000    0.0000
Ag        8.8178   -8.8178   -3.0122    0.0000    0.0000    0.0000
Ag       11.7578   -8.8160   -3.0097    0.0000    0.0000    0.0000
Ag       -8.8188   -5.8777   -3.0098    0.0000    0.0000    0.0000
Ag       -5.8786   -5.8786   -3.0112    0.0000    0.0000    0.0000
Ag       -2.9388   -5.8768   -3.0116    0.0000    0.0000    0.0000
Ag       -0.0000   -5.8874   -3.0135    0.0000    0.0000    0.0000
Ag        2.9388   -5.8768   -3.0116    0.0000    0.0000    0.0000
Ag        5.8786   -5.8786   -3.0112    0.0000    0.0000    0.0000
Ag        8.8188   -5.8777   -3.0098    0.0000    0.0000    0.0000
Ag       11.7578   -5.8766   -3.0042    0.0000    0.0000    0.0000
Ag       -8.8186   -2.9396   -3.0100    0.0000    0.0000    0.0000
Ag       -5.8767   -2.9389   -3.0116    0.0000    0.0000    0.0000
Ag       -2.9362   -2.9362   -3.0149    0.0000    0.0000    0.0000
Ag       -0.0000   -2.9716   -3.0213    0.0000    0.0000    0.0000
Ag        2.9362   -2.9362   -3.0149    0.0000    0.0000    0.0000
Ag        5.8767   -2.9389   -3.0116    0.0000    0.0000    0.0000
Ag        8.8186   -2.9396   -3.0100    0.0000    0.0000    0.0000
Ag       11.7578   -2.9406   -3.0070    0.0000    0.0000    0.0000
Ag       -8.8215   -0.0000   -3.0120    0.0000    0.0000    0.0000
Ag       -5.8873   -0.0001   -3.0136    0.0000    0.0000    0.0000
Ag       -2.9717   -0.0003   -3.0217    0.0000    0.0000    0.0000
Ag       -0.0000   -0.0010   -2.9411    0.0000    0.0000    0.0000
Ag        2.9717   -0.0003   -3.0217    0.0000    0.0000    0.0000
Ag        5.8873   -0.0001   -3.0136    0.0000    0.0000    0.0000
Ag        8.8215   -0.0000   -3.0120    0.0000    0.0000    0.0000
Ag       11.7578   -0.0000   -3.0101    0.0000    0.0000    0.0000
Ag       -8.8186    2.9395   -3.0100    0.0000    0.0000    0.0000
Ag       -5.8767    2.9387   -3.0116    0.0000    0.0000    0.0000
Ag       -2.9360    2.9360   -3.0150    0.0000    0.0000    0.0000
Ag       -0.0000    2.9719   -3.0222    0.0000    0.0000    0.0000
Ag        2.9360    2.9360   -3.0150    0.0000    0.0000    0.0000
Ag        5.8767    2.9387   -3.0116    0.0000    0.0000    0.0000
Ag        8.8186    2.9395   -3.0100    0.0000    0.0000    0.0000
Ag       11.7578    2.9405   -3.0069    0.0000    0.0000    0.0000
Ag       -8.8188    5.8776   -3.0099    0.0000    0.0000    0.0000
Ag       -5.8786    5.8785   -3.0112    0.0000    0.0000    0.0000
Ag       -2.9388    5.8766   -3.0116    0.0000    0.0000    0.0000
Ag       -0.0000    5.8872   -3.0136    0.0000    0.0000    0.0000
Ag        2.9388    5.8766   -3.0116    0.0000    0.0000    0.0000
Ag        5.8786    5.8786   -3.0112    0.0000    0.0000    0.0000
Ag        8.8188    5.8776   -3.0099    0.0000    0.0000    0.0000
Ag       11.7578    5.8765   -3.0042    0.0000    0.0000    0.0000
Ag       -8.8178    8.8177   -3.0121    0.0000    0.0000    0.0000
Ag       -5.8777    8.8188   -3.0098    0.0000    0.0000    0.0000
Ag       -2.9396    8.8185   -3.0100    0.0000    0.0000    0.0000
Ag       -0.0000    8.8214   -3.0120    0.0000    0.0000    0.0000
Ag        2.9396    8.8185   -3.0100    0.0000    0.0000    0.0000
Ag        5.8777    8.8188   -3.0098    0.0000    0.0000    0.0000
Ag        8.8178    8.8178   -3.0121    0.0000    0.0000    0.0000
Ag       11.7578    8.8160   -3.0097    0.0000    0.0000    0.0000
   258
stable frequency at    153.827 1/cm IR int. is 12.314 a.m.u.; force const. is 0.172 mDyne/Ang.
C         0.0000    0.0372   -0.8071   -0.2739   -0.0000    0.0000
O         0.0000    0.0952    0.3403    0.0785    0.0000   -0.0000
Ag       -7.3486  -10.2881   -9.0591    0.0000    0.0000    0.0000
Ag       -4.4092  -10.2881   -9.0591    0.0000    0.0000    0.0000
Ag       -1.4697  -10.2881   -9.0591    0.0000    0.0000    0.0000
Ag        1.4697  -10.2881   -9.0591    0.0000    0.0000    0.0000
Ag        4.4092  -10.2881   -9.0591    0.0000    0.0000    0.0000
Ag        7.3486  -10.2881   -9.0591    0.0000    0.0000    0.0000
Ag       10.2880  -10.2881   -9.0591    0.0000    0.0000    0.0000
Ag       13.2275  -10.2881   -9.0591    0.0000    0.0000    0.0000
Ag       -7.3486   -7.3486   -9.0591    0.0000    0.0000    0.0000
Ag       -4.4092   -7.3486   -9.0591    0.0000    0.0000    0.0000
Ag       -1.4697   -7.3486   -9.0591    0.0000    0.0000    0.0000
Ag        1.4697   -7.3486   -9.0591    0.0000    0.0000    0.0000
Ag        4.4092   -7.3486   -9.0591    0.0000    0.0000    0.0000
Ag        7.3486   -7.3486   -9.0591    0.0000    0.0000    0.0000
Ag       10.2880   -7.3486   -9.0591    0.0000    0.0000    0.0000
Ag       13.2275   -7.3486   -9.0591    0.0000    0.0000    0.0000
Ag       -7.3486   -4.4092   -9.0591    0.0000    0.0000    0.0000
Ag       -4.4092   -4.4092   -9.0591    0.0000    0.0000    0.0000
Ag       -1.4697   -4.4092   -9.0591    0.0000    0.0000    0.0000
Ag        1.4697   -4.4092   -9.0591    0.0000    0.0000    0.0000
Ag        4.4092   -4.4092   -9.0591    0.0000    0.0000    0.0000
Ag        7.3486   -4.4092   -9.0591    0.0000    0.0000    0.0000
Ag       10.2880   -4.4092   -9.0591    0.0000    0.0000    0.0000
Ag       13.2275   -4.4092   -9.0591    0.0000    0.0000    0.0000
Ag       -7.3486   -1.4698   -9.0591    0.0000    0.0000    0.0000
Ag       -4.4092   -1.4698   -9.0591    0.0000    0.0000    0.0000
Ag       -1.4697   -1.4698   -9.0591    0.0000    0.0000    0.0000
Ag        1.4697   -1.4698   -9.0591    0.0000    0.0000    0.0000
Ag        4.4092   -1.4698   -9.0591    0.0000    0.0000    0.0000
Ag        7.3486   -1.4698   -9.0591    0.0000    0.0000    0.0000
Ag       10.2880   -1.4698   -9.0591    0.0000    0.0000    0.0000
Ag       13.2275   -1.4698   -9.0591    0.0000    0.0000    0.0000
Ag       -7.3486    1.4697   -9.0591    0.0000    0.0000    0.0000
Ag       -4.4092    1.4697   -9.0591    0.0000    0.0000    0.0000
Ag       -1.4697    1.4697   -9.0591    0.0000    0.0000    0.0000
Ag        1.4697    1.4697   -9.0591    0.0000    0.0000    0.0000
Ag        4.4092    1.4697   -9.0591    0.0000    0.0000    0.0000
Ag        7.3486    1.4697   -9.0591    0.0000    0.0000    0.0000
Ag       10.2880    1.4697   -9.0591    0.0000    0.0000    0.0000
Ag       13.2275    1.4697   -9.0591    0.0000    0.0000    0.0000
Ag       -7.3486    4.4091   -9.0591    0.0000    0.0000    0.0000
Ag       -4.4092    4.4091   -9.0591    0.0000    0.0000    0.0000
Ag       -1.4697    4.4091   -9.0591    0.0000    0.0000    0.0000
Ag        1.4697    4.4091   -9.0591    0.0000    0.0000    0.0000
Ag        4.4092    4.4091   -9.0591    0.0000    0.0000    0.0000
Ag        7.3486    4.4091   -9.0591    0.0000    0.0000    0.0000
Ag       10.2880    4.4091   -9.0591    0.0000    0.0000    0.0000
Ag       13.2275    4.4091   -9.0591    0.0000    0.0000    0.0000
Ag       -7.3486    7.3486   -9.0591    0.0000    0.0000    0.0000
Ag       -4.4092    7.3486   -9.0591    0.0000    0.0000    0.0000
Ag       -1.4697    7.3486   -9.0591    0.0000    0.0000    0.0000
Ag        1.4697    7.3486   -9.0591    0.0000    0.0000    0.0000
Ag        4.4092    7.3486   -9.0591    0.0000    0.0000    0.0000
Ag        7.3486    7.3486   -9.0591    0.0000    0.0000    0.0000
Ag       10.2880    7.3486   -9.0591    0.0000    0.0000    0.0000
Ag       13.2275    7.3486   -9.0591    0.0000    0.0000    0.0000
Ag       -7.3486   10.2880   -9.0591    0.0000    0.0000    0.0000
Ag       -4.4092   10.2880   -9.0591    0.0000    0.0000    0.0000
Ag       -1.4697   10.2880   -9.0591    0.0000    0.0000    0.0000
Ag        1.4697   10.2880   -9.0591    0.0000    0.0000    0.0000
Ag        4.4092   10.2880   -9.0591    0.0000    0.0000    0.0000
Ag        7.3486   10.2880   -9.0591    0.0000    0.0000    0.0000
Ag       10.2880   10.2880   -9.0591    0.0000    0.0000    0.0000
Ag       13.2275   10.2880   -9.0591    0.0000    0.0000    0.0000
Ag       -8.8183  -11.7578   -6.9806    0.0000    0.0000    0.0000
Ag       -5.8789  -11.7578   -6.9806    0.0000    0.0000    0.0000
Ag       -2.9394  -11.7578   -6.9806    0.0000    0.0000    0.0000
Ag       -0.0000  -11.7578   -6.9806    0.0000    0.0000    0.0000
Ag        2.9394  -11.7578   -6.9806    0.0000    0.0000    0.0000
Ag        5.8789  -11.7578   -6.9806    0.0000    0.0000    0.0000
Ag        8.8183  -11.7578   -6.9806    0.0000    0.0000    0.0000
Ag       11.7578  -11.7578   -6.9806    0.0000    0.0000    0.0000
Ag       -8.8183   -8.8184   -6.9806    0.0000    0.0000    0.0000
Ag       -5.8789   -8.8184   -6.9806    0.0000    0.0000    0.0000
Ag       -2.9394   -8.8184   -6.9806    0.0000    0.0000    0.0000
Ag       -0.0000   -8.8184   -6.9806    0.0000    0.0000    0.0000
Ag        2.9394   -8.8184   -6.9806    0.0000    0.0000    0.0000
Ag        5.8789   -8.8184   -6.9806    0.0000    0.0000    0.0000
Ag        8.8183   -8.8184   -6.9806    0.0000    0.0000    0.0000
Ag       11.7578   -8.8184   -6.9806    0.0000    0.0000    0.0000
Ag       -8.8183   -5.8789   -6.9806    0.0000    0.0000    0.0000
Ag       -5.8789   -5.8789   -6.9806    0.0000    0.0000    0.0000
Ag       -2.9394   -5.8789   -6.9806    0.0000    0.0000    0.0000
Ag       -0.0000   -5.8789   -6.9806    0.0000    0.0000    0.0000
Ag        2.9394   -5.8789   -6.9806    0.0000    0.0000    0.0000
Ag        5.8789   -5.8789   -6.9806    0.0000    0.0000    0.0000
Ag        8.8183   -5.8789   -6.9806    0.0000    0.0000    0.0000
Ag       11.7578   -5.8789   -6.9806    0.0000    0.0000    0.0000
Ag       -8.8183   -2.9395   -6.9806    0.0000    0.0000    0.0000
Ag       -5.8789   -2.9395   -6.9806    0.0000    0.0000    0.0000
Ag       -2.9394   -2.9395   -6.9806    0.0000    0.0000    0.0000
Ag       -0.0000   -2.9395   -6.9806    0.0000    0.0000    0.0000
Ag        2.9394   -2.9395   -6.9806    0.0000    0.0000    0.0000
Ag        5.8789   -2.9395   -6.9806    0.0000    0.0000    0.0000
Ag        8.8183   -2.9395   -6.9806    0.0000    0.0000    0.0000
Ag       11.7578   -2.9395   -6.9806    0.0000    0.0000    0.0000
Ag       -8.8183   -0.0000   -6.9806    0.0000    0.0000    0.0000
Ag       -5.8789   -0.0000   -6.9806    0.0000    0.0000    0.0000
Ag       -2.9394   -0.0000   -6.9806    0.0000    0.0000    0.0000
Ag       -0.0000   -0.0000   -6.9806    0.0000    0.0000    0.0000
Ag        2.9394   -0.0000   -6.9806    0.0000    0.0000    0.0000
Ag        5.8789   -0.0000   -6.9806    0.0000    0.0000    0.0000
Ag        8.8183   -0.0000   -6.9806    0.0000    0.0000    0.0000
Ag       11.7578   -0.0000   -6.9806    0.0000    0.0000    0.0000
Ag       -8.8183    2.9394   -6.9806    0.0000    0.0000    0.0000
Ag       -5.8789    2.9394   -6.9806    0.0000    0.0000    0.0000
Ag       -2.9394    2.9394   -6.9806    0.0000    0.0000    0.0000
Ag       -0.0000    2.9394   -6.9806    0.0000    0.0000    0.0000
Ag        2.9394    2.9394   -6.9806    0.0000    0.0000    0.0000
Ag        5.8789    2.9394   -6.9806    0.0000    0.0000    0.0000
Ag        8.8183    2.9394   -6.9806    0.0000    0.0000    0.0000
Ag       11.7578    2.9394   -6.9806    0.0000    0.0000    0.0000
Ag       -8.8183    5.8788   -6.9806    0.0000    0.0000    0.0000
Ag       -5.8789    5.8788   -6.9806    0.0000    0.0000    0.0000
Ag       -2.9394    5.8788   -6.9806    0.0000    0.0000    0.0000
Ag       -0.0000    5.8788   -6.9806    0.0000    0.0000    0.0000
Ag        2.9394    5.8788   -6.9806    0.0000    0.0000    0.0000
Ag        5.8789    5.8788   -6.9806    0.0000    0.0000    0.0000
Ag        8.8183    5.8788   -6.9806    0.0000    0.0000    0.0000
Ag       11.7578    5.8788   -6.9806    0.0000    0.0000    0.0000
Ag       -8.8183    8.8183   -6.9806    0.0000    0.0000    0.0000
Ag       -5.8789    8.8183   -6.9806    0.0000    0.0000    0.0000
Ag       -2.9394    8.8183   -6.9806    0.0000    0.0000    0.0000
Ag       -0.0000    8.8183   -6.9806    0.0000    0.0000    0.0000
Ag        2.9394    8.8183   -6.9806    0.0000    0.0000    0.0000
Ag        5.8789    8.8183   -6.9806    0.0000    0.0000    0.0000
Ag        8.8183    8.8183   -6.9806    0.0000    0.0000    0.0000
Ag       11.7578    8.8183   -6.9806    0.0000    0.0000    0.0000
Ag       -7.3471  -10.2894   -4.9835    0.0000    0.0000    0.0000
Ag       -4.4100  -10.2895   -4.9836    0.0000    0.0000    0.0000
Ag       -1.4714  -10.2899   -4.9842    0.0000    0.0000    0.0000
Ag        1.4714  -10.2899   -4.9842    0.0000    0.0000    0.0000
Ag        4.4100  -10.2895   -4.9836    0.0000    0.0000    0.0000
Ag        7.3471  -10.2894   -4.9835    0.0000    0.0000    0.0000
Ag       10.2877  -10.2878   -4.9842    0.0000    0.0000    0.0000
Ag       13.2278  -10.2878   -4.9842    0.0000    0.0000    0.0000
Ag       -7.3484   -7.3484   -4.9840    0.0000    0.0000    0.0000
Ag       -4.4093   -7.3492   -4.9840    0.0000    0.0000    0.0000
Ag       -1.4710   -7.3515   -4.9850    0.0000    0.0000    0.0000
Ag        1.4710   -7.3515   -4.9850    0.0000    0.0000    0.0000
Ag        4.4093   -7.3492   -4.9840    0.0000    0.0000    0.0000
Ag        7.3484   -7.3484   -4.9840    0.0000    0.0000    0.0000
Ag       10.2893   -7.3472   -4.9836    0.0000    0.0000    0.0000
Ag       13.2262   -7.3472   -4.9836    0.0000    0.0000    0.0000
Ag       -7.3491   -4.4094   -4.9840    0.0000    0.0000    0.0000
Ag       -4.4095   -4.4096   -4.9840    0.0000    0.0000    0.0000
Ag       -1.4738   -4.4110   -4.9905    0.0000    0.0000    0.0000
Ag        1.4738   -4.4110   -4.9905    0.0000    0.0000    0.0000
Ag        4.4095   -4.4096   -4.9840    0.0000    0.0000    0.0000
Ag        7.3491   -4.4094   -4.9840    0.0000    0.0000    0.0000
Ag       10.2895   -4.4101   -4.9836    0.0000    0.0000    0.0000
Ag       13.2261   -4.4101   -4.9836    0.0000    0.0000    0.0000
Ag       -7.3515   -1.4710   -4.9850    0.0000    0.0000    0.0000
Ag       -4.4110   -1.4739   -4.9906    0.0000    0.0000    0.0000
Ag       -1.4563   -1.4565   -4.9700    0.0000    0.0000    0.0000
Ag        1.4563   -1.4565   -4.9700    0.0000    0.0000    0.0000
Ag        4.4110   -1.4739   -4.9906    0.0000    0.0000    0.0000
Ag        7.3515   -1.4710   -4.9850    0.0000    0.0000    0.0000
Ag       10.2898   -1.4714   -4.9843    0.0000    0.0000    0.0000
Ag       13.2257   -1.4714   -4.9843    0.0000    0.0000    0.0000
Ag       -7.3515    1.4709   -4.9850    0.0000    0.0000    0.0000
Ag       -4.4110    1.4738   -4.9906    0.0000    0.0000    0.0000
Ag       -1.4565    1.4563   -4.9702    0.0000    0.0000    0.0000
Ag        1.4565    1.4563   -4.9702    0.0000    0.0000    0.0000
Ag        4.4110    1.4738   -4.9906    0.0000    0.0000    0.0000
Ag        7.3515    1.4709   -4.9850    0.0000    0.0000    0.0000
Ag       10.2898    1.4713   -4.9842    0.0000    0.0000    0.0000
Ag       13.2257    1.4713   -4.9842    0.0000    0.0000    0.0000
Ag       -7.3491    4.4093   -4.9840    0.0000    0.0000    0.0000
Ag       -4.4095    4.4094   -4.9840    0.0000    0.0000    0.0000
Ag       -1.4739    4.4110   -4.9907    0.0000    0.0000    0.0000
Ag        1.4739    4.4110   -4.9907    0.0000    0.0000    0.0000
Ag        4.4095    4.4094   -4.9840    0.0000    0.0000    0.0000
Ag        7.3491    4.4093   -4.9840    0.0000    0.0000    0.0000
Ag       10.2895    4.4100   -4.9836    0.0000    0.0000    0.0000
Ag       13.2261    4.4100   -4.9836    0.0000    0.0000    0.0000
Ag       -7.3484    7.3483   -4.9840    0.0000    0.0000    0.0000
Ag       -4.4093    7.3491   -4.9840    0.0000    0.0000    0.0000
Ag       -1.4710    7.3515   -4.9850    0.0000    0.0000    0.0000
Ag        1.4710    7.3515   -4.9850    0.0000    0.0000    0.0000
Ag        4.4093    7.3491   -4.9840    0.0000    0.0000    0.0000
Ag        7.3484    7.3483   -4.9840    0.0000    0.0000    0.0000
Ag       10.2893    7.3471   -4.9836    0.0000    0.0000    0.0000
Ag       13.2262    7.3471   -4.9836    0.0000    0.0000    0.0000
Ag       -7.3471   10.2893   -4.9836    0.0000    0.0000    0.0000
Ag       -4.4100   10.2894   -4.9836    0.0000    0.0000    0.0000
Ag       -1.4714   10.2898   -4.9842    0.0000    0.0000    0.0000
Ag        1.4714   10.2898   -4.9842    0.0000    0.0000    0.0000
Ag        4.4100   10.2894   -4.9836    0.0000    0.0000    0.0000
Ag        7.3471   10.2893   -4.9836    0.0000    0.0000    0.0000
Ag       10.2877   10.2877   -4.9842    0.0000    0.0000    0.0000
Ag       13.2278   10.2877   -4.9842    0.0000    0.0000    0.0000
Ag       -8.8160  -11.7578   -3.0097    0.0000    0.0000    0.0000
Ag       -5.8765  -11.7578   -3.0042    0.0000    0.0000    0.0000
Ag       -2.9406  -11.7579   -3.0069    0.0000    0.0000    0.0000
Ag       -0.0000  -11.7578   -3.0101    0.0000    0.0000    0.0000
Ag        2.9406  -11.7579   -3.0069    0.0000    0.0000    0.0000
Ag        5.8765  -11.7578   -3.0042    0.0000    0.0000    0.0000
Ag        8.8160  -11.7578   -3.0097    0.0000    0.0000    0.0000
Ag       11.7578  -11.7579   -3.0116    0.0000    0.0000    0.0000
Ag       -8.8178   -8.8178   -3.0122    0.0000    0.0000    0.0000
Ag       -5.8777   -8.8188   -3.0099    0.0000    0.0000    0.0000
Ag       -2.9396   -8.8187   -3.0100    0.0000    0.0000    0.0000
Ag       -0.0000   -8.8215   -3.0120    0.0000    0.0000    0.0000
Ag        2.9396   -8.8187   -3.0100    0.0000    0.0000    0.0000
Ag        5.8777   -8.8188   -3.0099    0.0000    0.0000    0.0000
Ag        8.8178   -8.8178   -3.0122    0.0000    0.0000    0.0000
Ag       11.7578   -8.8160   -3.0097    0.0000    0.0000    0.0000
Ag       -8.8188   -5.8777   -3.0098    0.0000    0.0000    0.0000
Ag       -5.8786   -5.8786   -3.0112    0.0000    0.0000    0.0000
Ag       -2.9388   -5.8768   -3.0116    0.0000    0.0000    0.0000
Ag       -0.0000   -5.8874   -3.0135    0.0000    0.0000    0.0000
Ag        2.9388   -5.8768   -3.0116    0.0000    0.0000    0.0000
Ag        5.8786   -5.8786   -3.0112    0.0000    0.0000    0.0000
Ag        8.8188   -5.8777   -3.0098    0.0000    0.0000    0.0000
Ag       11.7578   -5.8766   -3.0042    0.0000    0.0000    0.0000
Ag       -8.8186   -2.9396   -3.0100    0.0000    0.0000    0.0000
Ag       -5.8767   -2.9389   -3.0116    0.0000    0.0000    0.0000
Ag       -2.9362   -2.9362   -3.0149    0.0000    0.0000    0.0000
Ag       -0.0000   -2.9716   -3.0213    0.0000    0.0000    0.0000
Ag        2.9362   -2.9362   -3.0149    0.0000    0.0000    0.0000
Ag        5.8767   -2.9389   -3.0116    0.0000    0.0000    0.0000
Ag        8.8186   -2.9396   -3.0100    0.0000    0.0000    0.0000
Ag       11.7578   -2.9406   -3.0070    0.0000    0.0000    0.0000
Ag       -8.8215   -0.0000   -3.0120    0.0000    0.0000    0.0000
Ag       -5.8873   -0.0001   -3.0136    0.0000    0.0000    0.0000
Ag       -2.9717   -0.0003   -3.0217    0.0000    0.0000    0.0000
Ag       -0.0000   -0.0010   -2.9411    0.0000    0.0000    0.0000
Ag        2.9717   -0.0003   -3.0217    0.0000    0.0000    0.0000
Ag        5.8873   -0.0001   -3.0136    0.0000    0.0000    0.0000
Ag        8.8215   -0.0000   -3.0120    0.0000    0.0000    0.0000
Ag       11.7578   -0.0000   -3.0101    0.0000    0.0000    0.0000
Ag       -8.8186    2.9395   -3.0100    0.0000    0.0000    0.0000
Ag       -5.8767    2.9387   -3.0116    0.0000    0.0000    0.0000
Ag       -2.9360    2.9360   -3.0150    0.0000    0.0000    0.0000
Ag       -0.0000    2.9719   -3.0222    0.0000    0.0000    0.0000
Ag        2.9360    2.9360   -3.0150    0.0000    0.0000    0.0000
Ag        5.8767    2.9387   -3.0116    0.0000    0.0000    0.0000
Ag        8.8186    2.9395   -3.0100    0.0000    0.0000    0.0000
Ag       11.7578    2.9405   -3.0069    0.0000    0.0000    0.0000
Ag       -8.8188    5.8776   -3.0099    0.0000    0.0000    0.0000
Ag       -5.8786    5.8785   -3.0112    0.0000    0.0000    0.0000
Ag       -2.9388    5.8766   -3.0116    0.0000    0.0000    0.0000
Ag       -0.0000    5.8872   -3.0136    0.0000    0.0000    0.0000
Ag        2.9388    5.8766   -3.0116    0.0000    0.0000    0.0000
Ag        5.8786    5.8786   -3.0112    0.0000    0.0000    0.0000
Ag        8.8188    5.8776   -3.0099    0.0000    0.0000    0.0000
Ag       11.7578    5.8765   -3.0042    0.0000    0.0000    0.0000
Ag       -8.8178    8.8177   -3.0121    0.0000    0.0000    0.0000
Ag       -5.8777    8.8188   -3.0098    0.0000    0.0000    0.0000
Ag       -2.9396    8.8185   -3.0100    0.0000    0.0000    0.0000
Ag       -0.0000    8.8214   -3.0120    0.0000    0.0000    0.0000
Ag        2.9396    8.8185   -3.0100    0.0000    0.0000    0.0000
Ag        5.8777    8.8188   -3.0098    0.0000    0.0000    0.0000
Ag        8.8178    8.8178   -3.0121    0.0000    0.0000    0.0000
Ag       11.7578    8.8160   -3.0097    0.0000    0.0000    0.0000
   258
stable frequency at    215.858 1/cm IR int. is 14.019 a.m.u.; force const. is 0.385 mDyne/Ang.
C         0.0000    0.0372   -0.8071    0.0000    0.0006   -0.1882
O         0.0000    0.0952    0.3403   -0.0000   -0.0069   -0.1894
Ag       -7.3486  -10.2881   -9.0591    0.0000    0.0000    0.0000
Ag       -4.4092  -10.2881   -9.0591    0.0000    0.0000    0.0000
Ag       -1.4697  -10.2881   -9.0591    0.0000    0.0000    0.0000
Ag        1.4697  -10.2881   -9.0591    0.0000    0.0000    0.0000
Ag        4.4092  -10.2881   -9.0591    0.0000    0.0000    0.0000
Ag        7.3486  -10.2881   -9.0591    0.0000    0.0000    0.0000
Ag       10.2880  -10.2881   -9.0591    0.0000    0.0000    0.0000
Ag       13.2275  -10.2881   -9.0591    0.0000    0.0000    0.0000
Ag       -7.3486   -7.3486   -9.0591    0.0000    0.0000    0.0000
Ag       -4.4092   -7.3486   -9.0591    0.0000    0.0000    0.0000
Ag       -1.4697   -7.3486   -9.0591    0.0000    0.0000    0.0000
Ag        1.4697   -7.3486   -9.0591    0.0000    0.0000    0.0000
Ag        4.4092   -7.3486   -9.0591    0.0000    0.0000    0.0000
Ag        7.3486   -7.3486   -9.0591    0.0000    0.0000    0.0000
Ag       10.2880   -7.3486   -9.0591    0.0000    0.0000    0.0000
Ag       13.2275   -7.3486   -9.0591    0.0000    0.0000    0.0000
Ag       -7.3486   -4.4092   -9.0591    0.0000    0.0000    0.0000
Ag       -4.4092   -4.4092   -9.0591    0.0000    0.0000    0.0000
Ag       -1.4697   -4.4092   -9.0591    0.0000    0.0000    0.0000
Ag        1.4697   -4.4092   -9.0591    0.0000    0.0000    0.0000
Ag        4.4092   -4.4092   -9.0591    0.0000    0.0000    0.0000
Ag        7.3486   -4.4092   -9.0591    0.0000    0.0000    0.0000
Ag       10.2880   -4.4092   -9.0591    0.0000    0.0000    0.0000
Ag       13.2275   -4.4092   -9.0591    0.0000    0.0000    0.0000
Ag       -7.3486   -1.4698   -9.0591    0.0000    0.0000    0.0000
Ag       -4.4092   -1.4698   -9.0591    0.0000    0.0000    0.0000
Ag       -1.4697   -1.4698   -9.0591    0.0000    0.0000    0.0000
Ag        1.4697   -1.4698   -9.0591    0.0000    0.0000    0.0000
Ag        4.4092   -1.4698   -9.0591    0.0000    0.0000    0.0000
Ag        7.3486   -1.4698   -9.0591    0.0000    0.0000    0.0000
Ag       10.2880   -1.4698   -9.0591    0.0000    0.0000    0.0000
Ag       13.2275   -1.4698   -9.0591    0.0000    0.0000    0.0000
Ag       -7.3486    1.4697   -9.0591    0.0000    0.0000    0.0000
Ag       -4.4092    1.4697   -9.0591    0.0000    0.0000    0.0000
Ag       -1.4697    1.4697   -9.0591    0.0000    0.0000    0.0000
Ag        1.4697    1.4697   -9.0591    0.0000    0.0000    0.0000
Ag        4.4092    1.4697   -9.0591    0.0000    0.0000    0.0000
Ag        7.3486    1.4697   -9.0591    0.0000    0.0000    0.0000
Ag       10.2880    1.4697   -9.0591    0.0000    0.0000    0.0000
Ag       13.2275    1.4697   -9.0591    0.0000    0.0000    0.0000
Ag       -7.3486    4.4091   -9.0591    0.0000    0.0000    0.0000
Ag       -4.4092    4.4091   -9.0591    0.0000    0.0000    0.0000
Ag       -1.4697    4.4091   -9.0591    0.0000    0.0000    0.0000
Ag        1.4697    4.4091   -9.0591    0.0000    0.0000    0.0000
Ag        4.4092    4.4091   -9.0591    0.0000    0.0000    0.0000
Ag        7.3486    4.4091   -9.0591    0.0000    0.0000    0.0000
Ag       10.2880    4.4091   -9.0591    0.0000    0.0000    0.0000
Ag       13.2275    4.4091   -9.0591    0.0000    0.0000    0.0000
Ag       -7.3486    7.3486   -9.0591    0.0000    0.0000    0.0000
Ag       -4.4092    7.3486   -9.0591    0.0000    0.0000    0.0000
Ag       -1.4697    7.3486   -9.0591    0.0000    0.0000    0.0000
Ag        1.4697    7.3486   -9.0591    0.0000    0.0000    0.0000
Ag        4.4092    7.3486   -9.0591    0.0000    0.0000    0.0000
Ag        7.3486    7.3486   -9.0591    0.0000    0.0000    0.0000
Ag       10.2880    7.3486   -9.0591    0.0000    0.0000    0.0000
Ag       13.2275    7.3486   -9.0591    0.0000    0.0000    0.0000
Ag       -7.3486   10.2880   -9.0591    0.0000    0.0000    0.0000
Ag       -4.4092   10.2880   -9.0591    0.0000    0.0000    0.0000
Ag       -1.4697   10.2880   -9.0591    0.0000    0.0000    0.0000
Ag        1.4697   10.2880   -9.0591    0.0000    0.0000    0.0000
Ag        4.4092   10.2880   -9.0591    0.0000    0.0000    0.0000
Ag        7.3486   10.2880   -9.0591    0.0000    0.0000    0.0000
Ag       10.2880   10.2880   -9.0591    0.0000    0.0000    0.0000
Ag       13.2275   10.2880   -9.0591    0.0000    0.0000    0.0000
Ag       -8.8183  -11.7578   -6.9806    0.0000    0.0000    0.0000
Ag       -5.8789  -11.7578   -6.9806    0.0000    0.0000    0.0000
Ag       -2.9394  -11.7578   -6.9806    0.0000    0.0000    0.0000
Ag       -0.0000  -11.7578   -6.9806    0.0000    0.0000    0.0000
Ag        2.9394  -11.7578   -6.9806    0.0000    0.0000    0.0000
Ag        5.8789  -11.7578   -6.9806    0.0000    0.0000    0.0000
Ag        8.8183  -11.7578   -6.9806    0.0000    0.0000    0.0000
Ag       11.7578  -11.7578   -6.9806    0.0000    0.0000    0.0000
Ag       -8.8183   -8.8184   -6.9806    0.0000    0.0000    0.0000
Ag       -5.8789   -8.8184   -6.9806    0.0000    0.0000    0.0000
Ag       -2.9394   -8.8184   -6.9806    0.0000    0.0000    0.0000
Ag       -0.0000   -8.8184   -6.9806    0.0000    0.0000    0.0000
Ag        2.9394   -8.8184   -6.9806    0.0000    0.0000    0.0000
Ag        5.8789   -8.8184   -6.9806    0.0000    0.0000    0.0000
Ag        8.8183   -8.8184   -6.9806    0.0000    0.0000    0.0000
Ag       11.7578   -8.8184   -6.9806    0.0000    0.0000    0.0000
Ag       -8.8183   -5.8789   -6.9806    0.0000    0.0000    0.0000
Ag       -5.8789   -5.8789   -6.9806    0.0000    0.0000    0.0000
Ag       -2.9394   -5.8789   -6.9806    0.0000    0.0000    0.0000
Ag       -0.0000   -5.8789   -6.9806    0.0000    0.0000    0.0000
Ag        2.9394   -5.8789   -6.9806    0.0000    0.0000    0.0000
Ag        5.8789   -5.8789   -6.9806    0.0000    0.0000    0.0000
Ag        8.8183   -5.8789   -6.9806    0.0000    0.0000    0.0000
Ag       11.7578   -5.8789   -6.9806    0.0000    0.0000    0.0000
Ag       -8.8183   -2.9395   -6.9806    0.0000    0.0000    0.0000
Ag       -5.8789   -2.9395   -6.9806    0.0000    0.0000    0.0000
Ag       -2.9394   -2.9395   -6.9806    0.0000    0.0000    0.0000
Ag       -0.0000   -2.9395   -6.9806    0.0000    0.0000    0.0000
Ag        2.9394   -2.9395   -6.9806    0.0000    0.0000    0.0000
Ag        5.8789   -2.9395   -6.9806    0.0000    0.0000    0.0000
Ag        8.8183   -2.9395   -6.9806    0.0000    0.0000    0.0000
Ag       11.7578   -2.9395   -6.9806    0.0000    0.0000    0.0000
Ag       -8.8183   -0.0000   -6.9806    0.0000    0.0000    0.0000
Ag       -5.8789   -0.0000   -6.9806    0.0000    0.0000    0.0000
Ag       -2.9394   -0.0000   -6.9806    0.0000    0.0000    0.0000
Ag       -0.0000   -0.0000   -6.9806    0.0000    0.0000    0.0000
Ag        2.9394   -0.0000   -6.9806    0.0000    0.0000    0.0000
Ag        5.8789   -0.0000   -6.9806    0.0000    0.0000    0.0000
Ag        8.8183   -0.0000   -6.9806    0.0000    0.0000    0.0000
Ag       11.7578   -0.0000   -6.9806    0.0000    0.0000    0.0000
Ag       -8.8183    2.9394   -6.9806    0.0000    0.0000    0.0000
Ag       -5.8789    2.9394   -6.9806    0.0000    0.0000    0.0000
Ag       -2.9394    2.9394   -6.9806    0.0000    0.0000    0.0000
Ag       -0.0000    2.9394   -6.9806    0.0000    0.0000    0.0000
Ag        2.9394    2.9394   -6.9806    0.0000    0.0000    0.0000
Ag        5.8789    2.9394   -6.9806    0.0000    0.0000    0.0000
Ag        8.8183    2.9394   -6.9806    0.0000    0.0000    0.0000
Ag       11.7578    2.9394   -6.9806    0.0000    0.0000    0.0000
Ag       -8.8183    5.8788   -6.9806    0.0000    0.0000    0.0000
Ag       -5.8789    5.8788   -6.9806    0.0000    0.0000    0.0000
Ag       -2.9394    5.8788   -6.9806    0.0000    0.0000    0.0000
Ag       -0.0000    5.8788   -6.9806    0.0000    0.0000    0.0000
Ag        2.9394    5.8788   -6.9806    0.0000    0.0000    0.0000
Ag        5.8789    5.8788   -6.9806    0.0000    0.0000    0.0000
Ag        8.8183    5.8788   -6.9806    0.0000    0.0000    0.0000
Ag       11.7578    5.8788   -6.9806    0.0000    0.0000    0.0000
Ag       -8.8183    8.8183   -6.9806    0.0000    0.0000    0.0000
Ag       -5.8789    8.8183   -6.9806    0.0000    0.0000    0.0000
Ag       -2.9394    8.8183   -6.9806    0.0000    0.0000    0.0000
Ag       -0.0000    8.8183   -6.9806    0.0000    0.0000    0.0000
Ag        2.9394    8.8183   -6.9806    0.0000    0.0000    0.0000
Ag        5.8789    8.8183   -6.9806    0.0000    0.0000    0.0000
Ag        8.8183    8.8183   -6.9806    0.0000    0.0000    0.0000
Ag       11.7578    8.8183   -6.9806    0.0000    0.0000    0.0000
Ag       -7.3471  -10.2894   -4.9835    0.0000    0.0000    0.0000
Ag       -4.4100  -10.2895   -4.9836    0.0000    0.0000    0.0000
Ag       -1.4714  -10.2899   -4.9842    0.0000    0.0000    0.0000
Ag        1.4714  -10.2899   -4.9842    0.0000    0.0000    0.0000
Ag        4.4100  -10.2895   -4.9836    0.0000    0.0000    0.0000
Ag        7.3471  -10.2894   -4.9835    0.0000    0.0000    0.0000
Ag       10.2877  -10.2878   -4.9842    0.0000    0.0000    0.0000
Ag       13.2278  -10.2878   -4.9842    0.0000    0.0000    0.0000
Ag       -7.3484   -7.3484   -4.9840    0.0000    0.0000    0.0000
Ag       -4.4093   -7.3492   -4.9840    0.0000    0.0000    0.0000
Ag       -1.4710   -7.3515   -4.9850    0.0000    0.0000    0.0000
Ag        1.4710   -7.3515   -4.9850    0.0000    0.0000    0.0000
Ag        4.4093   -7.3492   -4.9840    0.0000    0.0000    0.0000
Ag        7.3484   -7.3484   -4.9840    0.0000    0.0000    0.0000
Ag       10.2893   -7.3472   -4.9836    0.0000    0.0000    0.0000
Ag       13.2262   -7.3472   -4.9836    0.0000    0.0000    0.0000
Ag       -7.3491   -4.4094   -4.9840    0.0000    0.0000    0.0000
Ag       -4.4095   -4.4096   -4.9840    0.0000    0.0000    0.0000
Ag       -1.4738   -4.4110   -4.9905    0.0000    0.0000    0.0000
Ag        1.4738   -4.4110   -4.9905    0.0000    0.0000    0.0000
Ag        4.4095   -4.4096   -4.9840    0.0000    0.0000    0.0000
Ag        7.3491   -4.4094   -4.9840    0.0000    0.0000    0.0000
Ag       10.2895   -4.4101   -4.9836    0.0000    0.0000    0.0000
Ag       13.2261   -4.4101   -4.9836    0.0000    0.0000    0.0000
Ag       -7.3515   -1.4710   -4.9850    0.0000    0.0000    0.0000
Ag       -4.4110   -1.4739   -4.9906    0.0000    0.0000    0.0000
Ag       -1.4563   -1.4565   -4.9700    0.0000    0.0000    0.0000
Ag        1.4563   -1.4565   -4.9700    0.0000    0.0000    0.0000
Ag        4.4110   -1.4739   -4.9906    0.0000    0.0000    0.0000
Ag        7.3515   -1.4710   -4.9850    0.0000    0.0000    0.0000
Ag       10.2898   -1.4714   -4.9843    0.0000    0.0000    0.0000
Ag       13.2257   -1.4714   -4.9843    0.0000    0.0000    0.0000
Ag       -7.3515    1.4709   -4.9850    0.0000    0.0000    0.0000
Ag       -4.4110    1.4738   -4.9906    0.0000    0.0000    0.0000
Ag       -1.4565    1.4563   -4.9702    0.0000    0.0000    0.0000
Ag        1.4565    1.4563   -4.9702    0.0000    0.0000    0.0000
Ag        4.4110    1.4738   -4.9906    0.0000    0.0000    0.0000
Ag        7.3515    1.4709   -4.9850    0.0000    0.0000    0.0000
Ag       10.2898    1.4713   -4.9842    0.0000    0.0000    0.0000
Ag       13.2257    1.4713   -4.9842    0.0000    0.0000    0.0000
Ag       -7.3491    4.4093   -4.9840    0.0000    0.0000    0.0000
Ag       -4.4095    4.4094   -4.9840    0.0000    0.0000    0.0000
Ag       -1.4739    4.4110   -4.9907    0.0000    0.0000    0.0000
Ag        1.4739    4.4110   -4.9907    0.0000    0.0000    0.0000
Ag        4.4095    4.4094   -4.9840    0.0000    0.0000    0.0000
Ag        7.3491    4.4093   -4.9840    0.0000    0.0000    0.0000
Ag       10.2895    4.4100   -4.9836    0.0000    0.0000    0.0000
Ag       13.2261    4.4100   -4.9836    0.0000    0.0000    0.0000
Ag       -7.3484    7.3483   -4.9840    0.0000    0.0000    0.0000
Ag       -4.4093    7.3491   -4.9840    0.0000    0.0000    0.0000
Ag       -1.4710    7.3515   -4.9850    0.0000    0.0000    0.0000
Ag        1.4710    7.3515   -4.9850    0.0000    0.0000    0.0000
Ag        4.4093    7.3491   -4.9840    0.0000    0.0000    0.0000
Ag        7.3484    7.3483   -4.9840    0.0000    0.0000    0.0000
Ag       10.2893    7.3471   -4.9836    0.0000    0.0000    0.0000
Ag       13.2262    7.3471   -4.9836    0.0000    0.0000    0.0000
Ag       -7.3471   10.2893   -4.9836    0.0000    0.0000    0.0000
Ag       -4.4100   10.2894   -4.9836    0.0000    0.0000    0.0000
Ag       -1.4714   10.2898   -4.9842    0.0000    0.0000    0.0000
Ag        1.4714   10.2898   -4.9842    0.0000    0.0000    0.0000
Ag        4.4100   10.2894   -4.9836    0.0000    0.0000    0.0000
Ag        7.3471   10.2893   -4.9836    0.0000    0.0000    0.0000
Ag       10.2877   10.2877   -4.9842    0.0000    0.0000    0.0000
Ag       13.2278   10.2877   -4.9842    0.0000    0.0000    0.0000
Ag       -8.8160  -11.7578   -3.0097    0.0000    0.0000    0.0000
Ag       -5.8765  -11.7578   -3.0042    0.0000    0.0000    0.0000
Ag       -2.9406  -11.7579   -3.0069    0.0000    0.0000    0.0000
Ag       -0.0000  -11.7578   -3.0101    0.0000    0.0000    0.0000
Ag        2.9406  -11.7579   -3.0069    0.0000    0.0000    0.0000
Ag        5.8765  -11.7578   -3.0042    0.0000    0.0000    0.0000
Ag        8.8160  -11.7578   -3.0097    0.0000    0.0000    0.0000
Ag       11.7578  -11.7579   -3.0116    0.0000    0.0000    0.0000
Ag       -8.8178   -8.8178   -3.0122    0.0000    0.0000    0.0000
Ag       -5.8777   -8.8188   -3.0099    0.0000    0.0000    0.0000
Ag       -2.9396   -8.8187   -3.0100    0.0000    0.0000    0.0000
Ag       -0.0000   -8.8215   -3.0120    0.0000    0.0000    0.0000
Ag        2.9396   -8.8187   -3.0100    0.0000    0.0000    0.0000
Ag        5.8777   -8.8188   -3.0099    0.0000    0.0000    0.0000
Ag        8.8178   -8.8178   -3.0122    0.0000    0.0000    0.0000
Ag       11.7578   -8.8160   -3.0097    0.0000    0.0000    0.0000
Ag       -8.8188   -5.8777   -3.0098    0.0000    0.0000    0.0000
Ag       -5.8786   -5.8786   -3.0112    0.0000    0.0000    0.0000
Ag       -2.9388   -5.8768   -3.0116    0.0000    0.0000    0.0000
Ag       -0.0000   -5.8874   -3.0135    0.0000    0.0000    0.0000
Ag        2.9388   -5.8768   -3.0116    0.0000    0.0000    0.0000
Ag        5.8786   -5.8786   -3.0112    0.0000    0.0000    0.0000
Ag        8.8188   -5.8777   -3.0098    0.0000    0.0000    0.0000
Ag       11.7578   -5.8766   -3.0042    0.0000    0.0000    0.0000
Ag       -8.8186   -2.9396   -3.0100    0.0000    0.0000    0.0000
Ag       -5.8767   -2.9389   -3.0116    0.0000    0.0000    0.0000
Ag       -2.9362   -2.9362   -3.0149    0.0000    0.0000    0.0000
Ag       -0.0000   -2.9716   -3.0213    0.0000    0.0000    0.0000
Ag        2.9362   -2.9362   -3.0149    0.0000    0.0000    0.0000
Ag        5.8767   -2.9389   -3.0116    0.0000    0.0000    0.0000
Ag        8.8186   -2.9396   -3.0100    0.0000    0.0000    0.0000
Ag       11.7578   -2.9406   -3.0070    0.0000    0.0000    0.0000
Ag       -8.8215   -0.0000   -3.0120    0.0000    0.0000    0.0000
Ag       -5.8873   -0.0001   -3.0136    0.0000    0.0000    0.0000
Ag       -2.9717   -0.0003   -3.0217    0.0000    0.0000    0.0000
Ag       -0.0000   -0.0010   -2.9411    0.0000    0.0000    0.0000
Ag        2.9717   -0.0003   -3.0217    0.0000    0.0000    0.0000
Ag        5.8873   -0.0001   -3.0136    0.0000    0.0000    0.0000
Ag        8.8215   -0.0000   -3.0120    0.0000    0.0000    0.0000
Ag       11.7578   -0.0000   -3.0101    0.0000    0.0000    0.0000
Ag       -8.8186    2.9395   -3.0100    0.0000    0.0000    0.0000
Ag       -5.8767    2.9387   -3.0116    0.0000    0.0000    0.0000
Ag       -2.9360    2.9360   -3.0150    0.0000    0.0000    0.0000
Ag       -0.0000    2.9719   -3.0222    0.0000    0.0000    0.0000
Ag        2.9360    2.9360   -3.0150    0.0000    0.0000    0.0000
Ag        5.8767    2.9387   -3.0116    0.0000    0.0000    0.0000
Ag        8.8186    2.9395   -3.0100    0.0000    0.0000    0.0000
Ag       11.7578    2.9405   -3.0069    0.0000    0.0000    0.0000
Ag       -8.8188    5.8776   -3.0099    0.0000    0.0000    0.0000
Ag       -5.8786    5.8785   -3.0112    0.0000    0.0000    0.0000
Ag       -2.9388    5.8766   -3.0116    0.0000    0.0000    0.0000
Ag       -0.0000    5.8872   -3.0136    0.0000    0.0000    0.0000
Ag        2.9388    5.8766   -3.0116    0.0000    0.0000    0.0000
Ag        5.8786    5.8786   -3.0112    0.0000    0.0000    0.0000
Ag        8.8188    5.8776   -3.0099    0.0000    0.0000    0.0000
Ag       11.7578    5.8765   -3.0042    0.0000    0.0000    0.0000
Ag       -8.8178    8.8177   -3.0121    0.0000    0.0000    0.0000
Ag       -5.8777    8.8188   -3.0098    0.0000    0.0000    0.0000
Ag       -2.9396    8.8185   -3.0100    0.0000    0.0000    0.0000
Ag       -0.0000    8.8214   -3.0120    0.0000    0.0000    0.0000
Ag        2.9396    8.8185   -3.0100    0.0000    0.0000    0.0000
Ag        5.8777    8.8188   -3.0098    0.0000    0.0000    0.0000
Ag        8.8178    8.8178   -3.0121    0.0000    0.0000    0.0000
Ag       11.7578    8.8160   -3.0097    0.0000    0.0000    0.0000
   258
stable frequency at   2030.438 1/cm IR int. is 13.433 a.m.u.; force const. is 32.630 mDyne/Ang.
C         0.0000    0.0372   -0.8071   -0.0000   -0.0110   -0.2186
O         0.0000    0.0952    0.3403    0.0000    0.0082    0.1627
Ag       -7.3486  -10.2881   -9.0591    0.0000    0.0000    0.0000
Ag       -4.4092  -10.2881   -9.0591    0.0000    0.0000    0.0000
Ag       -1.4697  -10.2881   -9.0591    0.0000    0.0000    0.0000
Ag        1.4697  -10.2881   -9.0591    0.0000    0.0000    0.0000
Ag        4.4092  -10.2881   -9.0591    0.0000    0.0000    0.0000
Ag        7.3486  -10.2881   -9.0591    0.0000    0.0000    0.0000
Ag       10.2880  -10.2881   -9.0591    0.0000    0.0000    0.0000
Ag       13.2275  -10.2881   -9.0591    0.0000    0.0000    0.0000
Ag       -7.3486   -7.3486   -9.0591    0.0000    0.0000    0.0000
Ag       -4.4092   -7.3486   -9.0591    0.0000    0.0000    0.0000
Ag       -1.4697   -7.3486   -9.0591    0.0000    0.0000    0.0000
Ag        1.4697   -7.3486   -9.0591    0.0000    0.0000    0.0000
Ag        4.4092   -7.3486   -9.0591    0.0000    0.0000    0.0000
Ag        7.3486   -7.3486   -9.0591    0.0000    0.0000    0.0000
Ag       10.2880   -7.3486   -9.0591    0.0000    0.0000    0.0000
Ag       13.2275   -7.3486   -9.0591    0.0000    0.0000    0.0000
Ag       -7.3486   -4.4092   -9.0591    0.0000    0.0000    0.0000
Ag       -4.4092   -4.4092   -9.0591    0.0000    0.0000    0.0000
Ag       -1.4697   -4.4092   -9.0591    0.0000    0.0000    0.0000
Ag        1.4697   -4.4092   -9.0591    0.0000    0.0000    0.0000
Ag        4.4092   -4.4092   -9.0591    0.0000    0.0000    0.0000
Ag        7.3486   -4.4092   -9.0591    0.0000    0.0000    0.0000
Ag       10.2880   -4.4092   -9.0591    0.0000    0.0000    0.0000
Ag       13.2275   -4.4092   -9.0591    0.0000    0.0000    0.0000
Ag       -7.3486   -1.4698   -9.0591    0.0000    0.0000    0.0000
Ag       -4.4092   -1.4698   -9.0591    0.0000    0.0000    0.0000
Ag       -1.4697   -1.4698   -9.0591    0.0000    0.0000    0.0000
Ag        1.4697   -1.4698   -9.0591    0.0000    0.0000    0.0000
Ag        4.4092   -1.4698   -9.0591    0.0000    0.0000    0.0000
Ag        7.3486   -1.4698   -9.0591    0.0000    0.0000    0.0000
Ag       10.2880   -1.4698   -9.0591    0.0000    0.0000    0.0000
Ag       13.2275   -1.4698   -9.0591    0.0000    0.0000    0.0000
Ag       -7.3486    1.4697   -9.0591    0.0000    0.0000    0.0000
Ag       -4.4092    1.4697   -9.0591    0.0000    0.0000    0.0000
Ag       -1.4697    1.4697   -9.0591    0.0000    0.0000    0.0000
Ag        1.4697    1.4697   -9.0591    0.0000    0.0000    0.0000
Ag        4.4092    1.4697   -9.0591    0.0000    0.0000    0.0000
Ag        7.3486    1.4697   -9.0591    0.0000    0.0000    0.0000
Ag       10.2880    1.4697   -9.0591    0.0000    0.0000    0.0000
Ag       13.2275    1.4697   -9.0591    0.0000    0.0000    0.0000
Ag       -7.3486    4.4091   -9.0591    0.0000    0.0000    0.0000
Ag       -4.4092    4.4091   -9.0591    0.0000    0.0000    0.0000
Ag       -1.4697    4.4091   -9.0591    0.0000    0.0000    0.0000
Ag        1.4697    4.4091   -9.0591    0.0000    0.0000    0.0000
Ag        4.4092    4.4091   -9.0591    0.0000    0.0000    0.0000
Ag        7.3486    4.4091   -9.0591    0.0000    0.0000    0.0000
Ag       10.2880    4.4091   -9.0591    0.0000    0.0000    0.0000
Ag       13.2275    4.4091   -9.0591    0.0000    0.0000    0.0000
Ag       -7.3486    7.3486   -9.0591    0.0000    0.0000    0.0000
Ag       -4.4092    7.3486   -9.0591    0.0000    0.0000    0.0000
Ag       -1.4697    7.3486   -9.0591    0.0000    0.0000    0.0000
Ag        1.4697    7.3486   -9.0591    0.0000    0.0000    0.0000
Ag        4.4092    7.3486   -9.0591    0.0000    0.0000    0.0000
Ag        7.3486    7.3486   -9.0591    0.0000    0.0000    0.0000
Ag       10.2880    7.3486   -9.0591    0.0000    0.0000    0.0000
Ag       13.2275    7.3486   -9.0591    0.0000    0.0000    0.0000
Ag       -7.3486   10.2880   -9.0591    0.0000    0.0000    0.0000
Ag       -4.4092   10.2880   -9.0591    0.0000    0.0000    0.0000
Ag       -1.4697   10.2880   -9.0591    0.0000    0.0000    0.0000
Ag        1.4697   10.2880   -9.0591    0.0000    0.0000    0.0000
Ag        4.4092   10.2880   -9.0591    0.0000    0.0000    0.0000
Ag        7.3486   10.2880   -9.0591    0.0000    0.0000    0.0000
Ag       10.2880   10.2880   -9.0591    0.0000    0.0000    0.0000
Ag       13.2275   10.2880   -9.0591    0.0000    0.0000    0.0000
Ag       -8.8183  -11.7578   -6.9806    0.0000    0.0000    0.0000
Ag       -5.8789  -11.7578   -6.9806    0.0000    0.0000    0.0000
Ag       -2.9394  -11.7578   -6.9806    0.0000    0.0000    0.0000
Ag       -0.0000  -11.7578   -6.9806    0.0000    0.0000    0.0000
Ag        2.9394  -11.7578   -6.9806    0.0000    0.0000    0.0000
Ag        5.8789  -11.7578   -6.9806    0.0000    0.0000    0.0000
Ag        8.8183  -11.7578   -6.9806    0.0000    0.0000    0.0000
Ag       11.7578  -11.7578   -6.9806    0.0000    0.0000    0.0000
Ag       -8.8183   -8.8184   -6.9806    0.0000    0.0000    0.0000
Ag       -5.8789   -8.8184   -6.9806    0.0000    0.0000    0.0000
Ag       -2.9394   -8.8184   -6.9806    0.0000    0.0000    0.0000
Ag       -0.0000   -8.8184   -6.9806    0.0000    0.0000    0.0000
Ag        2.9394   -8.8184   -6.9806    0.0000    0.0000    0.0000
Ag        5.8789   -8.8184   -6.9806    0.0000    0.0000    0.0000
Ag        8.8183   -8.8184   -6.9806    0.0000    0.0000    0.0000
Ag       11.7578   -8.8184   -6.9806    0.0000    0.0000    0.0000
Ag       -8.8183   -5.8789   -6.9806    0.0000    0.0000    0.0000
Ag       -5.8789   -5.8789   -6.9806    0.0000    0.0000    0.0000
Ag       -2.9394   -5.8789   -6.9806    0.0000    0.0000    0.0000
Ag       -0.0000   -5.8789   -6.9806    0.0000    0.0000    0.0000
Ag        2.9394   -5.8789   -6.9806    0.0000    0.0000    0.0000
Ag        5.8789   -5.8789   -6.9806    0.0000    0.0000    0.0000
Ag        8.8183   -5.8789   -6.9806    0.0000    0.0000    0.0000
Ag       11.7578   -5.8789   -6.9806    0.0000    0.0000    0.0000
Ag       -8.8183   -2.9395   -6.9806    0.0000    0.0000    0.0000
Ag       -5.8789   -2.9395   -6.9806    0.0000    0.0000    0.0000
Ag       -2.9394   -2.9395   -6.9806    0.0000    0.0000    0.0000
Ag       -0.0000   -2.9395   -6.9806    0.0000    0.0000    0.0000
Ag        2.9394   -2.9395   -6.9806    0.0000    0.0000    0.0000
Ag        5.8789   -2.9395   -6.9806    0.0000    0.0000    0.0000
Ag        8.8183   -2.9395   -6.9806    0.0000    0.0000    0.0000
Ag       11.7578   -2.9395   -6.9806    0.0000    0.0000    0.0000
Ag       -8.8183   -0.0000   -6.9806    0.0000    0.0000    0.0000
Ag       -5.8789   -0.0000   -6.9806    0.0000    0.0000    0.0000
Ag       -2.9394   -0.0000   -6.9806    0.0000    0.0000    0.0000
Ag       -0.0000   -0.0000   -6.9806    0.0000    0.0000    0.0000
Ag        2.9394   -0.0000   -6.9806    0.0000    0.0000    0.0000
Ag        5.8789   -0.0000   -6.9806    0.0000    0.0000    0.0000
Ag        8.8183   -0.0000   -6.9806    0.0000    0.0000    0.0000
Ag       11.7578   -0.0000   -6.9806    0.0000    0.0000    0.0000
Ag       -8.8183    2.9394   -6.9806    0.0000    0.0000    0.0000
Ag       -5.8789    2.9394   -6.9806    0.0000    0.0000    0.0000
Ag       -2.9394    2.9394   -6.9806    0.0000    0.0000    0.0000
Ag       -0.0000    2.9394   -6.9806    0.0000    0.0000    0.0000
Ag        2.9394    2.9394   -6.9806    0.0000    0.0000    0.0000
Ag        5.8789    2.9394   -6.9806    0.0000    0.0000    0.0000
Ag        8.8183    2.9394   -6.9806    0.0000    0.0000    0.0000
Ag       11.7578    2.9394   -6.9806    0.0000    0.0000    0.0000
Ag       -8.8183    5.8788   -6.9806    0.0000    0.0000    0.0000
Ag       -5.8789    5.8788   -6.9806    0.0000    0.0000    0.0000
Ag       -2.9394    5.8788   -6.9806    0.0000    0.0000    0.0000
Ag       -0.0000    5.8788   -6.9806    0.0000    0.0000    0.0000
Ag        2.9394    5.8788   -6.9806    0.0000    0.0000    0.0000
Ag        5.8789    5.8788   -6.9806    0.0000    0.0000    0.0000
Ag        8.8183    5.8788   -6.9806    0.0000    0.0000    0.0000
Ag       11.7578    5.8788   -6.9806    0.0000    0.0000    0.0000
Ag       -8.8183    8.8183   -6.9806    0.0000    0.0000    0.0000
Ag       -5.8789    8.8183   -6.9806    0.0000    0.0000    0.0000
Ag       -2.9394    8.8183   -6.9806    0.0000    0.0000    0.0000
Ag       -0.0000    8.8183   -6.9806    0.0000    0.0000    0.0000
Ag        2.9394    8.8183   -6.9806    0.0000    0.0000    0.0000
Ag        5.8789    8.8183   -6.9806    0.0000    0.0000    0.0000
Ag        8.8183    8.8183   -6.9806    0.0000    0.0000    0.0000
Ag       11.7578    8.8183   -6.9806    0.0000    0.0000    0.0000
Ag       -7.3471  -10.2894   -4.9835    0.0000    0.0000    0.0000
Ag       -4.4100  -10.2895   -4.9836    0.0000    0.0000    0.0000
Ag       -1.4714  -10.2899   -4.9842    0.0000    0.0000    0.0000
Ag        1.4714  -10.2899   -4.9842    0.0000    0.0000    0.0000
Ag        4.4100  -10.2895   -4.9836    0.0000    0.0000    0.0000
Ag        7.3471  -10.2894   -4.9835    0.0000    0.0000    0.0000
Ag       10.2877  -10.2878   -4.9842    0.0000    0.0000    0.0000
Ag       13.2278  -10.2878   -4.9842    0.0000    0.0000    0.0000
Ag       -7.3484   -7.3484   -4.9840    0.0000    0.0000    0.0000
Ag       -4.4093   -7.3492   -4.9840    0.0000    0.0000    0.0000
Ag       -1.4710   -7.3515   -4.9850    0.0000    0.0000    0.0000
Ag        1.4710   -7.3515   -4.9850    0.0000    0.0000    0.0000
Ag        4.4093   -7.3492   -4.9840    0.0000    0.0000    0.0000
Ag        7.3484   -7.3484   -4.9840    0.0000    0.0000    0.0000
Ag       10.2893   -7.3472   -4.9836    0.0000    0.0000    0.0000
Ag       13.2262   -7.3472   -4.9836    0.0000    0.0000    0.0000
Ag       -7.3491   -4.4094   -4.9840    0.0000    0.0000    0.0000
Ag       -4.4095   -4.4096   -4.9840    0.0000    0.0000    0.0000
Ag       -1.4738   -4.4110   -4.9905    0.0000    0.0000    0.0000
Ag        1.4738   -4.4110   -4.9905    0.0000    0.0000    0.0000
Ag        4.4095   -4.4096   -4.9840    0.0000    0.0000    0.0000
Ag        7.3491   -4.4094   -4.9840    0.0000    0.0000    0.0000
Ag       10.2895   -4.4101   -4.9836    0.0000    0.0000    0.0000
Ag       13.2261   -4.4101   -4.9836    0.0000    0.0000    0.0000
Ag       -7.3515   -1.4710   -4.9850    0.0000    0.0000    0.0000
Ag       -4.4110   -1.4739   -4.9906    0.0000    0.0000    0.0000
Ag       -1.4563   -1.4565   -4.9700    0.0000    0.0000    0.0000
Ag        1.4563   -1.4565   -4.9700    0.0000    0.0000    0.0000
Ag        4.4110   -1.4739   -4.9906    0.0000    0.0000    0.0000
Ag        7.3515   -1.4710   -4.9850    0.0000    0.0000    0.0000
Ag       10.2898   -1.4714   -4.9843    0.0000    0.0000    0.0000
Ag       13.2257   -1.4714   -4.9843    0.0000    0.0000    0.0000
Ag       -7.3515    1.4709   -4.9850    0.0000    0.0000    0.0000
Ag       -4.4110    1.4738   -4.9906    0.0000    0.0000    0.0000
Ag       -1.4565    1.4563   -4.9702    0.0000    0.0000    0.0000
Ag        1.4565    1.4563   -4.9702    0.0000    0.0000    0.0000
Ag        4.4110    1.4738   -4.9906    0.0000    0.0000    0.0000
Ag        7.3515    1.4709   -4.9850    0.0000    0.0000    0.0000
Ag       10.2898    1.4713   -4.9842    0.0000    0.0000    0.0000
Ag       13.2257    1.4713   -4.9842    0.0000    0.0000    0.0000
Ag       -7.3491    4.4093   -4.9840    0.0000    0.0000    0.0000
Ag       -4.4095    4.4094   -4.9840    0.0000    0.0000    0.0000
Ag       -1.4739    4.4110   -4.9907    0.0000    0.0000    0.0000
Ag        1.4739    4.4110   -4.9907    0.0000    0.0000    0.0000
Ag        4.4095    4.4094   -4.9840    0.0000    0.0000    0.0000
Ag        7.3491    4.4093   -4.9840    0.0000    0.0000    0.0000
Ag       10.2895    4.4100   -4.9836    0.0000    0.0000    0.0000
Ag       13.2261    4.4100   -4.9836    0.0000    0.0000    0.0000
Ag       -7.3484    7.3483   -4.9840    0.0000    0.0000    0.0000
Ag       -4.4093    7.3491   -4.9840    0.0000    0.0000    0.0000
Ag       -1.4710    7.3515   -4.9850    0.0000    0.0000    0.0000
Ag        1.4710    7.3515   -4.9850    0.0000    0.0000    0.0000
Ag        4.4093    7.3491   -4.9840    0.0000    0.0000    0.0000
Ag        7.3484    7.3483   -4.9840    0.0000    0.0000    0.0000
Ag       10.2893    7.3471   -4.9836    0.0000    0.0000    0.0000
Ag       13.2262    7.3471   -4.9836    0.0000    0.0000    0.0000
Ag       -7.3471   10.2893   -4.9836    0.0000    0.0000    0.0000
Ag       -4.4100   10.2894   -4.9836    0.0000    0.0000    0.0000
Ag       -1.4714   10.2898   -4.9842    0.0000    0.0000    0.0000
Ag        1.4714   10.2898   -4.9842    0.0000    0.0000    0.0000
Ag        4.4100   10.2894   -4.9836    0.0000    0.0000    0.0000
Ag        7.3471   10.2893   -4.9836    0.0000    0.0000    0.0000
Ag       10.2877   10.2877   -4.9842    0.0000    0.0000    0.0000
Ag       13.2278   10.2877   -4.9842    0.0000    0.0000    0.0000
Ag       -8.8160  -11.7578   -3.0097    0.0000    0.0000    0.0000
Ag       -5.8765  -11.7578   -3.0042    0.0000    0.0000    0.0000
Ag       -2.9406  -11.7579   -3.0069    0.0000    0.0000    0.0000
Ag       -0.0000  -11.7578   -3.0101    0.0000    0.0000    0.0000
Ag        2.9406  -11.7579   -3.0069    0.0000    0.0000    0.0000
Ag        5.8765  -11.7578   -3.0042    0.0000    0.0000    0.0000
Ag        8.8160  -11.7578   -3.0097    0.0000    0.0000    0.0000
Ag       11.7578  -11.7579   -3.0116    0.0000    0.0000    0.0000
Ag       -8.8178   -8.8178   -3.0122    0.0000    0.0000    0.0000
Ag       -5.8777   -8.8188   -3.0099    0.0000    0.0000    0.0000
Ag       -2.9396   -8.8187   -3.0100    0.0000    0.0000    0.0000
Ag       -0.0000   -8.8215   -3.0120    0.0000    0.0000    0.0000
Ag        2.9396   -8.8187   -3.0100    0.0000    0.0000    0.0000
Ag        5.8777   -8.8188   -3.0099    0.0000    0.0000    0.0000
Ag        8.8178   -8.8178   -3.0122    0.0000    0.0000    0.0000
Ag       11.7578   -8.8160   -3.0097    0.0000    0.0000    0.0000
Ag       -8.8188   -5.8777   -3.0098    0.0000    0.0000    0.0000
Ag       -5.8786   -5.8786   -3.0112    0.0000    0.0000    0.0000
Ag       -2.9388   -5.8768   -3.0116    0.0000    0.0000    0.0000
Ag       -0.0000   -5.8874   -3.0135    0.0000    0.0000    0.0000
Ag        2.9388   -5.8768   -3.0116    0.0000    0.0000    0.0000
Ag        5.8786   -5.8786   -3.0112    0.0000    0.0000    0.0000
Ag        8.8188   -5.8777   -3.0098    0.0000    0.0000    0.0000
Ag       11.7578   -5.8766   -3.0042    0.0000    0.0000    0.0000
Ag       -8.8186   -2.9396   -3.0100    0.0000    0.0000    0.0000
Ag       -5.8767   -2.9389   -3.0116    0.0000    0.0000    0.0000
Ag       -2.9362   -2.9362   -3.0149    0.0000    0.0000    0.0000
Ag       -0.0000   -2.9716   -3.0213    0.0000    0.0000    0.0000
Ag        2.9362   -2.9362   -3.0149    0.0000    0.0000    0.0000
Ag        5.8767   -2.9389   -3.0116    0.0000    0.0000    0.0000
Ag        8.8186   -2.9396   -3.0100    0.0000    0.0000    0.0000
Ag       11.7578   -2.9406   -3.0070    0.0000    0.0000    0.0000
Ag       -8.8215   -0.0000   -3.0120    0.0000    0.0000    0.0000
Ag       -5.8873   -0.0001   -3.0136    0.0000    0.0000    0.0000
Ag       -2.9717   -0.0003   -3.0217    0.0000    0.0000    0.0000
Ag       -0.0000   -0.0010   -2.9411    0.0000    0.0000    0.0000
Ag        2.9717   -0.0003   -3.0217    0.0000    0.0000    0.0000
Ag        5.8873   -0.0001   -3.0136    0.0000    0.0000    0.0000
Ag        8.8215   -0.0000   -3.0120    0.0000    0.0000    0.0000
Ag       11.7578   -0.0000   -3.0101    0.0000    0.0000    0.0000
Ag       -8.8186    2.9395   -3.0100    0.0000    0.0000    0.0000
Ag       -5.8767    2.9387   -3.0116    0.0000    0.0000    0.0000
Ag       -2.9360    2.9360   -3.0150    0.0000    0.0000    0.0000
Ag       -0.0000    2.9719   -3.0222    0.0000    0.0000    0.0000
Ag        2.9360    2.9360   -3.0150    0.0000    0.0000    0.0000
Ag        5.8767    2.9387   -3.0116    0.0000    0.0000    0.0000
Ag        8.8186    2.9395   -3.0100    0.0000    0.0000    0.0000
Ag       11.7578    2.9405   -3.0069    0.0000    0.0000    0.0000
Ag       -8.8188    5.8776   -3.0099    0.0000    0.0000    0.0000
Ag       -5.8786    5.8785   -3.0112    0.0000    0.0000    0.0000
Ag       -2.9388    5.8766   -3.0116    0.0000    0.0000    0.0000
Ag       -0.0000    5.8872   -3.0136    0.0000    0.0000    0.0000
Ag        2.9388    5.8766   -3.0116    0.0000    0.0000    0.0000
Ag        5.8786    5.8786   -3.0112    0.0000    0.0000    0.0000
Ag        8.8188    5.8776   -3.0099    0.0000    0.0000    0.0000
Ag       11.7578    5.8765   -3.0042    0.0000    0.0000    0.0000
Ag       -8.8178    8.8177   -3.0121    0.0000    0.0000    0.0000
Ag       -5.8777    8.8188   -3.0098    0.0000    0.0000    0.0000
Ag       -2.9396    8.8185   -3.0100    0.0000    0.0000    0.0000
Ag       -0.0000    8.8214   -3.0120    0.0000    0.0000    0.0000
Ag        2.9396    8.8185   -3.0100    0.0000    0.0000    0.0000
Ag        5.8777    8.8188   -3.0098    0.0000    0.0000    0.0000
Ag        8.8178    8.8178   -3.0121    0.0000    0.0000    0.0000
Ag       11.7578    8.8160   -3.0097    0.0000    0.0000    0.0000
