#===============================================================================
# Created using the Atomic Simulation Environment (ASE)

# Thu May 21 18:33:55 2026

#=======================================================
lattice_vector 23.0233967954339889 0.0000000000000000 0.0000000000000000 
lattice_vector 11.5116983977169944 19.9388465062550679 0.0000000000000000 
lattice_vector 0.0000000000000000 0.0000000000000000 107.0494467868053334 
atom -16.5500000000000007 -8.7200000000000006 -10.0490000000000066 Ag
constrain_relaxation .true.
atom -13.6720754005707512 -8.7200000000000006 -10.0490000000000066 Ag
constrain_relaxation .true.
atom -10.7941508011415035 -8.7200000000000006 -10.0490000000000066 Ag
constrain_relaxation .true.
atom -7.9162262017122558 -8.7200000000000006 -10.0490000000000066 Ag
constrain_relaxation .true.
atom -5.0383016022830063 -8.7200000000000006 -10.0490000000000066 Ag
constrain_relaxation .true.
atom -2.1603770028537568 -8.7200000000000006 -10.0490000000000066 Ag
constrain_relaxation .true.
atom 0.7175475965754892 -8.7200000000000006 -10.0490000000000066 Ag
constrain_relaxation .true.
atom 3.5954721960047387 -8.7200000000000006 -10.0490000000000066 Ag
constrain_relaxation .true.
atom -15.1110377002853760 -6.2276441867181171 -10.0490000000000066 Ag
constrain_relaxation .true.
atom -12.2331131008561282 -6.2276441867181171 -10.0490000000000066 Ag
constrain_relaxation .true.
atom -9.3551885014268787 -6.2276441867181171 -10.0490000000000066 Ag
constrain_relaxation .true.
atom -6.4772639019976310 -6.2276441867181171 -10.0490000000000066 Ag
constrain_relaxation .true.
atom -3.5993393025683815 -6.2276441867181171 -10.0490000000000066 Ag
constrain_relaxation .true.
atom -0.7214147031391320 -6.2276441867181171 -10.0490000000000066 Ag
constrain_relaxation .true.
atom 2.1565098962901139 -6.2276441867181171 -10.0490000000000066 Ag
constrain_relaxation .true.
atom 5.0344344957193634 -6.2276441867181171 -10.0490000000000066 Ag
constrain_relaxation .true.
atom -13.6720754005707512 -3.7352883734362337 -10.0490000000000066 Ag
constrain_relaxation .true.
atom -10.7941508011415035 -3.7352883734362337 -10.0490000000000066 Ag
constrain_relaxation .true.
atom -7.9162262017122558 -3.7352883734362337 -10.0490000000000066 Ag
constrain_relaxation .true.
atom -5.0383016022830063 -3.7352883734362337 -10.0490000000000066 Ag
constrain_relaxation .true.
atom -2.1603770028537568 -3.7352883734362337 -10.0490000000000066 Ag
constrain_relaxation .true.
atom 0.7175475965754927 -3.7352883734362337 -10.0490000000000066 Ag
constrain_relaxation .true.
atom 3.5954721960047387 -3.7352883734362337 -10.0490000000000066 Ag
constrain_relaxation .true.
atom 6.4733967954339882 -3.7352883734362337 -10.0490000000000066 Ag
constrain_relaxation .true.
atom -12.2331131008561282 -1.2429325601543502 -10.0490000000000066 Ag
constrain_relaxation .true.
atom -9.3551885014268787 -1.2429325601543502 -10.0490000000000066 Ag
constrain_relaxation .true.
atom -6.4772639019976310 -1.2429325601543502 -10.0490000000000066 Ag
constrain_relaxation .true.
atom -3.5993393025683833 -1.2429325601543502 -10.0490000000000066 Ag
constrain_relaxation .true.
atom -0.7214147031391338 -1.2429325601543502 -10.0490000000000066 Ag
constrain_relaxation .true.
atom 2.1565098962901175 -1.2429325601543502 -10.0490000000000066 Ag
constrain_relaxation .true.
atom 5.0344344957193634 -1.2429325601543502 -10.0490000000000066 Ag
constrain_relaxation .true.
atom 7.9123590951486129 -1.2429325601543502 -10.0490000000000066 Ag
constrain_relaxation .true.
atom -10.7941508011415035 1.2494232531275333 -10.0490000000000066 Ag
constrain_relaxation .true.
atom -7.9162262017122558 1.2494232531275333 -10.0490000000000066 Ag
constrain_relaxation .true.
atom -5.0383016022830063 1.2494232531275333 -10.0490000000000066 Ag
constrain_relaxation .true.
atom -2.1603770028537586 1.2494232531275333 -10.0490000000000066 Ag
constrain_relaxation .true.
atom 0.7175475965754892 1.2494232531275333 -10.0490000000000066 Ag
constrain_relaxation .true.
atom 3.5954721960047387 1.2494232531275333 -10.0490000000000066 Ag
constrain_relaxation .true.
atom 6.4733967954339882 1.2494232531275333 -10.0490000000000066 Ag
constrain_relaxation .true.
atom 9.3513213948632377 1.2494232531275333 -10.0490000000000066 Ag
constrain_relaxation .true.
atom -9.3551885014268787 3.7417790664094159 -10.0490000000000066 Ag
constrain_relaxation .true.
atom -6.4772639019976310 3.7417790664094159 -10.0490000000000066 Ag
constrain_relaxation .true.
atom -3.5993393025683815 3.7417790664094159 -10.0490000000000066 Ag
constrain_relaxation .true.
atom -0.7214147031391338 3.7417790664094159 -10.0490000000000066 Ag
constrain_relaxation .true.
atom 2.1565098962901139 3.7417790664094159 -10.0490000000000066 Ag
constrain_relaxation .true.
atom 5.0344344957193634 3.7417790664094159 -10.0490000000000066 Ag
constrain_relaxation .true.
atom 7.9123590951486094 3.7417790664094159 -10.0490000000000066 Ag
constrain_relaxation .true.
atom 10.7902836945778589 3.7417790664094159 -10.0490000000000066 Ag
constrain_relaxation .true.
atom -7.9162262017122558 6.2341348796913003 -10.0490000000000066 Ag
constrain_relaxation .true.
atom -5.0383016022830063 6.2341348796913003 -10.0490000000000066 Ag
constrain_relaxation .true.
atom -2.1603770028537568 6.2341348796913003 -10.0490000000000066 Ag
constrain_relaxation .true.
atom 0.7175475965754892 6.2341348796913003 -10.0490000000000066 Ag
constrain_relaxation .true.
atom 3.5954721960047387 6.2341348796913003 -10.0490000000000066 Ag
constrain_relaxation .true.
atom 6.4733967954339882 6.2341348796913003 -10.0490000000000066 Ag
constrain_relaxation .true.
atom 9.3513213948632341 6.2341348796913003 -10.0490000000000066 Ag
constrain_relaxation .true.
atom 12.2292459942924836 6.2341348796913003 -10.0490000000000066 Ag
constrain_relaxation .true.
atom -6.4772639019976310 8.7264906929731847 -10.0490000000000066 Ag
constrain_relaxation .true.
atom -3.5993393025683815 8.7264906929731847 -10.0490000000000066 Ag
constrain_relaxation .true.
atom -0.7214147031391338 8.7264906929731847 -10.0490000000000066 Ag
constrain_relaxation .true.
atom 2.1565098962901139 8.7264906929731847 -10.0490000000000066 Ag
constrain_relaxation .true.
atom 5.0344344957193634 8.7264906929731847 -10.0490000000000066 Ag
constrain_relaxation .true.
atom 7.9123590951486129 8.7264906929731847 -10.0490000000000066 Ag
constrain_relaxation .true.
atom 10.7902836945778589 8.7264906929731847 -10.0490000000000066 Ag
constrain_relaxation .true.
atom 13.6682082940071083 8.7264906929731847 -10.0490000000000066 Ag
constrain_relaxation .true.
atom -15.1110377002853760 -7.8892147289060395 -7.6991844043982240 Ag
constrain_relaxation .true.
atom -12.2331131008561282 -7.8892147289060395 -7.6991844043982240 Ag
constrain_relaxation .true.
atom -9.3551885014268787 -7.8892147289060395 -7.6991844043982240 Ag
constrain_relaxation .true.
atom -6.4772639019976292 -7.8892147289060395 -7.6991844043982240 Ag
constrain_relaxation .true.
atom -3.5993393025683815 -7.8892147289060395 -7.6991844043982240 Ag
constrain_relaxation .true.
atom -0.7214147031391338 -7.8892147289060395 -7.6991844043982240 Ag
constrain_relaxation .true.
atom 2.1565098962901139 -7.8892147289060395 -7.6991844043982240 Ag
constrain_relaxation .true.
atom 5.0344344957193634 -7.8892147289060395 -7.6991844043982240 Ag
constrain_relaxation .true.
atom -13.6720754005707512 -5.3968589156241560 -7.6991844043982240 Ag
constrain_relaxation .true.
atom -10.7941508011415035 -5.3968589156241560 -7.6991844043982240 Ag
constrain_relaxation .true.
atom -7.9162262017122540 -5.3968589156241560 -7.6991844043982240 Ag
constrain_relaxation .true.
atom -5.0383016022830063 -5.3968589156241560 -7.6991844043982240 Ag
constrain_relaxation .true.
atom -2.1603770028537586 -5.3968589156241560 -7.6991844043982240 Ag
constrain_relaxation .true.
atom 0.7175475965754892 -5.3968589156241560 -7.6991844043982240 Ag
constrain_relaxation .true.
atom 3.5954721960047387 -5.3968589156241560 -7.6991844043982240 Ag
constrain_relaxation .true.
atom 6.4733967954339882 -5.3968589156241560 -7.6991844043982240 Ag
constrain_relaxation .true.
atom -12.2331131008561265 -2.9045031023422725 -7.6991844043982240 Ag
constrain_relaxation .true.
atom -9.3551885014268805 -2.9045031023422725 -7.6991844043982240 Ag
constrain_relaxation .true.
atom -6.4772639019976292 -2.9045031023422725 -7.6991844043982240 Ag
constrain_relaxation .true.
atom -3.5993393025683815 -2.9045031023422725 -7.6991844043982240 Ag
constrain_relaxation .true.
atom -0.7214147031391338 -2.9045031023422725 -7.6991844043982240 Ag
constrain_relaxation .true.
atom 2.1565098962901139 -2.9045031023422725 -7.6991844043982240 Ag
constrain_relaxation .true.
atom 5.0344344957193634 -2.9045031023422725 -7.6991844043982240 Ag
constrain_relaxation .true.
atom 7.9123590951486129 -2.9045031023422725 -7.6991844043982240 Ag
constrain_relaxation .true.
atom -10.7941508011415035 -0.4121472890603890 -7.6991844043982240 Ag
constrain_relaxation .true.
atom -7.9162262017122558 -0.4121472890603890 -7.6991844043982240 Ag
constrain_relaxation .true.
atom -5.0383016022830063 -0.4121472890603890 -7.6991844043982240 Ag
constrain_relaxation .true.
atom -2.1603770028537568 -0.4121472890603890 -7.6991844043982240 Ag
constrain_relaxation .true.
atom 0.7175475965754892 -0.4121472890603890 -7.6991844043982240 Ag
constrain_relaxation .true.
atom 3.5954721960047387 -0.4121472890603890 -7.6991844043982240 Ag
constrain_relaxation .true.
atom 6.4733967954339882 -0.4121472890603890 -7.6991844043982240 Ag
constrain_relaxation .true.
atom 9.3513213948632377 -0.4121472890603890 -7.6991844043982240 Ag
constrain_relaxation .true.
atom -9.3551885014268805 2.0802085242214936 -7.6991844043982240 Ag
constrain_relaxation .true.
atom -6.4772639019976310 2.0802085242214936 -7.6991844043982240 Ag
constrain_relaxation .true.
atom -3.5993393025683815 2.0802085242214936 -7.6991844043982240 Ag
constrain_relaxation .true.
atom -0.7214147031391338 2.0802085242214936 -7.6991844043982240 Ag
constrain_relaxation .true.
atom 2.1565098962901139 2.0802085242214936 -7.6991844043982240 Ag
constrain_relaxation .true.
atom 5.0344344957193634 2.0802085242214936 -7.6991844043982240 Ag
constrain_relaxation .true.
atom 7.9123590951486129 2.0802085242214936 -7.6991844043982240 Ag
constrain_relaxation .true.
atom 10.7902836945778624 2.0802085242214936 -7.6991844043982240 Ag
constrain_relaxation .true.
atom -7.9162262017122558 4.5725643375033780 -7.6991844043982240 Ag
constrain_relaxation .true.
atom -5.0383016022830063 4.5725643375033780 -7.6991844043982240 Ag
constrain_relaxation .true.
atom -2.1603770028537568 4.5725643375033780 -7.6991844043982240 Ag
constrain_relaxation .true.
atom 0.7175475965754927 4.5725643375033780 -7.6991844043982240 Ag
constrain_relaxation .true.
atom 3.5954721960047387 4.5725643375033780 -7.6991844043982240 Ag
constrain_relaxation .true.
atom 6.4733967954339882 4.5725643375033780 -7.6991844043982240 Ag
constrain_relaxation .true.
atom 9.3513213948632377 4.5725643375033780 -7.6991844043982240 Ag
constrain_relaxation .true.
atom 12.2292459942924872 4.5725643375033780 -7.6991844043982240 Ag
constrain_relaxation .true.
atom -6.4772639019976310 7.0649201507852606 -7.6991844043982240 Ag
constrain_relaxation .true.
atom -3.5993393025683833 7.0649201507852606 -7.6991844043982240 Ag
constrain_relaxation .true.
atom -0.7214147031391338 7.0649201507852606 -7.6991844043982240 Ag
constrain_relaxation .true.
atom 2.1565098962901139 7.0649201507852606 -7.6991844043982240 Ag
constrain_relaxation .true.
atom 5.0344344957193634 7.0649201507852606 -7.6991844043982240 Ag
constrain_relaxation .true.
atom 7.9123590951486094 7.0649201507852606 -7.6991844043982240 Ag
constrain_relaxation .true.
atom 10.7902836945778589 7.0649201507852606 -7.6991844043982240 Ag
constrain_relaxation .true.
atom 13.6682082940071083 7.0649201507852606 -7.6991844043982240 Ag
constrain_relaxation .true.
atom -5.0383016022830063 9.5572759640671432 -7.6991844043982240 Ag
constrain_relaxation .true.
atom -2.1603770028537586 9.5572759640671432 -7.6991844043982240 Ag
constrain_relaxation .true.
atom 0.7175475965754927 9.5572759640671432 -7.6991844043982240 Ag
constrain_relaxation .true.
atom 3.5954721960047387 9.5572759640671432 -7.6991844043982240 Ag
constrain_relaxation .true.
atom 6.4733967954339882 9.5572759640671432 -7.6991844043982240 Ag
constrain_relaxation .true.
atom 9.3513213948632341 9.5572759640671432 -7.6991844043982240 Ag
constrain_relaxation .true.
atom 12.2292459942924836 9.5572759640671432 -7.6991844043982240 Ag
constrain_relaxation .true.
atom 15.1071705937217331 9.5572759640671432 -7.6991844043982240 Ag
constrain_relaxation .true.
atom -16.5500000000000007 -7.0584294578120783 -5.3493688087964557 Ag
atom -13.6720754005707512 -7.0584294578120783 -5.3493688087964557 Ag
atom -10.7941508011415035 -7.0584294578120783 -5.3493688087964557 Ag
atom -7.9162262017122558 -7.0584294578120783 -5.3493688087964557 Ag
atom -5.0383016022830063 -7.0584294578120783 -5.3493688087964557 Ag
atom -2.1603770028537568 -7.0584294578120783 -5.3493688087964557 Ag
atom 0.7175475965754927 -7.0584294578120783 -5.3493688087964557 Ag
atom 3.5954721960047422 -7.0584294578120783 -5.3493688087964557 Ag
atom -15.1110377002853760 -4.5660736445301948 -5.3493688087964557 Ag
atom -12.2331131008561265 -4.5660736445301948 -5.3493688087964557 Ag
atom -9.3551885014268787 -4.5660736445301948 -5.3493688087964557 Ag
atom -6.4772639019976310 -4.5660736445301948 -5.3493688087964557 Ag
atom -3.5993393025683815 -4.5660736445301948 -5.3493688087964557 Ag
atom -0.7214147031391320 -4.5660736445301948 -5.3493688087964557 Ag
atom 2.1565098962901139 -4.5660736445301948 -5.3493688087964557 Ag
atom 5.0344344957193634 -4.5660736445301948 -5.3493688087964557 Ag
atom -13.6720754005707512 -2.0737178312483113 -5.3493688087964557 Ag
atom -10.7941508011415035 -2.0737178312483113 -5.3493688087964557 Ag
atom -7.9162262017122540 -2.0737178312483113 -5.3493688087964557 Ag
atom -5.0383016022830063 -2.0737178312483113 -5.3493688087964557 Ag
atom -2.1603770028537568 -2.0737178312483113 -5.3493688087964557 Ag
atom 0.7175475965754927 -2.0737178312483113 -5.3493688087964557 Ag
atom 3.5954721960047387 -2.0737178312483113 -5.3493688087964557 Ag
atom 6.4733967954339882 -2.0737178312483113 -5.3493688087964557 Ag
atom -12.2331131008561282 0.4186379820335713 -5.3493688087964557 Ag
atom -9.3551885014268787 0.4186379820335713 -5.3493688087964557 Ag
atom -6.4772639019976310 0.4186379820335713 -5.3493688087964557 Ag
atom -3.5993393025683833 0.4186379820335713 -5.3493688087964557 Ag
atom -0.7214147031391338 0.4186379820335713 -5.3493688087964557 Ag
atom 2.1565098962901175 0.4186379820335713 -5.3493688087964557 Ag
atom 5.0344344957193634 0.4186379820335713 -5.3493688087964557 Ag
atom 7.9123590951486129 0.4186379820335713 -5.3493688087964557 Ag
atom -10.7941508011415017 2.9109937953154557 -5.3493688087964557 Ag
atom -7.9162262017122540 2.9109937953154557 -5.3493688087964557 Ag
atom -5.0383016022830063 2.9109937953154557 -5.3493688087964557 Ag
atom -2.1603770028537586 2.9109937953154557 -5.3493688087964557 Ag
atom 0.7175475965754927 2.9109937953154557 -5.3493688087964557 Ag
atom 3.5954721960047422 2.9109937953154557 -5.3493688087964557 Ag
atom 6.4733967954339882 2.9109937953154557 -5.3493688087964557 Ag
atom 9.3513213948632377 2.9109937953154557 -5.3493688087964557 Ag
atom -9.3551885014268787 5.4033496085973400 -5.3493688087964557 Ag
atom -6.4772639019976292 5.4033496085973400 -5.3493688087964557 Ag
atom -3.5993393025683815 5.4033496085973400 -5.3493688087964557 Ag
atom -0.7214147031391338 5.4033496085973400 -5.3493688087964557 Ag
atom 2.1565098962901175 5.4033496085973400 -5.3493688087964557 Ag
atom 5.0344344957193670 5.4033496085973400 -5.3493688087964557 Ag
atom 7.9123590951486129 5.4033496085973400 -5.3493688087964557 Ag
atom 10.7902836945778624 5.4033496085973400 -5.3493688087964557 Ag
atom -7.9162262017122540 7.8957054218792226 -5.3493688087964557 Ag
atom -5.0383016022830063 7.8957054218792226 -5.3493688087964557 Ag
atom -2.1603770028537568 7.8957054218792226 -5.3493688087964557 Ag
atom 0.7175475965754892 7.8957054218792226 -5.3493688087964557 Ag
atom 3.5954721960047387 7.8957054218792226 -5.3493688087964557 Ag
atom 6.4733967954339882 7.8957054218792226 -5.3493688087964557 Ag
atom 9.3513213948632377 7.8957054218792226 -5.3493688087964557 Ag
atom 12.2292459942924872 7.8957054218792226 -5.3493688087964557 Ag
atom -6.4772639019976292 10.3880612351611052 -5.3493688087964557 Ag
atom -3.5993393025683815 10.3880612351611052 -5.3493688087964557 Ag
atom -0.7214147031391320 10.3880612351611052 -5.3493688087964557 Ag
atom 2.1565098962901139 10.3880612351611052 -5.3493688087964557 Ag
atom 5.0344344957193634 10.3880612351611052 -5.3493688087964557 Ag
atom 7.9123590951486129 10.3880612351611052 -5.3493688087964557 Ag
atom 10.7902836945778624 10.3880612351611052 -5.3493688087964557 Ag
atom 13.6682082940071119 10.3880612351611052 -5.3493688087964557 Ag
atom -16.5500000000000007 -8.7200000000000006 -2.9995532131946732 Ag
atom -13.6720754005707512 -8.7200000000000006 -2.9995532131946732 Ag
atom -10.7941508011415035 -8.7200000000000006 -2.9995532131946732 Ag
atom -7.9162262017122558 -8.7200000000000006 -2.9995532131946732 Ag
atom -5.0383016022830063 -8.7200000000000006 -2.9995532131946732 Ag
atom -2.1603770028537568 -8.7200000000000006 -2.9995532131946732 Ag
atom 0.7175475965754892 -8.7200000000000006 -2.9995532131946732 Ag
atom 3.5954721960047387 -8.7200000000000006 -2.9995532131946732 Ag
atom -15.1110377002853760 -6.2276441867181171 -2.9995532131946732 Ag
atom -12.2331131008561282 -6.2276441867181171 -2.9995532131946732 Ag
atom -9.3551885014268787 -6.2276441867181171 -2.9995532131946732 Ag
atom -6.4772639019976310 -6.2276441867181171 -2.9995532131946732 Ag
atom -3.5993393025683815 -6.2276441867181171 -2.9995532131946732 Ag
atom -0.7214147031391320 -6.2276441867181171 -2.9995532131946732 Ag
atom 2.1565098962901139 -6.2276441867181171 -2.9995532131946732 Ag
atom 5.0344344957193634 -6.2276441867181171 -2.9995532131946732 Ag
atom -13.6720754005707512 -3.7352883734362337 -2.9995532131946732 Ag
atom -10.7941508011415035 -3.7352883734362337 -2.9995532131946732 Ag
atom -7.9162262017122558 -3.7352883734362337 -2.9995532131946732 Ag
atom -5.0383016022830063 -3.7352883734362337 -2.9995532131946732 Ag
atom -2.1603770028537568 -3.7352883734362337 -2.9995532131946732 Ag
atom 0.7175475965754927 -3.7352883734362337 -2.9995532131946732 Ag
atom 3.5954721960047387 -3.7352883734362337 -2.9995532131946732 Ag
atom 6.4733967954339882 -3.7352883734362337 -2.9995532131946732 Ag
atom -12.2331131008561282 -1.2429325601543502 -2.9995532131946732 Ag
atom -9.3551885014268787 -1.2429325601543502 -2.9995532131946732 Ag
atom -6.4772639019976310 -1.2429325601543502 -2.9995532131946732 Ag
atom -3.5993393025683833 -1.2429325601543502 -2.9995532131946732 Ag
atom -0.7214147031391338 -1.2429325601543502 -2.9995532131946732 Ag
atom 2.1565098962901175 -1.2429325601543502 -2.9995532131946732 Ag
atom 5.0344344957193634 -1.2429325601543502 -2.9995532131946732 Ag
atom 7.9123590951486129 -1.2429325601543502 -2.9995532131946732 Ag
atom -10.7941508011415035 1.2494232531275333 -2.9995532131946732 Ag
atom -7.9162262017122558 1.2494232531275333 -2.9995532131946732 Ag
atom -5.0383016022830063 1.2494232531275333 -2.9995532131946732 Ag
atom -2.1603770028537586 1.2494232531275333 -2.9995532131946732 Ag
atom 0.7175475965754892 1.2494232531275333 -2.9995532131946732 Ag
atom 3.5954721960047387 1.2494232531275333 -2.9995532131946732 Ag
atom 6.4733967954339882 1.2494232531275333 -2.9995532131946732 Ag
atom 9.3513213948632377 1.2494232531275333 -2.9995532131946732 Ag
atom -9.3551885014268787 3.7417790664094159 -2.9995532131946732 Ag
atom -6.4772639019976310 3.7417790664094159 -2.9995532131946732 Ag
atom -3.5993393025683815 3.7417790664094159 -2.9995532131946732 Ag
atom -0.7214147031391338 3.7417790664094159 -2.9995532131946732 Ag
atom 2.1565098962901139 3.7417790664094159 -2.9995532131946732 Ag
atom 5.0344344957193634 3.7417790664094159 -2.9995532131946732 Ag
atom 7.9123590951486094 3.7417790664094159 -2.9995532131946732 Ag
atom 10.7902836945778589 3.7417790664094159 -2.9995532131946732 Ag
atom -7.9162262017122558 6.2341348796913003 -2.9995532131946732 Ag
atom -5.0383016022830063 6.2341348796913003 -2.9995532131946732 Ag
atom -2.1603770028537568 6.2341348796913003 -2.9995532131946732 Ag
atom 0.7175475965754892 6.2341348796913003 -2.9995532131946732 Ag
atom 3.5954721960047387 6.2341348796913003 -2.9995532131946732 Ag
atom 6.4733967954339882 6.2341348796913003 -2.9995532131946732 Ag
atom 9.3513213948632341 6.2341348796913003 -2.9995532131946732 Ag
atom 12.2292459942924836 6.2341348796913003 -2.9995532131946732 Ag
atom -6.4772639019976310 8.7264906929731847 -2.9995532131946732 Ag
atom -3.5993393025683815 8.7264906929731847 -2.9995532131946732 Ag
atom -0.7214147031391338 8.7264906929731847 -2.9995532131946732 Ag
atom 2.1565098962901139 8.7264906929731847 -2.9995532131946732 Ag
atom 5.0344344957193634 8.7264906929731847 -2.9995532131946732 Ag
atom 7.9123590951486129 8.7264906929731847 -2.9995532131946732 Ag
atom 10.7902836945778589 8.7264906929731847 -2.9995532131946732 Ag
atom 13.6682082940071083 8.7264906929731847 -2.9995532131946732 Ag
atom 0.0000000000000000 0.0000000000000000 0.0004467868053268 Fe
atom 2.9686751362760013 1.6173129003260005 0.0007827348383245 N
atom 1.6173976824679990 -2.9688665400180003 -0.0002312830956726 N
atom -0.5417623087269980 -1.8382072104649998 0.0063973376983171 N
atom -1.8381765418249998 0.5419478019550006 -0.0056533851876850 N
atom 0.5417622912300004 1.8382072151309998 0.0063942433143183 N
atom 1.8381765409900019 -0.5419477971609989 -0.0056502427976852 N
atom -1.6173976709150004 2.9688665564559997 -0.0002389112456740 N
atom -2.9686751266539986 -1.6173128961759993 0.0007829870373257 N
atom -3.7711805127179989 1.8455369275619997 -0.0304492779566772 C
atom -2.3213979529699991 1.8492435524940003 -0.0128438223456726 C
atom -0.2949575446920001 2.9527646682090012 0.0129005355563265 C
atom 0.4942066242849990 4.1689006897079999 0.0306071616833208 C
atom -4.1687658542339996 0.4940500768699998 -0.0286147151796854 C
atom -2.9526454222089988 -0.2948014101470005 -0.0113324082876716 C
atom -0.1360929688449986 -5.5214734699390000 0.0456432703843177 C
atom -2.8798090242559997 -4.7139856918719998 0.0427032397613232 C
atom -1.1672885060570000 -6.4607744573629997 0.0595626314063225 C
atom -5.5211640547220000 0.1352907604159999 -0.0411680336466844 C
atom -4.7146086520209991 2.8792614072950009 -0.0462064239156774 C
atom -6.4608506749999997 1.1659504224070005 -0.0567418539616824 C
atom -2.5225397418819995 -6.0624016728000001 0.0578180361803220 C
atom -1.8491123898010002 -2.3212527320460001 0.0126049571283176 C
atom -1.8455631126849994 -3.7711032656359995 0.0297170091333214 C
atom 1.8455631034050022 3.7711033353829997 0.0297099029923231 C
atom 1.8491123694849989 2.3212527456449994 0.0126020260993158 C
atom -6.0628138310979995 2.5213225480840009 -0.0597315138006849 C
atom 2.9526454160379991 0.2948013972709997 -0.0113301718776739 C
atom 4.1687658739790017 -0.4940501153649990 -0.0286112188636736 C
atom 2.3213979550139996 -1.8492435657410002 -0.0128385559656721 C
atom 3.7711805245470025 -1.8455369563749997 -0.0304442674436842 C
atom -0.4942066216259988 -4.1689006055219995 0.0306173121173146 C
atom 0.2949575320219999 -2.9527646211079999 0.0129076203533174 C
atom 0.1360929932170016 5.5214736136260001 0.0456276550743269 C
atom 2.8798090367010012 4.7139857616899992 0.0426942842823195 C
atom 1.1672885431540010 6.4607746116830000 0.0595450319443245 C
atom 2.5225397804110017 6.0624018028139997 0.0578038033773254 C
atom 5.5211640520900005 -0.1352907707189992 -0.0411652382926775 C
atom 4.7146086795569992 -2.8792614266149998 -0.0462009657386773 C
atom 6.4608506963589996 -1.1659504308919999 -0.0567385554036832 C
atom 6.0628138480029996 -2.5213225538539996 -0.0597270979946813 C
atom 5.8185148195220009 0.9134982528159998 -0.0386998297296799 H
atom 4.3972597114299994 -3.9221657385409996 -0.0481268199316816 H
atom 6.8273401218289997 -3.2993475085079993 -0.0727437401786801 H
atom -5.8185148933789996 -0.9134982392589999 -0.0387015776496753 H
atom -4.3972595944839998 3.9221656893929993 -0.0481331298256720 H
atom -6.8273401152959998 3.2993474921370005 -0.0727482711306777 H
atom -7.5248409538870007 0.9252389555300002 -0.0669513316746730 H
atom 0.9123941823199999 -5.8198667412439997 0.0467063574833162 H
atom -3.9224632634559988 -4.3958201584589993 0.0406260506213272 H
atom -3.3008278572149994 -6.8267571025139997 0.0684228972203158 H
atom -0.9270411866819988 -7.5248792439409993 0.0721380368013200 H
atom -0.9123941296910001 5.8198669934420000 0.0466879923723269 H
atom 3.9224632696820017 4.3958201842540010 0.0406188762513153 H
atom 3.3008279100940001 6.8267572370619991 0.0684068386863146 H
atom 0.9270412453860004 7.5248794625170010 0.0721158258773187 H
atom 7.5248409563590002 -0.9252389446829996 -0.0669487654666767 H
