------------------------------------------------------------
          Invoking FHI-aims ...

          When using FHI-aims, please cite the following reference:

            Volker Blum, Ralf Gehrke, Felix Hanke, Paula Havu,
            Ville Havu, Xinguo Ren, Karsten Reuter, and Matthias Scheffler,
            'Ab Initio Molecular Simulations with Numeric Atom-Centered Orbitals',
            Computer Physics Communications 180, 2175-2196 (2009)

          In addition, many other developments in FHI-aims are likely important for
          your particular application. If so, please cite them. A partial list of references
          is written at the end of this file. Thank you for giving credit to the authors
          of these developments.

          For general information about FHI-aims please find us at

            https://fhi-aims.org

          Online tutorials can be found at

            https://fhi-aims-club.gitlab.io/tutorials/tutorials-overview/

          For any questions about FHI-aims, please visit our slack channel at

            https://fhi-aims.slack.com

          and our main development and support site at

            https://aims-git.rz-berlin.mpg.de .

          The latter site, in particular, has a wiki to collect information, as well
          as an issue tracker to log discussions, suggest improvements, and report issues
          or bugs. https://aims-git.rz-berlin.mpg.de is also the main development site
          of the project and all new and updated code versions can be obtained there.
          Please send an email to aims-coordinators@fhi-berlin.mpg.de and we will add
          you to these sites. They are for you and everyone is welcome there.

------------------------------------------------------------



  Date     :  20260304, Time     :  134652.964
  Time zero on CPU 1             :   0.134930200000000E+01  s.
  Internal wall clock time zero  :           541864012.964  s.

  FHI-aims created a unique identifier for this run for later identification
  aims_uuid : A7EE0EAB-CC16-4856-AE11-F787D5F61F21

  Build configuration of the current instance of FHI-aims
  -------------------------------------------------------
  FHI-aims version      : 250822
  Commit number         : GITDIR-NOTFOUND
  CMake host system     : Linux-4.18.0-553.46.1.el8_10.x86_64
  CMake version         : 3.26.5
  OS Distribution       : Red Hat Enterprise Linux 8.10 (Ootpa)
  Built on              : AMD EPYC 7402 24-Core Processor
  Fortran compiler      : /appl/spack/v017/install-tree/gcc-11.2.0/openmpi-4.1.2-h6c3ze/bin/mpifort (GNU) version 11.2.0
  Fortran compiler flags: -O3 -march=native -ffree-line-length-none -fallow-argument-mismatch
  C compiler            : /appl/spack/v017/install-tree/gcc-8.5.0/gcc-11.2.0-zshp2k/bin/gcc (GNU) version 11.2.0
  C compiler flags      : -O3 -march=native -DNDEBUG -funroll-loops
  C++ compiler          : /appl/spack/v017/install-tree/gcc-8.5.0/gcc-11.2.0-zshp2k/bin/g++ (GNU) version 11.2.0
  C++ compiler flags    : -O3 -march=native -DNDEBUG -funroll-loops
  HIP compiler          :
  HIP compiler flags    :
  HIP GPU arch          :
  ELPA2 kernel          : AVX2
  Using MPI
  Using ScaLAPACK
  Using LibXC
  Using i-PI
  Using RLSY
  Linking against: /appl/spack/v017/install-tree/gcc-11.2.0/netlib-scalapack-2.1.0-ia2oka/lib/libscalapack.so
                   /appl/spack/v017/install-tree/gcc-11.2.0/openblas-0.3.18-eb6g7n/lib/libopenblas.so

  Using      256 parallel tasks.
  Task        0 on host c2133.mahti.csc.fi reporting.
  Task        1 on host c2133.mahti.csc.fi reporting.
  Task        2 on host c2133.mahti.csc.fi reporting.
  Task        3 on host c2133.mahti.csc.fi reporting.
  Task        4 on host c2133.mahti.csc.fi reporting.
  Task        5 on host c2133.mahti.csc.fi reporting.
  Task        6 on host c2133.mahti.csc.fi reporting.
  Task        7 on host c2133.mahti.csc.fi reporting.
  Task        8 on host c2133.mahti.csc.fi reporting.
  Task        9 on host c2133.mahti.csc.fi reporting.
  Task       10 on host c2133.mahti.csc.fi reporting.
  Task       11 on host c2133.mahti.csc.fi reporting.
  Task       12 on host c2133.mahti.csc.fi reporting.
  Task       13 on host c2133.mahti.csc.fi reporting.
  Task       14 on host c2133.mahti.csc.fi reporting.
  Task       15 on host c2133.mahti.csc.fi reporting.
  Task       16 on host c2133.mahti.csc.fi reporting.
  Task       17 on host c2133.mahti.csc.fi reporting.
  Task       18 on host c2133.mahti.csc.fi reporting.
  Task       19 on host c2133.mahti.csc.fi reporting.
  Task       20 on host c2133.mahti.csc.fi reporting.
  Task       21 on host c2133.mahti.csc.fi reporting.
  Task       22 on host c2133.mahti.csc.fi reporting.
  Task       23 on host c2133.mahti.csc.fi reporting.
  Task       24 on host c2133.mahti.csc.fi reporting.
  Task       25 on host c2133.mahti.csc.fi reporting.
  Task       26 on host c2133.mahti.csc.fi reporting.
  Task       27 on host c2133.mahti.csc.fi reporting.
  Task       28 on host c2133.mahti.csc.fi reporting.
  Task       29 on host c2133.mahti.csc.fi reporting.
  Task       30 on host c2133.mahti.csc.fi reporting.
  Task       31 on host c2133.mahti.csc.fi reporting.
  Task       32 on host c2133.mahti.csc.fi reporting.
  Task       33 on host c2133.mahti.csc.fi reporting.
  Task       34 on host c2133.mahti.csc.fi reporting.
  Task       35 on host c2133.mahti.csc.fi reporting.
  Task       36 on host c2133.mahti.csc.fi reporting.
  Task       37 on host c2133.mahti.csc.fi reporting.
  Task       38 on host c2133.mahti.csc.fi reporting.
  Task       39 on host c2133.mahti.csc.fi reporting.
  Task       40 on host c2133.mahti.csc.fi reporting.
  Task       41 on host c2133.mahti.csc.fi reporting.
  Task       42 on host c2133.mahti.csc.fi reporting.
  Task       43 on host c2133.mahti.csc.fi reporting.
  Task       44 on host c2133.mahti.csc.fi reporting.
  Task       45 on host c2133.mahti.csc.fi reporting.
  Task       46 on host c2133.mahti.csc.fi reporting.
  Task       47 on host c2133.mahti.csc.fi reporting.
  Task       48 on host c2133.mahti.csc.fi reporting.
  Task       49 on host c2133.mahti.csc.fi reporting.
  Task       50 on host c2133.mahti.csc.fi reporting.
  Task       51 on host c2133.mahti.csc.fi reporting.
  Task       52 on host c2133.mahti.csc.fi reporting.
  Task       53 on host c2133.mahti.csc.fi reporting.
  Task       54 on host c2133.mahti.csc.fi reporting.
  Task       55 on host c2133.mahti.csc.fi reporting.
  Task       56 on host c2133.mahti.csc.fi reporting.
  Task       57 on host c2133.mahti.csc.fi reporting.
  Task       58 on host c2133.mahti.csc.fi reporting.
  Task       59 on host c2133.mahti.csc.fi reporting.
  Task       60 on host c2133.mahti.csc.fi reporting.
  Task       61 on host c2133.mahti.csc.fi reporting.
  Task       62 on host c2133.mahti.csc.fi reporting.
  Task       63 on host c2133.mahti.csc.fi reporting.
  Task       64 on host c2133.mahti.csc.fi reporting.
  Task       65 on host c2133.mahti.csc.fi reporting.
  Task       66 on host c2133.mahti.csc.fi reporting.
  Task       67 on host c2133.mahti.csc.fi reporting.
  Task       68 on host c2133.mahti.csc.fi reporting.
  Task       69 on host c2133.mahti.csc.fi reporting.
  Task       70 on host c2133.mahti.csc.fi reporting.
  Task       71 on host c2133.mahti.csc.fi reporting.
  Task       72 on host c2133.mahti.csc.fi reporting.
  Task       73 on host c2133.mahti.csc.fi reporting.
  Task       74 on host c2133.mahti.csc.fi reporting.
  Task       75 on host c2133.mahti.csc.fi reporting.
  Task       76 on host c2133.mahti.csc.fi reporting.
  Task       77 on host c2133.mahti.csc.fi reporting.
  Task       78 on host c2133.mahti.csc.fi reporting.
  Task       79 on host c2133.mahti.csc.fi reporting.
  Task       80 on host c2133.mahti.csc.fi reporting.
  Task       81 on host c2133.mahti.csc.fi reporting.
  Task       82 on host c2133.mahti.csc.fi reporting.
  Task       83 on host c2133.mahti.csc.fi reporting.
  Task       84 on host c2133.mahti.csc.fi reporting.
  Task       85 on host c2133.mahti.csc.fi reporting.
  Task       86 on host c2133.mahti.csc.fi reporting.
  Task       87 on host c2133.mahti.csc.fi reporting.
  Task       88 on host c2133.mahti.csc.fi reporting.
  Task       89 on host c2133.mahti.csc.fi reporting.
  Task       90 on host c2133.mahti.csc.fi reporting.
  Task       91 on host c2133.mahti.csc.fi reporting.
  Task       92 on host c2133.mahti.csc.fi reporting.
  Task       93 on host c2133.mahti.csc.fi reporting.
  Task       94 on host c2133.mahti.csc.fi reporting.
  Task       95 on host c2133.mahti.csc.fi reporting.
  Task       96 on host c2133.mahti.csc.fi reporting.
  Task       97 on host c2133.mahti.csc.fi reporting.
  Task       98 on host c2133.mahti.csc.fi reporting.
  Task       99 on host c2133.mahti.csc.fi reporting.
  Task      100 on host c2133.mahti.csc.fi reporting.
  Task      101 on host c2133.mahti.csc.fi reporting.
  Task      102 on host c2133.mahti.csc.fi reporting.
  Task      103 on host c2133.mahti.csc.fi reporting.
  Task      104 on host c2133.mahti.csc.fi reporting.
  Task      105 on host c2133.mahti.csc.fi reporting.
  Task      106 on host c2133.mahti.csc.fi reporting.
  Task      107 on host c2133.mahti.csc.fi reporting.
  Task      108 on host c2133.mahti.csc.fi reporting.
  Task      109 on host c2133.mahti.csc.fi reporting.
  Task      110 on host c2133.mahti.csc.fi reporting.
  Task      111 on host c2133.mahti.csc.fi reporting.
  Task      112 on host c2133.mahti.csc.fi reporting.
  Task      113 on host c2133.mahti.csc.fi reporting.
  Task      114 on host c2133.mahti.csc.fi reporting.
  Task      115 on host c2133.mahti.csc.fi reporting.
  Task      116 on host c2133.mahti.csc.fi reporting.
  Task      117 on host c2133.mahti.csc.fi reporting.
  Task      118 on host c2133.mahti.csc.fi reporting.
  Task      119 on host c2133.mahti.csc.fi reporting.
  Task      120 on host c2133.mahti.csc.fi reporting.
  Task      121 on host c2133.mahti.csc.fi reporting.
  Task      122 on host c2133.mahti.csc.fi reporting.
  Task      123 on host c2133.mahti.csc.fi reporting.
  Task      124 on host c2133.mahti.csc.fi reporting.
  Task      125 on host c2133.mahti.csc.fi reporting.
  Task      126 on host c2133.mahti.csc.fi reporting.
  Task      127 on host c2133.mahti.csc.fi reporting.
  Task      128 on host c2265.mahti.csc.fi reporting.
  Task      129 on host c2265.mahti.csc.fi reporting.
  Task      130 on host c2265.mahti.csc.fi reporting.
  Task      131 on host c2265.mahti.csc.fi reporting.
  Task      132 on host c2265.mahti.csc.fi reporting.
  Task      133 on host c2265.mahti.csc.fi reporting.
  Task      134 on host c2265.mahti.csc.fi reporting.
  Task      135 on host c2265.mahti.csc.fi reporting.
  Task      136 on host c2265.mahti.csc.fi reporting.
  Task      137 on host c2265.mahti.csc.fi reporting.
  Task      138 on host c2265.mahti.csc.fi reporting.
  Task      139 on host c2265.mahti.csc.fi reporting.
  Task      140 on host c2265.mahti.csc.fi reporting.
  Task      141 on host c2265.mahti.csc.fi reporting.
  Task      142 on host c2265.mahti.csc.fi reporting.
  Task      143 on host c2265.mahti.csc.fi reporting.
  Task      144 on host c2265.mahti.csc.fi reporting.
  Task      145 on host c2265.mahti.csc.fi reporting.
  Task      146 on host c2265.mahti.csc.fi reporting.
  Task      147 on host c2265.mahti.csc.fi reporting.
  Task      148 on host c2265.mahti.csc.fi reporting.
  Task      149 on host c2265.mahti.csc.fi reporting.
  Task      150 on host c2265.mahti.csc.fi reporting.
  Task      151 on host c2265.mahti.csc.fi reporting.
  Task      152 on host c2265.mahti.csc.fi reporting.
  Task      153 on host c2265.mahti.csc.fi reporting.
  Task      154 on host c2265.mahti.csc.fi reporting.
  Task      155 on host c2265.mahti.csc.fi reporting.
  Task      156 on host c2265.mahti.csc.fi reporting.
  Task      157 on host c2265.mahti.csc.fi reporting.
  Task      158 on host c2265.mahti.csc.fi reporting.
  Task      159 on host c2265.mahti.csc.fi reporting.
  Task      160 on host c2265.mahti.csc.fi reporting.
  Task      161 on host c2265.mahti.csc.fi reporting.
  Task      162 on host c2265.mahti.csc.fi reporting.
  Task      163 on host c2265.mahti.csc.fi reporting.
  Task      164 on host c2265.mahti.csc.fi reporting.
  Task      165 on host c2265.mahti.csc.fi reporting.
  Task      166 on host c2265.mahti.csc.fi reporting.
  Task      167 on host c2265.mahti.csc.fi reporting.
  Task      168 on host c2265.mahti.csc.fi reporting.
  Task      169 on host c2265.mahti.csc.fi reporting.
  Task      170 on host c2265.mahti.csc.fi reporting.
  Task      171 on host c2265.mahti.csc.fi reporting.
  Task      172 on host c2265.mahti.csc.fi reporting.
  Task      173 on host c2265.mahti.csc.fi reporting.
  Task      174 on host c2265.mahti.csc.fi reporting.
  Task      175 on host c2265.mahti.csc.fi reporting.
  Task      176 on host c2265.mahti.csc.fi reporting.
  Task      177 on host c2265.mahti.csc.fi reporting.
  Task      178 on host c2265.mahti.csc.fi reporting.
  Task      179 on host c2265.mahti.csc.fi reporting.
  Task      180 on host c2265.mahti.csc.fi reporting.
  Task      181 on host c2265.mahti.csc.fi reporting.
  Task      182 on host c2265.mahti.csc.fi reporting.
  Task      183 on host c2265.mahti.csc.fi reporting.
  Task      184 on host c2265.mahti.csc.fi reporting.
  Task      185 on host c2265.mahti.csc.fi reporting.
  Task      186 on host c2265.mahti.csc.fi reporting.
  Task      187 on host c2265.mahti.csc.fi reporting.
  Task      188 on host c2265.mahti.csc.fi reporting.
  Task      189 on host c2265.mahti.csc.fi reporting.
  Task      190 on host c2265.mahti.csc.fi reporting.
  Task      191 on host c2265.mahti.csc.fi reporting.
  Task      192 on host c2265.mahti.csc.fi reporting.
  Task      193 on host c2265.mahti.csc.fi reporting.
  Task      194 on host c2265.mahti.csc.fi reporting.
  Task      195 on host c2265.mahti.csc.fi reporting.
  Task      196 on host c2265.mahti.csc.fi reporting.
  Task      197 on host c2265.mahti.csc.fi reporting.
  Task      198 on host c2265.mahti.csc.fi reporting.
  Task      199 on host c2265.mahti.csc.fi reporting.
  Task      200 on host c2265.mahti.csc.fi reporting.
  Task      201 on host c2265.mahti.csc.fi reporting.
  Task      202 on host c2265.mahti.csc.fi reporting.
  Task      203 on host c2265.mahti.csc.fi reporting.
  Task      204 on host c2265.mahti.csc.fi reporting.
  Task      205 on host c2265.mahti.csc.fi reporting.
  Task      206 on host c2265.mahti.csc.fi reporting.
  Task      207 on host c2265.mahti.csc.fi reporting.
  Task      208 on host c2265.mahti.csc.fi reporting.
  Task      209 on host c2265.mahti.csc.fi reporting.
  Task      210 on host c2265.mahti.csc.fi reporting.
  Task      211 on host c2265.mahti.csc.fi reporting.
  Task      212 on host c2265.mahti.csc.fi reporting.
  Task      213 on host c2265.mahti.csc.fi reporting.
  Task      214 on host c2265.mahti.csc.fi reporting.
  Task      215 on host c2265.mahti.csc.fi reporting.
  Task      216 on host c2265.mahti.csc.fi reporting.
  Task      217 on host c2265.mahti.csc.fi reporting.
  Task      218 on host c2265.mahti.csc.fi reporting.
  Task      219 on host c2265.mahti.csc.fi reporting.
  Task      220 on host c2265.mahti.csc.fi reporting.
  Task      221 on host c2265.mahti.csc.fi reporting.
  Task      222 on host c2265.mahti.csc.fi reporting.
  Task      223 on host c2265.mahti.csc.fi reporting.
  Task      224 on host c2265.mahti.csc.fi reporting.
  Task      225 on host c2265.mahti.csc.fi reporting.
  Task      226 on host c2265.mahti.csc.fi reporting.
  Task      227 on host c2265.mahti.csc.fi reporting.
  Task      228 on host c2265.mahti.csc.fi reporting.
  Task      229 on host c2265.mahti.csc.fi reporting.
  Task      230 on host c2265.mahti.csc.fi reporting.
  Task      231 on host c2265.mahti.csc.fi reporting.
  Task      232 on host c2265.mahti.csc.fi reporting.
  Task      233 on host c2265.mahti.csc.fi reporting.
  Task      234 on host c2265.mahti.csc.fi reporting.
  Task      235 on host c2265.mahti.csc.fi reporting.
  Task      236 on host c2265.mahti.csc.fi reporting.
  Task      237 on host c2265.mahti.csc.fi reporting.
  Task      238 on host c2265.mahti.csc.fi reporting.
  Task      239 on host c2265.mahti.csc.fi reporting.
  Task      240 on host c2265.mahti.csc.fi reporting.
  Task      241 on host c2265.mahti.csc.fi reporting.
  Task      242 on host c2265.mahti.csc.fi reporting.
  Task      243 on host c2265.mahti.csc.fi reporting.
  Task      244 on host c2265.mahti.csc.fi reporting.
  Task      245 on host c2265.mahti.csc.fi reporting.
  Task      246 on host c2265.mahti.csc.fi reporting.
  Task      247 on host c2265.mahti.csc.fi reporting.
  Task      248 on host c2265.mahti.csc.fi reporting.
  Task      249 on host c2265.mahti.csc.fi reporting.
  Task      250 on host c2265.mahti.csc.fi reporting.
  Task      251 on host c2265.mahti.csc.fi reporting.
  Task      252 on host c2265.mahti.csc.fi reporting.
  Task      253 on host c2265.mahti.csc.fi reporting.
  Task      254 on host c2265.mahti.csc.fi reporting.
  Task      255 on host c2265.mahti.csc.fi reporting.

  Obtaining array dimensions for all initial allocations:
  
  -----------------------------------------------------------------------
  Parsing control.in (first pass over file, find array dimensions only).
  The contents of control.in will be repeated verbatim below
  unless switched off by setting 'verbatim_writeout .false.' .
  in the first line of control.in .
  -----------------------------------------------------------------------
  
  xc            pbe
  relativistic  atomic_zora scalar
  vdw_correction_hirshfeld
  relax_geometry bfgs 1e-4
  output_level MD_light
  k_grid 1 1 1
  sc_accuracy_rho 1e-09
  use_dipole_correction .true.
  
  ################################################################################
  #
  #  FHI-aims code project
  #  VB, Fritz-Haber Institut, 2009
  #
  #  Suggested "light" defaults for Ag atom (to be pasted into control.in file)
  #  Be sure to double-check any results obtained with these settings for post-processing,
  #  e.g., with the "tight" defaults and larger basis sets.
  #
  ################################################################################
    species        Ag
  #     global species definitions
      nucleus             47
      mass                107.8682
  #
      l_hartree           4
  #
      cut_pot             3.5  1.5  1.0
      basis_dep_cutoff    1e-4
  #
      radial_base         62 5.0
      radial_multiplier   1
      angular_grids specified
        division   0.5617   50
        division   0.9788  110
        division   1.2700  194
        division   1.5678  302
  #      division   2.1195  434
  #      division   2.1949  590
  #      division   2.2741  770
  #      division   2.8497 1202
  #      outer_grid  974
        outer_grid  302
  ################################################################################
  #
  #  Definition of "minimal" basis
  #
  ################################################################################
  #     valence basis states
      valence      5  s   1.
      valence      4  p   6.
      valence      4  d  10.
  #     ion occupancy
      ion_occ     5  s   0.
      ion_occ     4  p   6.
      ion_occ     4  d   9.
  ################################################################################
  #
  #  Suggested additional basis functions. For production calculations,
  #  uncomment them one after another (the most important basis functions are
  #  listed first).
  #
  #  Constructed for dimers: 2.1 A, 2.45 A, 3.00 A, 4.00 A
  #
  ################################################################################
  #  "First tier" - max. impr. -144.99  meV, min. impr. -3.42 meV
       ionic 5 p auto
       hydro 4 f 7.6
       hydro 3 s 2.6
  #     hydro 5 g 9.8
       hydro 4 d 8.4
  #  "Second tier" - max. impr. -3.10  meV, min. impr. -0.64 meV
  #     hydro 5 f 16.8
  #     hydro 6 h 13.2
  #     hydro 4 p 5
  #     hydro 4 d 4.3
  #     hydro 5 s 17.2
  #  "Third tier" - max. impr. -0.48  meV, min. impr. -0.12 meV
  #     hydro 4 f 19.2
  #     hydro 5 f 8.4
  #     hydro 6 p 12
  #     hydro 5 g 12.8
  #     hydro 5 d 8.4
  #     hydro 5 s 5.8
  #     hydro 6 h 15.2
  
  
  
  ################################################################################
  #
  #  FHI-aims code project
  #  VB, Fritz-Haber Institut, 2009
  #
  #  Suggested "light" defaults for C atom (to be pasted into control.in file)
  #  Be sure to double-check any results obtained with these settings for post-processing,
  #  e.g., with the "tight" defaults and larger basis sets.
  #
  ################################################################################
    species        C
  #     global species definitions
      nucleus             6
      mass                12.0107
  #
      l_hartree           4
  #
      cut_pot             3.5  1.5  1.0
      basis_dep_cutoff    1e-4
  #
      radial_base         34 5.0
      radial_multiplier   1
      angular_grids specified
        division   0.3326   50
        division   0.5710  110
        division   0.7727  194
        division   0.8772  302
  #      division   0.9334  434
  #      division   0.9625  590
  #      division   0.9924  770
  #      division   1.0230  974
  #      division   1.4589 1202
  #     outer_grid  974
       outer_grid 302
  ################################################################################
  #
  #  Definition of "minimal" basis
  #
  ################################################################################
  #     valence basis states
      valence      2  s   2.
      valence      2  p   2.
  #     ion occupancy
      ion_occ      2  s   1.
      ion_occ      2  p   1.
  ################################################################################
  #
  #  Suggested additional basis functions. For production calculations,
  #  uncomment them one after another (the most important basis functions are
  #  listed first).
  #
  #  Constructed for dimers: 1.0 A, 1.25 A, 1.5 A, 2.0 A, 3.0 A
  #
  ################################################################################
  #  "First tier" - improvements: -1214.57 meV to -155.61 meV
       hydro 2 p 1.7
       hydro 3 d 6
       hydro 2 s 4.9
  #  "Second tier" - improvements: -67.75 meV to -5.23 meV
  #     hydro 4 f 9.8
  #     hydro 3 p 5.2
  #     hydro 3 s 4.3
  #     hydro 5 g 14.4
  #     hydro 3 d 6.2
  #  "Third tier" - improvements: -2.43 meV to -0.60 meV
  #     hydro 2 p 5.6
  #     hydro 2 s 1.4
  #     hydro 3 d 4.9
  #     hydro 4 f 11.2
  #  "Fourth tier" - improvements: -0.39 meV to -0.18 meV
  #     hydro 2 p 2.1
  #     hydro 5 g 16.4
  #     hydro 4 d 13.2
  #     hydro 3 s 13.6
  #     hydro 4 f 17.6
  #  Further basis functions - improvements: -0.08 meV and below
  #     hydro 3 s 2
  #     hydro 3 p 6
  #     hydro 4 d 20
  
  ################################################################################
  #
  #  FHI-aims code project
  #  VB, Fritz-Haber Institut, 2009
  #
  #  Suggested "light" defaults for H atom (to be pasted into control.in file)
  #  Be sure to double-check any results obtained with these settings for post-processing,
  #  e.g., with the "tight" defaults and larger basis sets.
  #
  ################################################################################
    species        H
  #     global species definitions
      nucleus             1
      mass                1.00794
  #
      l_hartree           4
  #
      cut_pot             3.5  1.5  1.0
      basis_dep_cutoff    1e-4
  #
      radial_base         24 5.0
      radial_multiplier   1
      angular_grids       specified
        division   0.2421   50
        division   0.3822  110
        division   0.4799  194
        division   0.5341  302
  #      division   0.5626  434
  #      division   0.5922  590
  #      division   0.6542  770
  #      division   0.6868 1202
  #      outer_grid  770
        outer_grid  302
  ################################################################################
  #
  #  Definition of "minimal" basis
  #
  ################################################################################
  #     valence basis states
      valence      1  s   1.
  #     ion occupancy
      ion_occ      1  s   0.5
  ################################################################################
  #
  #  Suggested additional basis functions. For production calculations,
  #  uncomment them one after another (the most important basis functions are
  #  listed first).
  #
  #  Basis constructed for dimers: 0.5 A, 0.7 A, 1.0 A, 1.5 A, 2.5 A
  #
  ################################################################################
  #  "First tier" - improvements: -1014.90 meV to -62.69 meV
       hydro 2 s 2.1
       hydro 2 p 3.5
  #  "Second tier" - improvements: -12.89 meV to -1.83 meV
  #     hydro 1 s 0.85
  #     hydro 2 p 3.7
  #     hydro 2 s 1.2
  #     hydro 3 d 7
  #  "Third tier" - improvements: -0.25 meV to -0.12 meV
  #     hydro 4 f 11.2
  #     hydro 3 p 4.8
  #     hydro 4 d 9
  #     hydro 3 s 3.2
  
  ################################################################################
  #
  #  FHI-aims code project
  #  VB, Fritz-Haber Institut, 2009
  #
  #  Suggested "light" defaults for N atom (to be pasted into control.in file)
  #  Be sure to double-check any results obtained with these settings for post-processing,
  #  e.g., with the "tight" defaults and larger basis sets.
  #
  ################################################################################
    species        N
  #     global species definitions
      nucleus             7
      mass                14.0067
  #
      l_hartree           4
  #
      cut_pot             3.5  1.5  1.0
      basis_dep_cutoff    1e-4
  #
      radial_base         35 5.0
      radial_multiplier   1
      angular_grids       specified
        division   0.2599   50
        division   0.4601  110
        division   0.5885  194
        division   0.6503  302
  #      division   0.6939  434
  #      division   0.7396  590
  #      division   0.7632  770
  #      division   0.8122  974
  #      division   1.1604 1202
  #      outer_grid  974
        outer_grid  302
  ################################################################################
  #
  #  Definition of "minimal" basis
  #
  ################################################################################
  #     valence basis states
      valence      2  s   2.
      valence      2  p   3.
  #     ion occupancy
      ion_occ      2  s   1.
      ion_occ      2  p   2.
  ################################################################################
  #
  #  Suggested additional basis functions. For production calculations,
  #  uncomment them one after another (the most important basis functions are
  #  listed first).
  #
  #  Constructed for dimers: 1.0 A, 1.1 A, 1.5 A, 2.0 A, 3.0 A
  #
  ################################################################################
  #  "First tier" - improvements: -1193.42 meV to -220.60 meV
       hydro 2 p 1.8
       hydro 3 d 6.8
       hydro 3 s 5.8
  #  "Second tier" - improvements: -80.21 meV to -6.86 meV
  #     hydro 4 f 10.8
  #     hydro 3 p 5.8
  #     hydro 1 s 0.8
  #     hydro 5 g 16
  #     hydro 3 d 4.9
  #  "Third tier" - improvements: -4.29 meV to -0.53 meV
  #     hydro 3 s 16
  #     ionic 2 p auto
  #     hydro 3 d 6.6
  #     hydro 4 f 11.6
  #  "Fourth tier" - improvements: -0.75 meV to -0.25 meV
  #     hydro 2 p 4.5
  #     hydro 2 s 2.4
  #     hydro 5 g 14.4
  #     hydro 4 d 14.4
  #     hydro 4 f 16.8
  # Further basis functions - -0.21 meV and below
  #     hydro 3 p 14.8
  #     hydro 3 s 4.4
  #     hydro 3 d 19.6
  #     hydro 5 g 12.8
  
  ################################################################################
  #
  #  FHI-aims code project
  #  VB, Fritz-Haber Institut, 2010
  #
  #  Suggested "light" defaults for Zn atom (to be pasted into control.in file)
  #  Be sure to double-check any results obtained with these settings for post-processing,
  #  e.g., with the "tight" defaults and larger basis sets.
  #
  ################################################################################
    species        Zn
  #     global species definitions
      nucleus             30
      mass                65.409
  #
      l_hartree           4
  #
      cut_pot             3.5          1.5  1.0
      basis_dep_cutoff    1e-4
  #
      radial_base         53 5.0
      radial_multiplier   1
      angular_grids       specified
        division   0.5114   50
        division   0.8989  110
        division   1.2692  194
        division   1.6226  302
  #      division   1.7854  434
  #      division   2.0877  590
  #      division   2.1298  770
  #      division   2.1730  974
  #      division   2.5659 1202
        outer_grid  302
  ################################################################################
  #
  #  Definition of "minimal" basis
  #
  ################################################################################
  #     valence basis states
      valence      4  s   2.
      valence      3  p   6.
      valence      3  d  10.
  #     ion occupancy
      ion_occ      4  s   1.
      ion_occ      3  p   6.
      ion_occ      3  d   9.
  ################################################################################
  #
  #  Suggested additional basis functions. For production calculations,
  #  uncomment them one after another (the most important basis functions are
  #  listed first).
  #
  #  Constructed for dimers: 2.00 A, 2.30 A, 2.85 A, 3.50 A, 4.25 A
  #
  ################################################################################
  #  "First tier" - improvements: -270.82 meV to -12.81 meV
       hydro 2 p 1.7
       hydro 3 s 2.9
       hydro 4 p 5.4
       hydro 4 f 7.8
       hydro 3 d 4.5
  #  "Second tier" - improvements: -3.35 meV to -0.82 meV
  #     hydro 5 g 10.8
  #     hydro 2 p 2.4
  #     hydro 3 s 6.2
  #     hydro 3 d 3
  #  "Third tier" - improvements: -0.61 meV to -0.12 meV
  #     hydro 6 h 15.2
  #     ionic 4 p auto
  #     hydro 5 s 12.8
  #     hydro 4 f 5.4
  #     hydro 4 d 7
  #  Further functions - improvements: -0.16 meV and below
  #     hydro 4 f 20
  #     hydro 3 p 2.2
  #     hydro 5 f 6.4
  #     hydro 5 g 8
  
  -----------------------------------------------------------------------
  Completed first pass over input file control.in .
  -----------------------------------------------------------------------
  
  
  -----------------------------------------------------------------------
  Parsing geometry.in (first pass over file, find array dimensions only).
  The contents of geometry.in will be repeated verbatim below
  unless switched off by setting 'verbatim_writeout .false.' .
  in the first line of geometry.in .
  -----------------------------------------------------------------------
  
  #
  # This is the geometry file that corresponds to the current relaxation step.
  # If you do not want this file to be written, set the "write_restart_geometry" flag to .false.
  #  aims_uuid : 17D43B0B-45F0-4456-A6AB-B49CD7A7ACDA
  #
    set_vacuum_level        48.653314
  lattice_vector     23.515543120000      0.000000000000      0.000000000000
  lattice_vector      0.000000000000     23.515543120000      0.000000000000
  lattice_vector      0.000000000000      0.000000000000    106.235500000000
  atom      -3.811987904282      1.866201294755     -0.030737982872 C
  atom      -2.367479519587      1.870492276352      0.061019085416 C
  atom      -0.295971475706      3.002014109592      0.106101929188 C
  atom       0.506503856821      4.229086306702      0.076579730491 C
  atom      -4.215193096345      0.498185788300     -0.055337729285 C
  atom      -3.004584309644     -0.292473228566      0.027870537927 C
  atom      -1.873000302865     -2.364372065826      0.106764723849 C
  atom      -1.861665644597     -3.831881611121      0.082322689523 C
  atom      -1.621110970543      2.995654624225      0.080681785195 N
  atom      -2.983450560233     -1.643615382095      0.055338113856 N
  atom       1.861723208778      3.831864911423      0.082304703110 C
  atom       1.873058626065      2.364355343488      0.106741489475 C
  atom       3.004640666280      0.292460399137      0.027850782344 C
  atom       4.215249460421     -0.498200492638     -0.055344445625 C
  atom       2.367534514763     -1.870502808262      0.061015461316 C
  atom       3.812043189397     -1.866214303070     -0.030733075177 C
  atom      -0.506445906829     -4.229104726541      0.076586806445 C
  atom       0.296031438993     -3.002034069027      0.106108693416 C
  atom       2.983511030393      1.643602183690      0.055310985666 N
  atom       1.621170450569     -2.995668438185      0.080681424884 N
  atom      -1.925555552474      0.566817664481      0.095447351949 N
  atom       0.565104810664      1.918276836510      0.130289515620 N
  atom       1.925609073434     -0.566825961371      0.095429279681 N
  atom      -0.565043913108     -1.918298238368      0.130306421477 N
  atom       0.149374274891      5.581038997306      0.002239554577 C
  atom       0.000016261204     -0.000017799982     -0.035629145894 Zn
  atom       2.890469363119      4.776967132462      0.016962595395 C
  atom       1.180270315256      6.527926893317     -0.057811322121 C
  atom       2.535550415857      6.131649855846     -0.057927492702 C
  atom      -0.899609277921      5.880735094794      0.017551388974 H
  atom       3.935291246927      4.463699785120      0.020669398875 H
  atom       3.315292830951      6.894835191785     -0.083902693935 H
  atom       0.937791182883      7.590348760167     -0.108213396576 H
  atom       5.576073258430     -0.152983012564     -0.145860824514 C
  atom       4.761639570757     -2.898756096509     -0.102115154829 C
  atom       6.515436859005     -1.186800138428     -0.209301216654 C
  atom       6.113485443925     -2.549972640170     -0.199445023587 C
  atom       5.885687741990      0.893036585112     -0.113347374514 H
  atom       4.448851734526     -3.943220913601     -0.063512803420 H
  atom       6.876092823928     -3.330582272074     -0.199617417903 H
  atom       7.579749255409     -0.950586993725     -0.248228536602 H
  atom      -5.576016151930      0.152966531954     -0.145856522084 C
  atom      -4.761585281798      2.898741053497     -0.102133338690 C
  atom      -6.515380451667      1.186781748134     -0.209312670513 C
  atom      -6.113430511572      2.549955324288     -0.199468016326 C
  atom      -5.885629450891     -0.893053173559     -0.113335102746 H
  atom      -4.448799471455      3.943206716280     -0.063537946197 H
  atom      -6.876038675814      3.330564235786     -0.199646653493 H
  atom      -7.579692495812      0.950567692453     -0.248241930984 H
  atom      -0.149318936963     -5.581057727709      0.002239462432 C
  atom      -2.890412905919     -4.776982835679      0.016985135081 C
  atom      -1.180216553180     -6.527944119660     -0.057808818441 C
  atom      -2.535496247301     -6.131665335260     -0.057913235156 C
  atom       0.899664304162     -5.880755262916      0.017543186069 H
  atom      -3.935234431756     -4.463714433620      0.020699487279 H
  atom      -3.315239504009     -6.894849911168     -0.083886280491 H
  atom      -0.937739097440     -7.590366200644     -0.108214966978 H
  atom      -7.348607470000    -10.288090540000     -9.059144260000 Ag
    constrain_relaxation .true.
  atom      -4.409164580000    -10.288090540000     -9.059144260000 Ag
    constrain_relaxation .true.
  atom      -1.469721690000    -10.288090540000     -9.059144260000 Ag
    constrain_relaxation .true.
  atom       1.469721200000    -10.288090540000     -9.059144260000 Ag
    constrain_relaxation .true.
  atom       4.409164090000    -10.288090540000     -9.059144260000 Ag
    constrain_relaxation .true.
  atom       7.348606980000    -10.288090540000     -9.059144260000 Ag
    constrain_relaxation .true.
  atom      10.288049870000    -10.288090540000     -9.059144260000 Ag
    constrain_relaxation .true.
  atom      13.227492760000    -10.288090540000     -9.059144260000 Ag
    constrain_relaxation .true.
  atom      -7.348607470000     -7.348647650000     -9.059144260000 Ag
    constrain_relaxation .true.
  atom      -4.409164580000     -7.348647650000     -9.059144260000 Ag
    constrain_relaxation .true.
  atom      -1.469721690000     -7.348647650000     -9.059144260000 Ag
    constrain_relaxation .true.
  atom       1.469721200000     -7.348647650000     -9.059144260000 Ag
    constrain_relaxation .true.
  atom       4.409164090000     -7.348647650000     -9.059144260000 Ag
    constrain_relaxation .true.
  atom       7.348606980000     -7.348647650000     -9.059144260000 Ag
    constrain_relaxation .true.
  atom      10.288049870000     -7.348647650000     -9.059144260000 Ag
    constrain_relaxation .true.
  atom      13.227492760000     -7.348647650000     -9.059144260000 Ag
    constrain_relaxation .true.
  atom      -7.348607470000     -4.409204760000     -9.059144260000 Ag
    constrain_relaxation .true.
  atom      -4.409164580000     -4.409204760000     -9.059144260000 Ag
    constrain_relaxation .true.
  atom      -1.469721690000     -4.409204760000     -9.059144260000 Ag
    constrain_relaxation .true.
  atom       1.469721200000     -4.409204760000     -9.059144260000 Ag
    constrain_relaxation .true.
  atom       4.409164090000     -4.409204760000     -9.059144260000 Ag
    constrain_relaxation .true.
  atom       7.348606980000     -4.409204760000     -9.059144260000 Ag
    constrain_relaxation .true.
  atom      10.288049870000     -4.409204760000     -9.059144260000 Ag
    constrain_relaxation .true.
  atom      13.227492760000     -4.409204760000     -9.059144260000 Ag
    constrain_relaxation .true.
  atom      -7.348607470000     -1.469761870000     -9.059144260000 Ag
    constrain_relaxation .true.
  atom      -4.409164580000     -1.469761870000     -9.059144260000 Ag
    constrain_relaxation .true.
  atom      -1.469721690000     -1.469761870000     -9.059144260000 Ag
    constrain_relaxation .true.
  atom       1.469721200000     -1.469761870000     -9.059144260000 Ag
    constrain_relaxation .true.
  atom       4.409164090000     -1.469761870000     -9.059144260000 Ag
    constrain_relaxation .true.
  atom       7.348606980000     -1.469761870000     -9.059144260000 Ag
    constrain_relaxation .true.
  atom      10.288049870000     -1.469761870000     -9.059144260000 Ag
    constrain_relaxation .true.
  atom      13.227492760000     -1.469761870000     -9.059144260000 Ag
    constrain_relaxation .true.
  atom      -7.348607470000      1.469681020000     -9.059144260000 Ag
    constrain_relaxation .true.
  atom      -4.409164580000      1.469681020000     -9.059144260000 Ag
    constrain_relaxation .true.
  atom      -1.469721690000      1.469681020000     -9.059144260000 Ag
    constrain_relaxation .true.
  atom       1.469721200000      1.469681020000     -9.059144260000 Ag
    constrain_relaxation .true.
  atom       4.409164090000      1.469681020000     -9.059144260000 Ag
    constrain_relaxation .true.
  atom       7.348606980000      1.469681020000     -9.059144260000 Ag
    constrain_relaxation .true.
  atom      10.288049870000      1.469681020000     -9.059144260000 Ag
    constrain_relaxation .true.
  atom      13.227492760000      1.469681020000     -9.059144260000 Ag
    constrain_relaxation .true.
  atom      -7.348607470000      4.409123910000     -9.059144260000 Ag
    constrain_relaxation .true.
  atom      -4.409164580000      4.409123910000     -9.059144260000 Ag
    constrain_relaxation .true.
  atom      -1.469721690000      4.409123910000     -9.059144260000 Ag
    constrain_relaxation .true.
  atom       1.469721200000      4.409123910000     -9.059144260000 Ag
    constrain_relaxation .true.
  atom       4.409164090000      4.409123910000     -9.059144260000 Ag
    constrain_relaxation .true.
  atom       7.348606980000      4.409123910000     -9.059144260000 Ag
    constrain_relaxation .true.
  atom      10.288049870000      4.409123910000     -9.059144260000 Ag
    constrain_relaxation .true.
  atom      13.227492760000      4.409123910000     -9.059144260000 Ag
    constrain_relaxation .true.
  atom      -7.348607470000      7.348566800000     -9.059144260000 Ag
    constrain_relaxation .true.
  atom      -4.409164580000      7.348566800000     -9.059144260000 Ag
    constrain_relaxation .true.
  atom      -1.469721690000      7.348566800000     -9.059144260000 Ag
    constrain_relaxation .true.
  atom       1.469721200000      7.348566800000     -9.059144260000 Ag
    constrain_relaxation .true.
  atom       4.409164090000      7.348566800000     -9.059144260000 Ag
    constrain_relaxation .true.
  atom       7.348606980000      7.348566800000     -9.059144260000 Ag
    constrain_relaxation .true.
  atom      10.288049870000      7.348566800000     -9.059144260000 Ag
    constrain_relaxation .true.
  atom      13.227492760000      7.348566800000     -9.059144260000 Ag
    constrain_relaxation .true.
  atom      -7.348607470000     10.288009690000     -9.059144260000 Ag
    constrain_relaxation .true.
  atom      -4.409164580000     10.288009690000     -9.059144260000 Ag
    constrain_relaxation .true.
  atom      -1.469721690000     10.288009690000     -9.059144260000 Ag
    constrain_relaxation .true.
  atom       1.469721200000     10.288009690000     -9.059144260000 Ag
    constrain_relaxation .true.
  atom       4.409164090000     10.288009690000     -9.059144260000 Ag
    constrain_relaxation .true.
  atom       7.348606980000     10.288009690000     -9.059144260000 Ag
    constrain_relaxation .true.
  atom      10.288049870000     10.288009690000     -9.059144260000 Ag
    constrain_relaxation .true.
  atom      13.227492760000     10.288009690000     -9.059144260000 Ag
    constrain_relaxation .true.
  atom      -8.818328910000    -11.757811980000     -6.980644580000 Ag
    constrain_relaxation .true.
  atom      -5.878886020000    -11.757811980000     -6.980644580000 Ag
    constrain_relaxation .true.
  atom      -2.939443130000    -11.757811980000     -6.980644580000 Ag
    constrain_relaxation .true.
  atom      -0.000000240000    -11.757811980000     -6.980644580000 Ag
    constrain_relaxation .true.
  atom       2.939442650000    -11.757811980000     -6.980644580000 Ag
    constrain_relaxation .true.
  atom       5.878885540000    -11.757811980000     -6.980644580000 Ag
    constrain_relaxation .true.
  atom       8.818328430000    -11.757811980000     -6.980644580000 Ag
    constrain_relaxation .true.
  atom      11.757771320000    -11.757811980000     -6.980644580000 Ag
    constrain_relaxation .true.
  atom      -8.818328910000     -8.818369090000     -6.980644580000 Ag
    constrain_relaxation .true.
  atom      -5.878886020000     -8.818369090000     -6.980644580000 Ag
    constrain_relaxation .true.
  atom      -2.939443130000     -8.818369090000     -6.980644580000 Ag
    constrain_relaxation .true.
  atom      -0.000000240000     -8.818369090000     -6.980644580000 Ag
    constrain_relaxation .true.
  atom       2.939442650000     -8.818369090000     -6.980644580000 Ag
    constrain_relaxation .true.
  atom       5.878885540000     -8.818369090000     -6.980644580000 Ag
    constrain_relaxation .true.
  atom       8.818328430000     -8.818369090000     -6.980644580000 Ag
    constrain_relaxation .true.
  atom      11.757771320000     -8.818369090000     -6.980644580000 Ag
    constrain_relaxation .true.
  atom      -8.818328910000     -5.878926200000     -6.980644580000 Ag
    constrain_relaxation .true.
  atom      -5.878886020000     -5.878926200000     -6.980644580000 Ag
    constrain_relaxation .true.
  atom      -2.939443130000     -5.878926200000     -6.980644580000 Ag
    constrain_relaxation .true.
  atom      -0.000000240000     -5.878926200000     -6.980644580000 Ag
    constrain_relaxation .true.
  atom       2.939442650000     -5.878926200000     -6.980644580000 Ag
    constrain_relaxation .true.
  atom       5.878885540000     -5.878926200000     -6.980644580000 Ag
    constrain_relaxation .true.
  atom       8.818328430000     -5.878926200000     -6.980644580000 Ag
    constrain_relaxation .true.
  atom      11.757771320000     -5.878926200000     -6.980644580000 Ag
    constrain_relaxation .true.
  atom      -8.818328910000     -2.939483310000     -6.980644580000 Ag
    constrain_relaxation .true.
  atom      -5.878886020000     -2.939483310000     -6.980644580000 Ag
    constrain_relaxation .true.
  atom      -2.939443130000     -2.939483310000     -6.980644580000 Ag
    constrain_relaxation .true.
  atom      -0.000000240000     -2.939483310000     -6.980644580000 Ag
    constrain_relaxation .true.
  atom       2.939442650000     -2.939483310000     -6.980644580000 Ag
    constrain_relaxation .true.
  atom       5.878885540000     -2.939483310000     -6.980644580000 Ag
    constrain_relaxation .true.
  atom       8.818328430000     -2.939483310000     -6.980644580000 Ag
    constrain_relaxation .true.
  atom      11.757771320000     -2.939483310000     -6.980644580000 Ag
    constrain_relaxation .true.
  atom      -8.818328910000     -0.000040420000     -6.980644580000 Ag
    constrain_relaxation .true.
  atom      -5.878886020000     -0.000040420000     -6.980644580000 Ag
    constrain_relaxation .true.
  atom      -2.939443130000     -0.000040420000     -6.980644580000 Ag
    constrain_relaxation .true.
  atom      -0.000000240000     -0.000040420000     -6.980644580000 Ag
    constrain_relaxation .true.
  atom       2.939442650000     -0.000040420000     -6.980644580000 Ag
    constrain_relaxation .true.
  atom       5.878885540000     -0.000040420000     -6.980644580000 Ag
    constrain_relaxation .true.
  atom       8.818328430000     -0.000040420000     -6.980644580000 Ag
    constrain_relaxation .true.
  atom      11.757771320000     -0.000040420000     -6.980644580000 Ag
    constrain_relaxation .true.
  atom      -8.818328910000      2.939402470000     -6.980644580000 Ag
    constrain_relaxation .true.
  atom      -5.878886020000      2.939402470000     -6.980644580000 Ag
    constrain_relaxation .true.
  atom      -2.939443130000      2.939402470000     -6.980644580000 Ag
    constrain_relaxation .true.
  atom      -0.000000240000      2.939402470000     -6.980644580000 Ag
    constrain_relaxation .true.
  atom       2.939442650000      2.939402470000     -6.980644580000 Ag
    constrain_relaxation .true.
  atom       5.878885540000      2.939402470000     -6.980644580000 Ag
    constrain_relaxation .true.
  atom       8.818328430000      2.939402470000     -6.980644580000 Ag
    constrain_relaxation .true.
  atom      11.757771320000      2.939402470000     -6.980644580000 Ag
    constrain_relaxation .true.
  atom      -8.818328910000      5.878845360000     -6.980644580000 Ag
    constrain_relaxation .true.
  atom      -5.878886020000      5.878845360000     -6.980644580000 Ag
    constrain_relaxation .true.
  atom      -2.939443130000      5.878845360000     -6.980644580000 Ag
    constrain_relaxation .true.
  atom      -0.000000240000      5.878845360000     -6.980644580000 Ag
    constrain_relaxation .true.
  atom       2.939442650000      5.878845360000     -6.980644580000 Ag
    constrain_relaxation .true.
  atom       5.878885540000      5.878845360000     -6.980644580000 Ag
    constrain_relaxation .true.
  atom       8.818328430000      5.878845360000     -6.980644580000 Ag
    constrain_relaxation .true.
  atom      11.757771320000      5.878845360000     -6.980644580000 Ag
    constrain_relaxation .true.
  atom      -8.818328910000      8.818288250000     -6.980644580000 Ag
    constrain_relaxation .true.
  atom      -5.878886020000      8.818288250000     -6.980644580000 Ag
    constrain_relaxation .true.
  atom      -2.939443130000      8.818288250000     -6.980644580000 Ag
    constrain_relaxation .true.
  atom      -0.000000240000      8.818288250000     -6.980644580000 Ag
    constrain_relaxation .true.
  atom       2.939442650000      8.818288250000     -6.980644580000 Ag
    constrain_relaxation .true.
  atom       5.878885540000      8.818288250000     -6.980644580000 Ag
    constrain_relaxation .true.
  atom       8.818328430000      8.818288250000     -6.980644580000 Ag
    constrain_relaxation .true.
  atom      11.757771320000      8.818288250000     -6.980644580000 Ag
    constrain_relaxation .true.
  atom      -7.348566739560    -10.286940150514     -4.982620871123 Ag
  atom      -4.410713013085    -10.287772236341     -4.986816075065 Ag
  atom      -1.468216241110    -10.287421386914     -4.986110309039 Ag
  atom       1.471659376196    -10.288851066295     -4.986721804530 Ag
  atom       4.407894311345    -10.287660228856     -4.982721173679 Ag
  atom       7.348974636394    -10.287647200490     -4.983746660343 Ag
  atom      10.288601556392    -10.288156591066     -4.982903920974 Ag
  atom      13.226899823899    -10.288949019226     -4.983402466581 Ag
  atom      -7.347409466609     -7.349441747515     -4.984750168446 Ag
  atom      -4.405256162871     -7.345575664445     -4.982053784275 Ag
  atom      -1.470318162672     -7.339515866254     -4.977650369724 Ag
  atom       1.467234568078     -7.344444477273     -4.982162608439 Ag
  atom       4.408258733973     -7.346332423560     -4.985364830943 Ag
  atom       7.347909295019     -7.347268834919     -4.984811472382 Ag
  atom      10.286779890929     -7.349645981366     -4.983211621895 Ag
  atom      13.228153770040     -7.349308455782     -4.983170322226 Ag
  atom      -7.347817323642     -4.409673878031     -4.986165138619 Ag
  atom      -4.407636331152     -4.411763356474     -4.985578457905 Ag
  atom      -1.474590166349     -4.419123436724     -4.977889007168 Ag
  atom       1.469722886477     -4.416812042727     -4.990516730332 Ag
  atom       4.412753902143     -4.402933273634     -4.978995843057 Ag
  atom       7.341936037470     -4.403321736874     -4.980528064994 Ag
  atom      10.288310946656     -4.412718269955     -4.988434395530 Ag
  atom      13.228764797380     -4.409435569498     -4.983620484631 Ag
  atom      -7.342550709743     -1.465121653100     -4.982366592941 Ag
  atom      -4.420672344956     -1.463474587014     -4.988175447034 Ag
  atom      -1.471805122652     -1.471296362603     -5.003178036900 Ag
  atom       1.474612230383     -1.469761145340     -5.000736416727 Ag
  atom       4.424622498349     -1.476695301841     -4.969180421831 Ag
  atom       7.333802301313     -1.472227064799     -4.971426203824 Ag
  atom      10.287304777239     -1.469076666558     -4.989970082980 Ag
  atom      13.227011411757     -1.473260308897     -4.988605029844 Ag
  atom      -7.333804500671      1.472146126688     -4.971426623404 Ag
  atom      -4.424623301824      1.476614914737     -4.969181347936 Ag
  atom      -1.474612774009      1.469678727241     -5.000736572412 Ag
  atom       1.471803258278      1.471215320827     -5.003178211268 Ag
  atom       4.420671470258      1.463393625716     -4.988174637317 Ag
  atom       7.342551488492      1.465041129748     -4.982367025730 Ag
  atom      10.288529819923      1.473180301144     -4.988607152612 Ag
  atom      13.228237106715      1.468994986627     -4.989969242504 Ag
  atom      -7.341936926580      4.403239951246     -4.980527288779 Ag
  atom      -4.412753955979      4.402851925129     -4.978995625801 Ag
  atom      -1.469724295118      4.416730853403     -4.990516092422 Ag
  atom       1.474590634751      4.419042302728     -4.977886858338 Ag
  atom       4.407635106590      4.411682337360     -4.985579067069 Ag
  atom       7.347817960291      4.409593002983     -4.986165760825 Ag
  atom      10.286777362980      4.409354092786     -4.983620861250 Ag
  atom      13.227231433959      4.412637264332     -4.988433826359 Ag
  atom      -7.347911591129      7.347187306998     -4.984811026654 Ag
  atom      -4.408258450864      7.346252394681     -4.985363917662 Ag
  atom      -1.467235587205      7.344361264028     -4.982162695125 Ag
  atom       1.470317440035      7.339432480030     -4.977650217060 Ag
  atom       4.405255856014      7.345495430116     -4.982054254211 Ag
  atom       7.347408399882      7.349360568022     -4.984750767233 Ag
  atom      10.287389429084      7.349227924296     -4.983171860092 Ag
  atom      13.228761677724      7.349565264985     -4.983211560505 Ag
  atom      -7.348975833888     10.287565042008     -4.983747287010 Ag
  atom      -4.407895450432     10.287578615353     -4.982721286711 Ag
  atom      -1.471660257722     10.288769514184     -4.986721830173 Ag
  atom       1.468215899549     10.287339829846     -4.986110743369 Ag
  atom       4.410712185720     10.287690802578     -4.986816756884 Ag
  atom       7.348566405382     10.286858593045     -4.982620857356 Ag
  atom      10.288642203740     10.288867537505     -4.983402976665 Ag
  atom      13.226940241462     10.288074256065     -4.982904540355 Ag
  atom      -8.818584297904    -11.757594581705     -3.009978491347 Ag
  atom      -5.877750185541    -11.757366375483     -3.014105974309 Ag
  atom      -2.937184270909    -11.759082669724     -3.011692331323 Ag
  atom       0.000000022396    -11.757812119533     -3.007185799607 Ag
  atom       2.937183406704    -11.756543638316     -3.011692571715 Ag
  atom       5.877749306386    -11.758259337344     -3.014105219347 Ag
  atom       8.818583647954    -11.758034681623     -3.009979089371 Ag
  atom      11.757770418735    -11.757812776903     -3.005368427360 Ag
  atom      -8.816707662722     -8.818261543188     -3.009971407143 Ag
  atom      -5.872724490733     -8.812268757457     -3.009519297644 Ag
  atom      -2.935317139901     -8.822240319567     -3.016866033022 Ag
  atom       0.001974175902     -8.822558486926     -3.020725167888 Ag
  atom       2.935122851108     -8.811651585811     -3.011085499919 Ag
  atom       5.876072544374     -8.816265078852     -3.011547708105 Ag
  atom       8.816468217399     -8.815873483520     -3.010588941190 Ag
  atom      11.758369061440     -8.819614493290     -3.009773663413 Ag
  atom      -8.816523382414     -5.877812463717     -3.011655955004 Ag
  atom      -5.881335964771     -5.877388560177     -3.006632691913 Ag
  atom      -2.954207109468     -5.874569913808     -3.001325466809 Ag
  atom       0.013060857793     -5.871200261169     -3.006787952269 Ag
  atom       2.944898573883     -5.875541354200     -3.004784062691 Ag
  atom       5.876788559968     -5.886285619587     -3.004976487688 Ag
  atom       8.812167972140     -5.872211357120     -3.011041579550 Ag
  atom      11.755602419659     -5.878434079311     -3.014662286986 Ag
  atom      -8.811536604311     -2.935098499709     -3.013602790140 Ag
  atom      -5.875944868906     -2.950223574133     -3.008553230455 Ag
  atom      -2.950570701461     -2.925541588128     -3.036679411226 Ag
  atom      -0.003237434357     -2.917991633000     -3.066663249792 Ag
  atom       2.919585887822     -2.945439698855     -3.030556025177 Ag
  atom       5.881128972159     -2.966317082091     -2.979641384781 Ag
  atom       8.830953404175     -2.936842243693     -3.022054938613 Ag
  atom      11.760565544743     -2.937044677528     -3.013537339825 Ag
  atom      -8.827644013721     -0.002777741161     -3.027339168570 Ag
  atom      -5.877101139146     -0.019245561348     -2.991610599282 Ag
  atom      -2.921775225662     -0.001640599631     -3.063157440828 Ag
  atom      -0.000001107210     -0.000041256215     -3.013847355993 Ag
  atom       2.921773000664      0.001557146541     -3.063160837325 Ag
  atom       5.877099955820      0.019166794410     -2.991607856497 Ag
  atom       8.827641484501      0.002696804763     -3.027340359163 Ag
  atom      11.757769919883     -0.000040579047     -3.011109627294 Ag
  atom      -8.830956385623      2.936761345958     -3.022054679933 Ag
  atom      -5.881133625913      2.966236038827     -2.979641624973 Ag
  atom      -2.919587830883      2.945356122475     -3.030557614614 Ag
  atom       0.003235273397      2.917908559115     -3.066662755000 Ag
  atom       2.950570843884      2.925459605775     -3.036678529138 Ag
  atom       5.875943402402      2.950144186303     -3.008553501266 Ag
  atom       8.811535161271      2.935017096343     -3.013602773917 Ag
  atom      11.754975729743      2.936962945087     -3.013537122206 Ag
  atom      -8.812169408659      5.872128564122     -3.011041257131 Ag
  atom      -5.876789070983      5.886204568537     -3.004976362351 Ag
  atom      -2.944898940615      5.875460102984     -3.004783311869 Ag
  atom      -0.013062365386      5.871118554881     -3.006785907921 Ag
  atom       2.954209269363      5.874490290205     -3.001323710697 Ag
  atom       5.881335431352      5.877308577252     -3.006632282841 Ag
  atom       8.816522650589      5.877730519569     -3.011656034968 Ag
  atom      11.759939498383      5.878352379757     -3.014662818767 Ag
  atom      -8.816468798028      8.815790490801     -3.010588346434 Ag
  atom      -5.876073532507      8.816182424429     -3.011548179903 Ag
  atom      -2.935123293983      8.811568177728     -3.011084521194 Ag
  atom      -0.001974518862      8.822476114024     -3.020725002344 Ag
  atom       2.935316503867      8.822160122587     -3.016867651639 Ag
  atom       5.872723175227      8.812186179484     -3.009518914528 Ag
  atom       8.816706125487      8.818179269986     -3.009971192967 Ag
  atom      11.757171595947      8.819531651420     -3.009773969423 Ag
  
  -----------------------------------------------------------------------
  Completed first pass over input file geometry.in .
  -----------------------------------------------------------------------
  

  Basic array size parameters:
  | Number of species                 :        5
  | Number of atoms                   :      313
  | Number of lattice vectors         :        3
  | Max. basis fn. angular momentum   :        3
  | Max. atomic/ionic basis occupied n:        5
  | Max. number of basis fn. types    :        3
  | Max. radial fns per species/type  :       10
  | Max. logarithmic grid size        :     1446
  | Max. radial integration grid size :       62
  | Max. angular integration grid size:      302
  | Max. angular grid division number :        8
  | Radial grid for Hartree potential :     1446
  | Number of spin channels           :        1

  Definition of standardized fundamental physical constants in this FHI-aims run:
  | Using the set of values used in FHI-aims up to 2024, which combines values from
  | different CODATA sets - see constants.f90.
  | Use the 'codata' keyword in control.in to change this selection.

  Memory overcommitment is allowed on your operating system.

------------------------------------------------------------
          Reading file control.in.
------------------------------------------------------------
  XC: Using PBE gradient-corrected functionals.
  Scalar relativistic treatment of kinetic energy: on-site free-atom approximation to ZORA.
  Geometry relaxation: Modified BFGS - TRM (trust radius method) for lattice optimization.
  Convergence accuracy for geometry relaxation: Maximum force <   0.100000E-03 eV/A.
  Requested output level: MD_light
  Found k-point grid:         1         1         1
  Convergence accuracy of self-consistent charge density:  0.1000E-08
  Using dipole correction.

  Reading configuration options for species Ag                  .
  | Found nuclear charge :  47.0000
  | Found atomic mass :    107.86820000000000      amu
  | Found l_max for Hartree potential  :   4
  | Found cutoff potl. onset [A], width [A], scale factor :    3.50000    1.50000    1.00000
  | Threshold for basis-dependent cutoff potential is   0.100000E-03
  | Found data for basic radial integration grid :    62 points, outermost radius =    5.000 A
  | Found multiplier for basic radial grid :   1
  | Found angular grid specification: user-specified.
  | Specified grid contains     5 separate shells.
  | Check grid settings after all constraints further below.
  | Found free-atom valence shell :  5 s   1.000
  | Found free-atom valence shell :  4 p   6.000
  | Found free-atom valence shell :  4 d  10.000
  | Found free-ion valence shell :  5 s   0.000
  | Found free-ion valence shell :  4 p   6.000
  | Found free-ion valence shell :  4 d   9.000
  | Found ionic basis function :  5 p , default cutoff radius.
  | Found hydrogenic basis function :  4 f   7.600
  | Found hydrogenic basis function :  3 s   2.600
  | Found hydrogenic basis function :  4 d   8.400
 | Encountered keyword species, ending the description of species Ag                  .
  Species Ag                  : Missing cutoff potential type.
  Defaulting to exp(1/x)/(1-x)^2 type cutoff potential.
  Species Ag: No 'logarithmic' tag. Using default grid for free atom:
  | Default logarithmic grid data [bohr] : 0.1000E-03 0.1000E+03 0.1012E+01
  | Will include ionic basis functions of  2.0-fold positive Ag                   ion.
  Species Ag: On-site basis accuracy parameter (for Gram-Schmidt orthonormalisation) not specified.
  Using default value basis_acc =  0.1000000E-03.
  Species Ag                  : Using default innermost maximum threshold i_radial=  2 for radial functions.
  Species Ag                  : Default cutoff onset for free atom density etc. : 0.35000000E+01 AA.
  Species Ag                  : Basic radial grid will be enhanced according to radial_multiplier =   1, to contain    62 grid points.

  Reading configuration options for species C                   .
  | Found nuclear charge :   6.0000
  | Found atomic mass :    12.010700000000000      amu
  | Found l_max for Hartree potential  :   4
  | Found cutoff potl. onset [A], width [A], scale factor :    3.50000    1.50000    1.00000
  | Threshold for basis-dependent cutoff potential is   0.100000E-03
  | Found data for basic radial integration grid :    34 points, outermost radius =    5.000 A
  | Found multiplier for basic radial grid :   1
  | Found angular grid specification: user-specified.
  | Specified grid contains     5 separate shells.
  | Check grid settings after all constraints further below.
  | Found free-atom valence shell :  2 s   2.000
  | Found free-atom valence shell :  2 p   2.000
  | Found free-ion valence shell :  2 s   1.000
  | Found free-ion valence shell :  2 p   1.000
  | Found hydrogenic basis function :  2 p   1.700
  | Found hydrogenic basis function :  3 d   6.000
  | Found hydrogenic basis function :  2 s   4.900
 | Encountered keyword species, ending the description of species C                   .
  Species C                   : Missing cutoff potential type.
  Defaulting to exp(1/x)/(1-x)^2 type cutoff potential.
  Species C : No 'logarithmic' tag. Using default grid for free atom:
  | Default logarithmic grid data [bohr] : 0.1000E-03 0.1000E+03 0.1012E+01
  Species C : On-site basis accuracy parameter (for Gram-Schmidt orthonormalisation) not specified.
  Using default value basis_acc =  0.1000000E-03.
  Species C                   : Using default innermost maximum threshold i_radial=  2 for radial functions.
  Species C                   : Default cutoff onset for free atom density etc. : 0.35000000E+01 AA.
  Species C                   : Basic radial grid will be enhanced according to radial_multiplier =   1, to contain    34 grid points.

  Reading configuration options for species H                   .
  | Found nuclear charge :   1.0000
  | Found atomic mass :    1.0079400000000001      amu
  | Found l_max for Hartree potential  :   4
  | Found cutoff potl. onset [A], width [A], scale factor :    3.50000    1.50000    1.00000
  | Threshold for basis-dependent cutoff potential is   0.100000E-03
  | Found data for basic radial integration grid :    24 points, outermost radius =    5.000 A
  | Found multiplier for basic radial grid :   1
  | Found angular grid specification: user-specified.
  | Specified grid contains     5 separate shells.
  | Check grid settings after all constraints further below.
  | Found free-atom valence shell :  1 s   1.000
  | Found free-ion valence shell :  1 s   0.500
  | Found hydrogenic basis function :  2 s   2.100
  | Found hydrogenic basis function :  2 p   3.500
 | Encountered keyword species, ending the description of species H                   .
  Species H                   : Missing cutoff potential type.
  Defaulting to exp(1/x)/(1-x)^2 type cutoff potential.
  Species H : No 'logarithmic' tag. Using default grid for free atom:
  | Default logarithmic grid data [bohr] : 0.1000E-03 0.1000E+03 0.1012E+01
  Species H : On-site basis accuracy parameter (for Gram-Schmidt orthonormalisation) not specified.
  Using default value basis_acc =  0.1000000E-03.
  Species H                   : Using default innermost maximum threshold i_radial=  2 for radial functions.
  Species H                   : Default cutoff onset for free atom density etc. : 0.35000000E+01 AA.
  Species H                   : Basic radial grid will be enhanced according to radial_multiplier =   1, to contain    24 grid points.

  Reading configuration options for species N                   .
  | Found nuclear charge :   7.0000
  | Found atomic mass :    14.006700000000000      amu
  | Found l_max for Hartree potential  :   4
  | Found cutoff potl. onset [A], width [A], scale factor :    3.50000    1.50000    1.00000
  | Threshold for basis-dependent cutoff potential is   0.100000E-03
  | Found data for basic radial integration grid :    35 points, outermost radius =    5.000 A
  | Found multiplier for basic radial grid :   1
  | Found angular grid specification: user-specified.
  | Specified grid contains     5 separate shells.
  | Check grid settings after all constraints further below.
  | Found free-atom valence shell :  2 s   2.000
  | Found free-atom valence shell :  2 p   3.000
  | Found free-ion valence shell :  2 s   1.000
  | Found free-ion valence shell :  2 p   2.000
  | Found hydrogenic basis function :  2 p   1.800
  | Found hydrogenic basis function :  3 d   6.800
  | Found hydrogenic basis function :  3 s   5.800
 | Encountered keyword species, ending the description of species N                   .
  Species N                   : Missing cutoff potential type.
  Defaulting to exp(1/x)/(1-x)^2 type cutoff potential.
  Species N : No 'logarithmic' tag. Using default grid for free atom:
  | Default logarithmic grid data [bohr] : 0.1000E-03 0.1000E+03 0.1012E+01
  Species N : On-site basis accuracy parameter (for Gram-Schmidt orthonormalisation) not specified.
  Using default value basis_acc =  0.1000000E-03.
  Species N                   : Using default innermost maximum threshold i_radial=  2 for radial functions.
  Species N                   : Default cutoff onset for free atom density etc. : 0.35000000E+01 AA.
  Species N                   : Basic radial grid will be enhanced according to radial_multiplier =   1, to contain    35 grid points.

  Reading configuration options for species Zn                  .
  | Found nuclear charge :  30.0000
  | Found atomic mass :    65.409000000000006      amu
  | Found l_max for Hartree potential  :   4
  | Found cutoff potl. onset [A], width [A], scale factor :    3.50000    1.50000    1.00000
  | Threshold for basis-dependent cutoff potential is   0.100000E-03
  | Found data for basic radial integration grid :    53 points, outermost radius =    5.000 A
  | Found multiplier for basic radial grid :   1
  | Found angular grid specification: user-specified.
  | Specified grid contains     5 separate shells.
  | Check grid settings after all constraints further below.
  | Found free-atom valence shell :  4 s   2.000
  | Found free-atom valence shell :  3 p   6.000
  | Found free-atom valence shell :  3 d  10.000
  | Found free-ion valence shell :  4 s   1.000
  | Found free-ion valence shell :  3 p   6.000
  | Found free-ion valence shell :  3 d   9.000
  | Found hydrogenic basis function :  2 p   1.700
  | Found hydrogenic basis function :  3 s   2.900
  | Found hydrogenic basis function :  4 p   5.400
  | Found hydrogenic basis function :  4 f   7.800
  | Found hydrogenic basis function :  3 d   4.500
  Species Zn                  : Missing cutoff potential type.
  Defaulting to exp(1/x)/(1-x)^2 type cutoff potential.
  Species Zn: No 'logarithmic' tag. Using default grid for free atom:
  | Default logarithmic grid data [bohr] : 0.1000E-03 0.1000E+03 0.1012E+01
  Species Zn: On-site basis accuracy parameter (for Gram-Schmidt orthonormalisation) not specified.
  Using default value basis_acc =  0.1000000E-03.
  Species Zn                  : Using default innermost maximum threshold i_radial=  2 for radial functions.
  Species Zn                  : Default cutoff onset for free atom density etc. : 0.35000000E+01 AA.
  Species Zn                  : Basic radial grid will be enhanced according to radial_multiplier =   1, to contain    53 grid points.

  Finished reading input file 'control.in'.

------------------------------------------------------------


------------------------------------------------------------
          Reading geometry description geometry.in.
------------------------------------------------------------
  Vacuum level in z-axis :   0.486533E+02
  Found relaxation constraint for atom     58: All coordinates fixed.
  Found relaxation constraint for atom     59: All coordinates fixed.
  Found relaxation constraint for atom     60: All coordinates fixed.
  Found relaxation constraint for atom     61: All coordinates fixed.
  Found relaxation constraint for atom     62: All coordinates fixed.
  Found relaxation constraint for atom     63: All coordinates fixed.
  Found relaxation constraint for atom     64: All coordinates fixed.
  Found relaxation constraint for atom     65: All coordinates fixed.
  Found relaxation constraint for atom     66: All coordinates fixed.
  Found relaxation constraint for atom     67: All coordinates fixed.
  Found relaxation constraint for atom     68: All coordinates fixed.
  Found relaxation constraint for atom     69: All coordinates fixed.
  Found relaxation constraint for atom     70: All coordinates fixed.
  Found relaxation constraint for atom     71: All coordinates fixed.
  Found relaxation constraint for atom     72: All coordinates fixed.
  Found relaxation constraint for atom     73: All coordinates fixed.
  Found relaxation constraint for atom     74: All coordinates fixed.
  Found relaxation constraint for atom     75: All coordinates fixed.
  Found relaxation constraint for atom     76: All coordinates fixed.
  Found relaxation constraint for atom     77: All coordinates fixed.
  Found relaxation constraint for atom     78: All coordinates fixed.
  Found relaxation constraint for atom     79: All coordinates fixed.
  Found relaxation constraint for atom     80: All coordinates fixed.
  Found relaxation constraint for atom     81: All coordinates fixed.
  Found relaxation constraint for atom     82: All coordinates fixed.
  Found relaxation constraint for atom     83: All coordinates fixed.
  Found relaxation constraint for atom     84: All coordinates fixed.
  Found relaxation constraint for atom     85: All coordinates fixed.
  Found relaxation constraint for atom     86: All coordinates fixed.
  Found relaxation constraint for atom     87: All coordinates fixed.
  Found relaxation constraint for atom     88: All coordinates fixed.
  Found relaxation constraint for atom     89: All coordinates fixed.
  Found relaxation constraint for atom     90: All coordinates fixed.
  Found relaxation constraint for atom     91: All coordinates fixed.
  Found relaxation constraint for atom     92: All coordinates fixed.
  Found relaxation constraint for atom     93: All coordinates fixed.
  Found relaxation constraint for atom     94: All coordinates fixed.
  Found relaxation constraint for atom     95: All coordinates fixed.
  Found relaxation constraint for atom     96: All coordinates fixed.
  Found relaxation constraint for atom     97: All coordinates fixed.
  Found relaxation constraint for atom     98: All coordinates fixed.
  Found relaxation constraint for atom     99: All coordinates fixed.
  Found relaxation constraint for atom    100: All coordinates fixed.
  Found relaxation constraint for atom    101: All coordinates fixed.
  Found relaxation constraint for atom    102: All coordinates fixed.
  Found relaxation constraint for atom    103: All coordinates fixed.
  Found relaxation constraint for atom    104: All coordinates fixed.
  Found relaxation constraint for atom    105: All coordinates fixed.
  Found relaxation constraint for atom    106: All coordinates fixed.
  Found relaxation constraint for atom    107: All coordinates fixed.
  Found relaxation constraint for atom    108: All coordinates fixed.
  Found relaxation constraint for atom    109: All coordinates fixed.
  Found relaxation constraint for atom    110: All coordinates fixed.
  Found relaxation constraint for atom    111: All coordinates fixed.
  Found relaxation constraint for atom    112: All coordinates fixed.
  Found relaxation constraint for atom    113: All coordinates fixed.
  Found relaxation constraint for atom    114: All coordinates fixed.
  Found relaxation constraint for atom    115: All coordinates fixed.
  Found relaxation constraint for atom    116: All coordinates fixed.
  Found relaxation constraint for atom    117: All coordinates fixed.
  Found relaxation constraint for atom    118: All coordinates fixed.
  Found relaxation constraint for atom    119: All coordinates fixed.
  Found relaxation constraint for atom    120: All coordinates fixed.
  Found relaxation constraint for atom    121: All coordinates fixed.
  Found relaxation constraint for atom    122: All coordinates fixed.
  Found relaxation constraint for atom    123: All coordinates fixed.
  Found relaxation constraint for atom    124: All coordinates fixed.
  Found relaxation constraint for atom    125: All coordinates fixed.
  Found relaxation constraint for atom    126: All coordinates fixed.
  Found relaxation constraint for atom    127: All coordinates fixed.
  Found relaxation constraint for atom    128: All coordinates fixed.
  Found relaxation constraint for atom    129: All coordinates fixed.
  Found relaxation constraint for atom    130: All coordinates fixed.
  Found relaxation constraint for atom    131: All coordinates fixed.
  Found relaxation constraint for atom    132: All coordinates fixed.
  Found relaxation constraint for atom    133: All coordinates fixed.
  Found relaxation constraint for atom    134: All coordinates fixed.
  Found relaxation constraint for atom    135: All coordinates fixed.
  Found relaxation constraint for atom    136: All coordinates fixed.
  Found relaxation constraint for atom    137: All coordinates fixed.
  Found relaxation constraint for atom    138: All coordinates fixed.
  Found relaxation constraint for atom    139: All coordinates fixed.
  Found relaxation constraint for atom    140: All coordinates fixed.
  Found relaxation constraint for atom    141: All coordinates fixed.
  Found relaxation constraint for atom    142: All coordinates fixed.
  Found relaxation constraint for atom    143: All coordinates fixed.
  Found relaxation constraint for atom    144: All coordinates fixed.
  Found relaxation constraint for atom    145: All coordinates fixed.
  Found relaxation constraint for atom    146: All coordinates fixed.
  Found relaxation constraint for atom    147: All coordinates fixed.
  Found relaxation constraint for atom    148: All coordinates fixed.
  Found relaxation constraint for atom    149: All coordinates fixed.
  Found relaxation constraint for atom    150: All coordinates fixed.
  Found relaxation constraint for atom    151: All coordinates fixed.
  Found relaxation constraint for atom    152: All coordinates fixed.
  Found relaxation constraint for atom    153: All coordinates fixed.
  Found relaxation constraint for atom    154: All coordinates fixed.
  Found relaxation constraint for atom    155: All coordinates fixed.
  Found relaxation constraint for atom    156: All coordinates fixed.
  Found relaxation constraint for atom    157: All coordinates fixed.
  Found relaxation constraint for atom    158: All coordinates fixed.
  Found relaxation constraint for atom    159: All coordinates fixed.
  Found relaxation constraint for atom    160: All coordinates fixed.
  Found relaxation constraint for atom    161: All coordinates fixed.
  Found relaxation constraint for atom    162: All coordinates fixed.
  Found relaxation constraint for atom    163: All coordinates fixed.
  Found relaxation constraint for atom    164: All coordinates fixed.
  Found relaxation constraint for atom    165: All coordinates fixed.
  Found relaxation constraint for atom    166: All coordinates fixed.
  Found relaxation constraint for atom    167: All coordinates fixed.
  Found relaxation constraint for atom    168: All coordinates fixed.
  Found relaxation constraint for atom    169: All coordinates fixed.
  Found relaxation constraint for atom    170: All coordinates fixed.
  Found relaxation constraint for atom    171: All coordinates fixed.
  Found relaxation constraint for atom    172: All coordinates fixed.
  Found relaxation constraint for atom    173: All coordinates fixed.
  Found relaxation constraint for atom    174: All coordinates fixed.
  Found relaxation constraint for atom    175: All coordinates fixed.
  Found relaxation constraint for atom    176: All coordinates fixed.
  Found relaxation constraint for atom    177: All coordinates fixed.
  Found relaxation constraint for atom    178: All coordinates fixed.
  Found relaxation constraint for atom    179: All coordinates fixed.
  Found relaxation constraint for atom    180: All coordinates fixed.
  Found relaxation constraint for atom    181: All coordinates fixed.
  Found relaxation constraint for atom    182: All coordinates fixed.
  Found relaxation constraint for atom    183: All coordinates fixed.
  Found relaxation constraint for atom    184: All coordinates fixed.
  Found relaxation constraint for atom    185: All coordinates fixed.
  | The smallest distance between any two atoms is         1.09078087 AA.
  | The first atom of this pair is atom number                     51 .
  | The second atom of this pair is atom number                    55 .
  | Wigner-Seitz cell of the first atom image           0     0     0 .
  | (The Wigner-Seitz cell of the second atom is 0 0 0  by definition.)

  Symmetry information by spglib:
  | Precision set to  0.1E-04
  | Number of Operations  : 1
  | Space group           : 1
  | International         : P1
  | Schoenflies           : C1^1
  Input structure read successfully.
  The structure contains      313 atoms,  and a total of      12326.000 electrons.

  Input geometry:
  | Unit cell:
  |       23.51554312        0.00000000        0.00000000
  |        0.00000000       23.51554312        0.00000000
  |        0.00000000        0.00000000      106.23550000
  | Atomic structure:
  |       Atom                x [A]            y [A]            z [A]
  |    1: Species C            -3.81198790        1.86620129       -0.03073798
  |    2: Species C            -2.36747952        1.87049228        0.06101909
  |    3: Species C            -0.29597148        3.00201411        0.10610193
  |    4: Species C             0.50650386        4.22908631        0.07657973
  |    5: Species C            -4.21519310        0.49818579       -0.05533773
  |    6: Species C            -3.00458431       -0.29247323        0.02787054
  |    7: Species C            -1.87300030       -2.36437207        0.10676472
  |    8: Species C            -1.86166564       -3.83188161        0.08232269
  |    9: Species N            -1.62111097        2.99565462        0.08068179
  |   10: Species N            -2.98345056       -1.64361538        0.05533811
  |   11: Species C             1.86172321        3.83186491        0.08230470
  |   12: Species C             1.87305863        2.36435534        0.10674149
  |   13: Species C             3.00464067        0.29246040        0.02785078
  |   14: Species C             4.21524946       -0.49820049       -0.05534445
  |   15: Species C             2.36753451       -1.87050281        0.06101546
  |   16: Species C             3.81204319       -1.86621430       -0.03073308
  |   17: Species C            -0.50644591       -4.22910473        0.07658681
  |   18: Species C             0.29603144       -3.00203407        0.10610869
  |   19: Species N             2.98351103        1.64360218        0.05531099
  |   20: Species N             1.62117045       -2.99566844        0.08068142
  |   21: Species N            -1.92555555        0.56681766        0.09544735
  |   22: Species N             0.56510481        1.91827684        0.13028952
  |   23: Species N             1.92560907       -0.56682596        0.09542928
  |   24: Species N            -0.56504391       -1.91829824        0.13030642
  |   25: Species C             0.14937427        5.58103900        0.00223955
  |   26: Species Zn            0.00001626       -0.00001780       -0.03562915
  |   27: Species C             2.89046936        4.77696713        0.01696260
  |   28: Species C             1.18027032        6.52792689       -0.05781132
  |   29: Species C             2.53555042        6.13164986       -0.05792749
  |   30: Species H            -0.89960928        5.88073509        0.01755139
  |   31: Species H             3.93529125        4.46369979        0.02066940
  |   32: Species H             3.31529283        6.89483519       -0.08390269
  |   33: Species H             0.93779118        7.59034876       -0.10821340
  |   34: Species C             5.57607326       -0.15298301       -0.14586082
  |   35: Species C             4.76163957       -2.89875610       -0.10211515
  |   36: Species C             6.51543686       -1.18680014       -0.20930122
  |   37: Species C             6.11348544       -2.54997264       -0.19944502
  |   38: Species H             5.88568774        0.89303659       -0.11334737
  |   39: Species H             4.44885173       -3.94322091       -0.06351280
  |   40: Species H             6.87609282       -3.33058227       -0.19961742
  |   41: Species H             7.57974926       -0.95058699       -0.24822854
  |   42: Species C            -5.57601615        0.15296653       -0.14585652
  |   43: Species C            -4.76158528        2.89874105       -0.10213334
  |   44: Species C            -6.51538045        1.18678175       -0.20931267
  |   45: Species C            -6.11343051        2.54995532       -0.19946802
  |   46: Species H            -5.88562945       -0.89305317       -0.11333510
  |   47: Species H            -4.44879947        3.94320672       -0.06353795
  |   48: Species H            -6.87603868        3.33056424       -0.19964665
  |   49: Species H            -7.57969250        0.95056769       -0.24824193
  |   50: Species C            -0.14931894       -5.58105773        0.00223946
  |   51: Species C            -2.89041291       -4.77698284        0.01698514
  |   52: Species C            -1.18021655       -6.52794412       -0.05780882
  |   53: Species C            -2.53549625       -6.13166534       -0.05791324
  |   54: Species H             0.89966430       -5.88075526        0.01754319
  |   55: Species H            -3.93523443       -4.46371443        0.02069949
  |   56: Species H            -3.31523950       -6.89484991       -0.08388628
  |   57: Species H            -0.93773910       -7.59036620       -0.10821497
  |   58: Species Ag           -7.34860747      -10.28809054       -9.05914426
  |   59: Species Ag           -4.40916458      -10.28809054       -9.05914426
  |   60: Species Ag           -1.46972169      -10.28809054       -9.05914426
  |   61: Species Ag            1.46972120      -10.28809054       -9.05914426
  |   62: Species Ag            4.40916409      -10.28809054       -9.05914426
  |   63: Species Ag            7.34860698      -10.28809054       -9.05914426
  |   64: Species Ag           10.28804987      -10.28809054       -9.05914426
  |   65: Species Ag           13.22749276      -10.28809054       -9.05914426
  |   66: Species Ag           -7.34860747       -7.34864765       -9.05914426
  |   67: Species Ag           -4.40916458       -7.34864765       -9.05914426
  |   68: Species Ag           -1.46972169       -7.34864765       -9.05914426
  |   69: Species Ag            1.46972120       -7.34864765       -9.05914426
  |   70: Species Ag            4.40916409       -7.34864765       -9.05914426
  |   71: Species Ag            7.34860698       -7.34864765       -9.05914426
  |   72: Species Ag           10.28804987       -7.34864765       -9.05914426
  |   73: Species Ag           13.22749276       -7.34864765       -9.05914426
  |   74: Species Ag           -7.34860747       -4.40920476       -9.05914426
  |   75: Species Ag           -4.40916458       -4.40920476       -9.05914426
  |   76: Species Ag           -1.46972169       -4.40920476       -9.05914426
  |   77: Species Ag            1.46972120       -4.40920476       -9.05914426
  |   78: Species Ag            4.40916409       -4.40920476       -9.05914426
  |   79: Species Ag            7.34860698       -4.40920476       -9.05914426
  |   80: Species Ag           10.28804987       -4.40920476       -9.05914426
  |   81: Species Ag           13.22749276       -4.40920476       -9.05914426
  |   82: Species Ag           -7.34860747       -1.46976187       -9.05914426
  |   83: Species Ag           -4.40916458       -1.46976187       -9.05914426
  |   84: Species Ag           -1.46972169       -1.46976187       -9.05914426
  |   85: Species Ag            1.46972120       -1.46976187       -9.05914426
  |   86: Species Ag            4.40916409       -1.46976187       -9.05914426
  |   87: Species Ag            7.34860698       -1.46976187       -9.05914426
  |   88: Species Ag           10.28804987       -1.46976187       -9.05914426
  |   89: Species Ag           13.22749276       -1.46976187       -9.05914426
  |   90: Species Ag           -7.34860747        1.46968102       -9.05914426
  |   91: Species Ag           -4.40916458        1.46968102       -9.05914426
  |   92: Species Ag           -1.46972169        1.46968102       -9.05914426
  |   93: Species Ag            1.46972120        1.46968102       -9.05914426
  |   94: Species Ag            4.40916409        1.46968102       -9.05914426
  |   95: Species Ag            7.34860698        1.46968102       -9.05914426
  |   96: Species Ag           10.28804987        1.46968102       -9.05914426
  |   97: Species Ag           13.22749276        1.46968102       -9.05914426
  |   98: Species Ag           -7.34860747        4.40912391       -9.05914426
  |   99: Species Ag           -4.40916458        4.40912391       -9.05914426
  |  100: Species Ag           -1.46972169        4.40912391       -9.05914426
  |  101: Species Ag            1.46972120        4.40912391       -9.05914426
  |  102: Species Ag            4.40916409        4.40912391       -9.05914426
  |  103: Species Ag            7.34860698        4.40912391       -9.05914426
  |  104: Species Ag           10.28804987        4.40912391       -9.05914426
  |  105: Species Ag           13.22749276        4.40912391       -9.05914426
  |  106: Species Ag           -7.34860747        7.34856680       -9.05914426
  |  107: Species Ag           -4.40916458        7.34856680       -9.05914426
  |  108: Species Ag           -1.46972169        7.34856680       -9.05914426
  |  109: Species Ag            1.46972120        7.34856680       -9.05914426
  |  110: Species Ag            4.40916409        7.34856680       -9.05914426
  |  111: Species Ag            7.34860698        7.34856680       -9.05914426
  |  112: Species Ag           10.28804987        7.34856680       -9.05914426
  |  113: Species Ag           13.22749276        7.34856680       -9.05914426
  |  114: Species Ag           -7.34860747       10.28800969       -9.05914426
  |  115: Species Ag           -4.40916458       10.28800969       -9.05914426
  |  116: Species Ag           -1.46972169       10.28800969       -9.05914426
  |  117: Species Ag            1.46972120       10.28800969       -9.05914426
  |  118: Species Ag            4.40916409       10.28800969       -9.05914426
  |  119: Species Ag            7.34860698       10.28800969       -9.05914426
  |  120: Species Ag           10.28804987       10.28800969       -9.05914426
  |  121: Species Ag           13.22749276       10.28800969       -9.05914426
  |  122: Species Ag           -8.81832891      -11.75781198       -6.98064458
  |  123: Species Ag           -5.87888602      -11.75781198       -6.98064458
  |  124: Species Ag           -2.93944313      -11.75781198       -6.98064458
  |  125: Species Ag           -0.00000024      -11.75781198       -6.98064458
  |  126: Species Ag            2.93944265      -11.75781198       -6.98064458
  |  127: Species Ag            5.87888554      -11.75781198       -6.98064458
  |  128: Species Ag            8.81832843      -11.75781198       -6.98064458
  |  129: Species Ag           11.75777132      -11.75781198       -6.98064458
  |  130: Species Ag           -8.81832891       -8.81836909       -6.98064458
  |  131: Species Ag           -5.87888602       -8.81836909       -6.98064458
  |  132: Species Ag           -2.93944313       -8.81836909       -6.98064458
  |  133: Species Ag           -0.00000024       -8.81836909       -6.98064458
  |  134: Species Ag            2.93944265       -8.81836909       -6.98064458
  |  135: Species Ag            5.87888554       -8.81836909       -6.98064458
  |  136: Species Ag            8.81832843       -8.81836909       -6.98064458
  |  137: Species Ag           11.75777132       -8.81836909       -6.98064458
  |  138: Species Ag           -8.81832891       -5.87892620       -6.98064458
  |  139: Species Ag           -5.87888602       -5.87892620       -6.98064458
  |  140: Species Ag           -2.93944313       -5.87892620       -6.98064458
  |  141: Species Ag           -0.00000024       -5.87892620       -6.98064458
  |  142: Species Ag            2.93944265       -5.87892620       -6.98064458
  |  143: Species Ag            5.87888554       -5.87892620       -6.98064458
  |  144: Species Ag            8.81832843       -5.87892620       -6.98064458
  |  145: Species Ag           11.75777132       -5.87892620       -6.98064458
  |  146: Species Ag           -8.81832891       -2.93948331       -6.98064458
  |  147: Species Ag           -5.87888602       -2.93948331       -6.98064458
  |  148: Species Ag           -2.93944313       -2.93948331       -6.98064458
  |  149: Species Ag           -0.00000024       -2.93948331       -6.98064458
  |  150: Species Ag            2.93944265       -2.93948331       -6.98064458
  |  151: Species Ag            5.87888554       -2.93948331       -6.98064458
  |  152: Species Ag            8.81832843       -2.93948331       -6.98064458
  |  153: Species Ag           11.75777132       -2.93948331       -6.98064458
  |  154: Species Ag           -8.81832891       -0.00004042       -6.98064458
  |  155: Species Ag           -5.87888602       -0.00004042       -6.98064458
  |  156: Species Ag           -2.93944313       -0.00004042       -6.98064458
  |  157: Species Ag           -0.00000024       -0.00004042       -6.98064458
  |  158: Species Ag            2.93944265       -0.00004042       -6.98064458
  |  159: Species Ag            5.87888554       -0.00004042       -6.98064458
  |  160: Species Ag            8.81832843       -0.00004042       -6.98064458
  |  161: Species Ag           11.75777132       -0.00004042       -6.98064458
  |  162: Species Ag           -8.81832891        2.93940247       -6.98064458
  |  163: Species Ag           -5.87888602        2.93940247       -6.98064458
  |  164: Species Ag           -2.93944313        2.93940247       -6.98064458
  |  165: Species Ag           -0.00000024        2.93940247       -6.98064458
  |  166: Species Ag            2.93944265        2.93940247       -6.98064458
  |  167: Species Ag            5.87888554        2.93940247       -6.98064458
  |  168: Species Ag            8.81832843        2.93940247       -6.98064458
  |  169: Species Ag           11.75777132        2.93940247       -6.98064458
  |  170: Species Ag           -8.81832891        5.87884536       -6.98064458
  |  171: Species Ag           -5.87888602        5.87884536       -6.98064458
  |  172: Species Ag           -2.93944313        5.87884536       -6.98064458
  |  173: Species Ag           -0.00000024        5.87884536       -6.98064458
  |  174: Species Ag            2.93944265        5.87884536       -6.98064458
  |  175: Species Ag            5.87888554        5.87884536       -6.98064458
  |  176: Species Ag            8.81832843        5.87884536       -6.98064458
  |  177: Species Ag           11.75777132        5.87884536       -6.98064458
  |  178: Species Ag           -8.81832891        8.81828825       -6.98064458
  |  179: Species Ag           -5.87888602        8.81828825       -6.98064458
  |  180: Species Ag           -2.93944313        8.81828825       -6.98064458
  |  181: Species Ag           -0.00000024        8.81828825       -6.98064458
  |  182: Species Ag            2.93944265        8.81828825       -6.98064458
  |  183: Species Ag            5.87888554        8.81828825       -6.98064458
  |  184: Species Ag            8.81832843        8.81828825       -6.98064458
  |  185: Species Ag           11.75777132        8.81828825       -6.98064458
  |  186: Species Ag           -7.34856674      -10.28694015       -4.98262087
  |  187: Species Ag           -4.41071301      -10.28777224       -4.98681608
  |  188: Species Ag           -1.46821624      -10.28742139       -4.98611031
  |  189: Species Ag            1.47165938      -10.28885107       -4.98672180
  |  190: Species Ag            4.40789431      -10.28766023       -4.98272117
  |  191: Species Ag            7.34897464      -10.28764720       -4.98374666
  |  192: Species Ag           10.28860156      -10.28815659       -4.98290392
  |  193: Species Ag           13.22689982      -10.28894902       -4.98340247
  |  194: Species Ag           -7.34740947       -7.34944175       -4.98475017
  |  195: Species Ag           -4.40525616       -7.34557566       -4.98205378
  |  196: Species Ag           -1.47031816       -7.33951587       -4.97765037
  |  197: Species Ag            1.46723457       -7.34444448       -4.98216261
  |  198: Species Ag            4.40825873       -7.34633242       -4.98536483
  |  199: Species Ag            7.34790930       -7.34726883       -4.98481147
  |  200: Species Ag           10.28677989       -7.34964598       -4.98321162
  |  201: Species Ag           13.22815377       -7.34930846       -4.98317032
  |  202: Species Ag           -7.34781732       -4.40967388       -4.98616514
  |  203: Species Ag           -4.40763633       -4.41176336       -4.98557846
  |  204: Species Ag           -1.47459017       -4.41912344       -4.97788901
  |  205: Species Ag            1.46972289       -4.41681204       -4.99051673
  |  206: Species Ag            4.41275390       -4.40293327       -4.97899584
  |  207: Species Ag            7.34193604       -4.40332174       -4.98052806
  |  208: Species Ag           10.28831095       -4.41271827       -4.98843440
  |  209: Species Ag           13.22876480       -4.40943557       -4.98362048
  |  210: Species Ag           -7.34255071       -1.46512165       -4.98236659
  |  211: Species Ag           -4.42067234       -1.46347459       -4.98817545
  |  212: Species Ag           -1.47180512       -1.47129636       -5.00317804
  |  213: Species Ag            1.47461223       -1.46976115       -5.00073642
  |  214: Species Ag            4.42462250       -1.47669530       -4.96918042
  |  215: Species Ag            7.33380230       -1.47222706       -4.97142620
  |  216: Species Ag           10.28730478       -1.46907667       -4.98997008
  |  217: Species Ag           13.22701141       -1.47326031       -4.98860503
  |  218: Species Ag           -7.33380450        1.47214613       -4.97142662
  |  219: Species Ag           -4.42462330        1.47661491       -4.96918135
  |  220: Species Ag           -1.47461277        1.46967873       -5.00073657
  |  221: Species Ag            1.47180326        1.47121532       -5.00317821
  |  222: Species Ag            4.42067147        1.46339363       -4.98817464
  |  223: Species Ag            7.34255149        1.46504113       -4.98236703
  |  224: Species Ag           10.28852982        1.47318030       -4.98860715
  |  225: Species Ag           13.22823711        1.46899499       -4.98996924
  |  226: Species Ag           -7.34193693        4.40323995       -4.98052729
  |  227: Species Ag           -4.41275396        4.40285193       -4.97899563
  |  228: Species Ag           -1.46972430        4.41673085       -4.99051609
  |  229: Species Ag            1.47459063        4.41904230       -4.97788686
  |  230: Species Ag            4.40763511        4.41168234       -4.98557907
  |  231: Species Ag            7.34781796        4.40959300       -4.98616576
  |  232: Species Ag           10.28677736        4.40935409       -4.98362086
  |  233: Species Ag           13.22723143        4.41263726       -4.98843383
  |  234: Species Ag           -7.34791159        7.34718731       -4.98481103
  |  235: Species Ag           -4.40825845        7.34625239       -4.98536392
  |  236: Species Ag           -1.46723559        7.34436126       -4.98216270
  |  237: Species Ag            1.47031744        7.33943248       -4.97765022
  |  238: Species Ag            4.40525586        7.34549543       -4.98205425
  |  239: Species Ag            7.34740840        7.34936057       -4.98475077
  |  240: Species Ag           10.28738943        7.34922792       -4.98317186
  |  241: Species Ag           13.22876168        7.34956526       -4.98321156
  |  242: Species Ag           -7.34897583       10.28756504       -4.98374729
  |  243: Species Ag           -4.40789545       10.28757862       -4.98272129
  |  244: Species Ag           -1.47166026       10.28876951       -4.98672183
  |  245: Species Ag            1.46821590       10.28733983       -4.98611074
  |  246: Species Ag            4.41071219       10.28769080       -4.98681676
  |  247: Species Ag            7.34856641       10.28685859       -4.98262086
  |  248: Species Ag           10.28864220       10.28886754       -4.98340298
  |  249: Species Ag           13.22694024       10.28807426       -4.98290454
  |  250: Species Ag           -8.81858430      -11.75759458       -3.00997849
  |  251: Species Ag           -5.87775019      -11.75736638       -3.01410597
  |  252: Species Ag           -2.93718427      -11.75908267       -3.01169233
  |  253: Species Ag            0.00000002      -11.75781212       -3.00718580
  |  254: Species Ag            2.93718341      -11.75654364       -3.01169257
  |  255: Species Ag            5.87774931      -11.75825934       -3.01410522
  |  256: Species Ag            8.81858365      -11.75803468       -3.00997909
  |  257: Species Ag           11.75777042      -11.75781278       -3.00536843
  |  258: Species Ag           -8.81670766       -8.81826154       -3.00997141
  |  259: Species Ag           -5.87272449       -8.81226876       -3.00951930
  |  260: Species Ag           -2.93531714       -8.82224032       -3.01686603
  |  261: Species Ag            0.00197418       -8.82255849       -3.02072517
  |  262: Species Ag            2.93512285       -8.81165159       -3.01108550
  |  263: Species Ag            5.87607254       -8.81626508       -3.01154771
  |  264: Species Ag            8.81646822       -8.81587348       -3.01058894
  |  265: Species Ag           11.75836906       -8.81961449       -3.00977366
  |  266: Species Ag           -8.81652338       -5.87781246       -3.01165596
  |  267: Species Ag           -5.88133596       -5.87738856       -3.00663269
  |  268: Species Ag           -2.95420711       -5.87456991       -3.00132547
  |  269: Species Ag            0.01306086       -5.87120026       -3.00678795
  |  270: Species Ag            2.94489857       -5.87554135       -3.00478406
  |  271: Species Ag            5.87678856       -5.88628562       -3.00497649
  |  272: Species Ag            8.81216797       -5.87221136       -3.01104158
  |  273: Species Ag           11.75560242       -5.87843408       -3.01466229
  |  274: Species Ag           -8.81153660       -2.93509850       -3.01360279
  |  275: Species Ag           -5.87594487       -2.95022357       -3.00855323
  |  276: Species Ag           -2.95057070       -2.92554159       -3.03667941
  |  277: Species Ag           -0.00323743       -2.91799163       -3.06666325
  |  278: Species Ag            2.91958589       -2.94543970       -3.03055603
  |  279: Species Ag            5.88112897       -2.96631708       -2.97964138
  |  280: Species Ag            8.83095340       -2.93684224       -3.02205494
  |  281: Species Ag           11.76056554       -2.93704468       -3.01353734
  |  282: Species Ag           -8.82764401       -0.00277774       -3.02733917
  |  283: Species Ag           -5.87710114       -0.01924556       -2.99161060
  |  284: Species Ag           -2.92177523       -0.00164060       -3.06315744
  |  285: Species Ag           -0.00000111       -0.00004126       -3.01384736
  |  286: Species Ag            2.92177300        0.00155715       -3.06316084
  |  287: Species Ag            5.87709996        0.01916679       -2.99160786
  |  288: Species Ag            8.82764148        0.00269680       -3.02734036
  |  289: Species Ag           11.75776992       -0.00004058       -3.01110963
  |  290: Species Ag           -8.83095639        2.93676135       -3.02205468
  |  291: Species Ag           -5.88113363        2.96623604       -2.97964162
  |  292: Species Ag           -2.91958783        2.94535612       -3.03055761
  |  293: Species Ag            0.00323527        2.91790856       -3.06666275
  |  294: Species Ag            2.95057084        2.92545961       -3.03667853
  |  295: Species Ag            5.87594340        2.95014419       -3.00855350
  |  296: Species Ag            8.81153516        2.93501710       -3.01360277
  |  297: Species Ag           11.75497573        2.93696295       -3.01353712
  |  298: Species Ag           -8.81216941        5.87212856       -3.01104126
  |  299: Species Ag           -5.87678907        5.88620457       -3.00497636
  |  300: Species Ag           -2.94489894        5.87546010       -3.00478331
  |  301: Species Ag           -0.01306237        5.87111855       -3.00678591
  |  302: Species Ag            2.95420927        5.87449029       -3.00132371
  |  303: Species Ag            5.88133543        5.87730858       -3.00663228
  |  304: Species Ag            8.81652265        5.87773052       -3.01165603
  |  305: Species Ag           11.75993950        5.87835238       -3.01466282
  |  306: Species Ag           -8.81646880        8.81579049       -3.01058835
  |  307: Species Ag           -5.87607353        8.81618242       -3.01154818
  |  308: Species Ag           -2.93512329        8.81156818       -3.01108452
  |  309: Species Ag           -0.00197452        8.82247611       -3.02072500
  |  310: Species Ag            2.93531650        8.82216012       -3.01686765
  |  311: Species Ag            5.87272318        8.81218618       -3.00951891
  |  312: Species Ag            8.81670613        8.81817927       -3.00997119
  |  313: Species Ag           11.75717160        8.81953165       -3.00977397

  Lattice parameters for 3D lattice (in Angstroms) :    23.515543   23.515543  106.235500
  Angle(s) between unit vectors (in degrees)       :    90.000000   90.000000   90.000000


  Quantities derived from the lattice vectors (in Angstrom^-1):
  | Reciprocal lattice vector 1:  0.267193  0.000000  0.000000
  | Reciprocal lattice vector 2:  0.000000  0.267193  0.000000
  | Reciprocal lattice vector 3:  0.000000  0.000000  0.059144
  | Unit cell volume                               :   0.587462E+05  Angstrom^3

  Slab Identifier: This is Z-oriented slab and maximum thickness of the vacuum is: 97.046 Angstrom.

  Finished reading input file 'geometry.in'.



  Consistency checks for stacksize environment parameter are next.

  | Maximum stacksize for task 0: unlimited
  | Maximum stacksize for task 1: unlimited
  | Maximum stacksize for task 2: unlimited
  | Maximum stacksize for task 3: unlimited
  | Maximum stacksize for task 4: unlimited
  | Maximum stacksize for task 5: unlimited
  | Maximum stacksize for task 6: unlimited
  | Maximum stacksize for task 7: unlimited
  | Maximum stacksize for task 8: unlimited
  | Maximum stacksize for task 9: unlimited
  | Maximum stacksize for task 10: unlimited
  | Maximum stacksize for task 11: unlimited
  | Maximum stacksize for task 12: unlimited
  | Maximum stacksize for task 13: unlimited
  | Maximum stacksize for task 14: unlimited
  | Maximum stacksize for task 15: unlimited
  | Maximum stacksize for task 16: unlimited
  | Maximum stacksize for task 17: unlimited
  | Maximum stacksize for task 18: unlimited
  | Maximum stacksize for task 19: unlimited
  | Maximum stacksize for task 20: unlimited
  | Maximum stacksize for task 21: unlimited
  | Maximum stacksize for task 22: unlimited
  | Maximum stacksize for task 23: unlimited
  | Maximum stacksize for task 24: unlimited
  | Maximum stacksize for task 25: unlimited
  | Maximum stacksize for task 26: unlimited
  | Maximum stacksize for task 27: unlimited
  | Maximum stacksize for task 28: unlimited
  | Maximum stacksize for task 29: unlimited
  | Maximum stacksize for task 30: unlimited
  | Maximum stacksize for task 31: unlimited
  | Maximum stacksize for task 32: unlimited
  | Maximum stacksize for task 33: unlimited
  | Maximum stacksize for task 34: unlimited
  | Maximum stacksize for task 35: unlimited
  | Maximum stacksize for task 36: unlimited
  | Maximum stacksize for task 37: unlimited
  | Maximum stacksize for task 38: unlimited
  | Maximum stacksize for task 39: unlimited
  | Maximum stacksize for task 40: unlimited
  | Maximum stacksize for task 41: unlimited
  | Maximum stacksize for task 42: unlimited
  | Maximum stacksize for task 43: unlimited
  | Maximum stacksize for task 44: unlimited
  | Maximum stacksize for task 45: unlimited
  | Maximum stacksize for task 46: unlimited
  | Maximum stacksize for task 47: unlimited
  | Maximum stacksize for task 48: unlimited
  | Maximum stacksize for task 49: unlimited
  | Maximum stacksize for task 50: unlimited
  | Maximum stacksize for task 51: unlimited
  | Maximum stacksize for task 52: unlimited
  | Maximum stacksize for task 53: unlimited
  | Maximum stacksize for task 54: unlimited
  | Maximum stacksize for task 55: unlimited
  | Maximum stacksize for task 56: unlimited
  | Maximum stacksize for task 57: unlimited
  | Maximum stacksize for task 58: unlimited
  | Maximum stacksize for task 59: unlimited
  | Maximum stacksize for task 60: unlimited
  | Maximum stacksize for task 61: unlimited
  | Maximum stacksize for task 62: unlimited
  | Maximum stacksize for task 63: unlimited
  | Maximum stacksize for task 64: unlimited
  | Maximum stacksize for task 65: unlimited
  | Maximum stacksize for task 66: unlimited
  | Maximum stacksize for task 67: unlimited
  | Maximum stacksize for task 68: unlimited
  | Maximum stacksize for task 69: unlimited
  | Maximum stacksize for task 70: unlimited
  | Maximum stacksize for task 71: unlimited
  | Maximum stacksize for task 72: unlimited
  | Maximum stacksize for task 73: unlimited
  | Maximum stacksize for task 74: unlimited
  | Maximum stacksize for task 75: unlimited
  | Maximum stacksize for task 76: unlimited
  | Maximum stacksize for task 77: unlimited
  | Maximum stacksize for task 78: unlimited
  | Maximum stacksize for task 79: unlimited
  | Maximum stacksize for task 80: unlimited
  | Maximum stacksize for task 81: unlimited
  | Maximum stacksize for task 82: unlimited
  | Maximum stacksize for task 83: unlimited
  | Maximum stacksize for task 84: unlimited
  | Maximum stacksize for task 85: unlimited
  | Maximum stacksize for task 86: unlimited
  | Maximum stacksize for task 87: unlimited
  | Maximum stacksize for task 88: unlimited
  | Maximum stacksize for task 89: unlimited
  | Maximum stacksize for task 90: unlimited
  | Maximum stacksize for task 91: unlimited
  | Maximum stacksize for task 92: unlimited
  | Maximum stacksize for task 93: unlimited
  | Maximum stacksize for task 94: unlimited
  | Maximum stacksize for task 95: unlimited
  | Maximum stacksize for task 96: unlimited
  | Maximum stacksize for task 97: unlimited
  | Maximum stacksize for task 98: unlimited
  | Maximum stacksize for task 99: unlimited
  | Maximum stacksize for task 100: unlimited
  | Maximum stacksize for task 101: unlimited
  | Maximum stacksize for task 102: unlimited
  | Maximum stacksize for task 103: unlimited
  | Maximum stacksize for task 104: unlimited
  | Maximum stacksize for task 105: unlimited
  | Maximum stacksize for task 106: unlimited
  | Maximum stacksize for task 107: unlimited
  | Maximum stacksize for task 108: unlimited
  | Maximum stacksize for task 109: unlimited
  | Maximum stacksize for task 110: unlimited
  | Maximum stacksize for task 111: unlimited
  | Maximum stacksize for task 112: unlimited
  | Maximum stacksize for task 113: unlimited
  | Maximum stacksize for task 114: unlimited
  | Maximum stacksize for task 115: unlimited
  | Maximum stacksize for task 116: unlimited
  | Maximum stacksize for task 117: unlimited
  | Maximum stacksize for task 118: unlimited
  | Maximum stacksize for task 119: unlimited
  | Maximum stacksize for task 120: unlimited
  | Maximum stacksize for task 121: unlimited
  | Maximum stacksize for task 122: unlimited
  | Maximum stacksize for task 123: unlimited
  | Maximum stacksize for task 124: unlimited
  | Maximum stacksize for task 125: unlimited
  | Maximum stacksize for task 126: unlimited
  | Maximum stacksize for task 127: unlimited
  | Maximum stacksize for task 128: unlimited
  | Maximum stacksize for task 129: unlimited
  | Maximum stacksize for task 130: unlimited
  | Maximum stacksize for task 131: unlimited
  | Maximum stacksize for task 132: unlimited
  | Maximum stacksize for task 133: unlimited
  | Maximum stacksize for task 134: unlimited
  | Maximum stacksize for task 135: unlimited
  | Maximum stacksize for task 136: unlimited
  | Maximum stacksize for task 137: unlimited
  | Maximum stacksize for task 138: unlimited
  | Maximum stacksize for task 139: unlimited
  | Maximum stacksize for task 140: unlimited
  | Maximum stacksize for task 141: unlimited
  | Maximum stacksize for task 142: unlimited
  | Maximum stacksize for task 143: unlimited
  | Maximum stacksize for task 144: unlimited
  | Maximum stacksize for task 145: unlimited
  | Maximum stacksize for task 146: unlimited
  | Maximum stacksize for task 147: unlimited
  | Maximum stacksize for task 148: unlimited
  | Maximum stacksize for task 149: unlimited
  | Maximum stacksize for task 150: unlimited
  | Maximum stacksize for task 151: unlimited
  | Maximum stacksize for task 152: unlimited
  | Maximum stacksize for task 153: unlimited
  | Maximum stacksize for task 154: unlimited
  | Maximum stacksize for task 155: unlimited
  | Maximum stacksize for task 156: unlimited
  | Maximum stacksize for task 157: unlimited
  | Maximum stacksize for task 158: unlimited
  | Maximum stacksize for task 159: unlimited
  | Maximum stacksize for task 160: unlimited
  | Maximum stacksize for task 161: unlimited
  | Maximum stacksize for task 162: unlimited
  | Maximum stacksize for task 163: unlimited
  | Maximum stacksize for task 164: unlimited
  | Maximum stacksize for task 165: unlimited
  | Maximum stacksize for task 166: unlimited
  | Maximum stacksize for task 167: unlimited
  | Maximum stacksize for task 168: unlimited
  | Maximum stacksize for task 169: unlimited
  | Maximum stacksize for task 170: unlimited
  | Maximum stacksize for task 171: unlimited
  | Maximum stacksize for task 172: unlimited
  | Maximum stacksize for task 173: unlimited
  | Maximum stacksize for task 174: unlimited
  | Maximum stacksize for task 175: unlimited
  | Maximum stacksize for task 176: unlimited
  | Maximum stacksize for task 177: unlimited
  | Maximum stacksize for task 178: unlimited
  | Maximum stacksize for task 179: unlimited
  | Maximum stacksize for task 180: unlimited
  | Maximum stacksize for task 181: unlimited
  | Maximum stacksize for task 182: unlimited
  | Maximum stacksize for task 183: unlimited
  | Maximum stacksize for task 184: unlimited
  | Maximum stacksize for task 185: unlimited
  | Maximum stacksize for task 186: unlimited
  | Maximum stacksize for task 187: unlimited
  | Maximum stacksize for task 188: unlimited
  | Maximum stacksize for task 189: unlimited
  | Maximum stacksize for task 190: unlimited
  | Maximum stacksize for task 191: unlimited
  | Maximum stacksize for task 192: unlimited
  | Maximum stacksize for task 193: unlimited
  | Maximum stacksize for task 194: unlimited
  | Maximum stacksize for task 195: unlimited
  | Maximum stacksize for task 196: unlimited
  | Maximum stacksize for task 197: unlimited
  | Maximum stacksize for task 198: unlimited
  | Maximum stacksize for task 199: unlimited
  | Maximum stacksize for task 200: unlimited
  | Maximum stacksize for task 201: unlimited
  | Maximum stacksize for task 202: unlimited
  | Maximum stacksize for task 203: unlimited
  | Maximum stacksize for task 204: unlimited
  | Maximum stacksize for task 205: unlimited
  | Maximum stacksize for task 206: unlimited
  | Maximum stacksize for task 207: unlimited
  | Maximum stacksize for task 208: unlimited
  | Maximum stacksize for task 209: unlimited
  | Maximum stacksize for task 210: unlimited
  | Maximum stacksize for task 211: unlimited
  | Maximum stacksize for task 212: unlimited
  | Maximum stacksize for task 213: unlimited
  | Maximum stacksize for task 214: unlimited
  | Maximum stacksize for task 215: unlimited
  | Maximum stacksize for task 216: unlimited
  | Maximum stacksize for task 217: unlimited
  | Maximum stacksize for task 218: unlimited
  | Maximum stacksize for task 219: unlimited
  | Maximum stacksize for task 220: unlimited
  | Maximum stacksize for task 221: unlimited
  | Maximum stacksize for task 222: unlimited
  | Maximum stacksize for task 223: unlimited
  | Maximum stacksize for task 224: unlimited
  | Maximum stacksize for task 225: unlimited
  | Maximum stacksize for task 226: unlimited
  | Maximum stacksize for task 227: unlimited
  | Maximum stacksize for task 228: unlimited
  | Maximum stacksize for task 229: unlimited
  | Maximum stacksize for task 230: unlimited
  | Maximum stacksize for task 231: unlimited
  | Maximum stacksize for task 232: unlimited
  | Maximum stacksize for task 233: unlimited
  | Maximum stacksize for task 234: unlimited
  | Maximum stacksize for task 235: unlimited
  | Maximum stacksize for task 236: unlimited
  | Maximum stacksize for task 237: unlimited
  | Maximum stacksize for task 238: unlimited
  | Maximum stacksize for task 239: unlimited
  | Maximum stacksize for task 240: unlimited
  | Maximum stacksize for task 241: unlimited
  | Maximum stacksize for task 242: unlimited
  | Maximum stacksize for task 243: unlimited
  | Maximum stacksize for task 244: unlimited
  | Maximum stacksize for task 245: unlimited
  | Maximum stacksize for task 246: unlimited
  | Maximum stacksize for task 247: unlimited
  | Maximum stacksize for task 248: unlimited
  | Maximum stacksize for task 249: unlimited
  | Maximum stacksize for task 250: unlimited
  | Maximum stacksize for task 251: unlimited
  | Maximum stacksize for task 252: unlimited
  | Maximum stacksize for task 253: unlimited
  | Maximum stacksize for task 254: unlimited
  | Maximum stacksize for task 255: unlimited
  | Current stacksize for task 0: 1024 [Mb]
  | Current stacksize for task 1: 1024 [Mb]
  | Current stacksize for task 2: 1024 [Mb]
  | Current stacksize for task 3: 1024 [Mb]
  | Current stacksize for task 4: 1024 [Mb]
  | Current stacksize for task 5: 1024 [Mb]
  | Current stacksize for task 6: 1024 [Mb]
  | Current stacksize for task 7: 1024 [Mb]
  | Current stacksize for task 8: 1024 [Mb]
  | Current stacksize for task 9: 1024 [Mb]
  | Current stacksize for task 10: 1024 [Mb]
  | Current stacksize for task 11: 1024 [Mb]
  | Current stacksize for task 12: 1024 [Mb]
  | Current stacksize for task 13: 1024 [Mb]
  | Current stacksize for task 14: 1024 [Mb]
  | Current stacksize for task 15: 1024 [Mb]
  | Current stacksize for task 16: 1024 [Mb]
  | Current stacksize for task 17: 1024 [Mb]
  | Current stacksize for task 18: 1024 [Mb]
  | Current stacksize for task 19: 1024 [Mb]
  | Current stacksize for task 20: 1024 [Mb]
  | Current stacksize for task 21: 1024 [Mb]
  | Current stacksize for task 22: 1024 [Mb]
  | Current stacksize for task 23: 1024 [Mb]
  | Current stacksize for task 24: 1024 [Mb]
  | Current stacksize for task 25: 1024 [Mb]
  | Current stacksize for task 26: 1024 [Mb]
  | Current stacksize for task 27: 1024 [Mb]
  | Current stacksize for task 28: 1024 [Mb]
  | Current stacksize for task 29: 1024 [Mb]
  | Current stacksize for task 30: 1024 [Mb]
  | Current stacksize for task 31: 1024 [Mb]
  | Current stacksize for task 32: 1024 [Mb]
  | Current stacksize for task 33: 1024 [Mb]
  | Current stacksize for task 34: 1024 [Mb]
  | Current stacksize for task 35: 1024 [Mb]
  | Current stacksize for task 36: 1024 [Mb]
  | Current stacksize for task 37: 1024 [Mb]
  | Current stacksize for task 38: 1024 [Mb]
  | Current stacksize for task 39: 1024 [Mb]
  | Current stacksize for task 40: 1024 [Mb]
  | Current stacksize for task 41: 1024 [Mb]
  | Current stacksize for task 42: 1024 [Mb]
  | Current stacksize for task 43: 1024 [Mb]
  | Current stacksize for task 44: 1024 [Mb]
  | Current stacksize for task 45: 1024 [Mb]
  | Current stacksize for task 46: 1024 [Mb]
  | Current stacksize for task 47: 1024 [Mb]
  | Current stacksize for task 48: 1024 [Mb]
  | Current stacksize for task 49: 1024 [Mb]
  | Current stacksize for task 50: 1024 [Mb]
  | Current stacksize for task 51: 1024 [Mb]
  | Current stacksize for task 52: 1024 [Mb]
  | Current stacksize for task 53: 1024 [Mb]
  | Current stacksize for task 54: 1024 [Mb]
  | Current stacksize for task 55: 1024 [Mb]
  | Current stacksize for task 56: 1024 [Mb]
  | Current stacksize for task 57: 1024 [Mb]
  | Current stacksize for task 58: 1024 [Mb]
  | Current stacksize for task 59: 1024 [Mb]
  | Current stacksize for task 60: 1024 [Mb]
  | Current stacksize for task 61: 1024 [Mb]
  | Current stacksize for task 62: 1024 [Mb]
  | Current stacksize for task 63: 1024 [Mb]
  | Current stacksize for task 64: 1024 [Mb]
  | Current stacksize for task 65: 1024 [Mb]
  | Current stacksize for task 66: 1024 [Mb]
  | Current stacksize for task 67: 1024 [Mb]
  | Current stacksize for task 68: 1024 [Mb]
  | Current stacksize for task 69: 1024 [Mb]
  | Current stacksize for task 70: 1024 [Mb]
  | Current stacksize for task 71: 1024 [Mb]
  | Current stacksize for task 72: 1024 [Mb]
  | Current stacksize for task 73: 1024 [Mb]
  | Current stacksize for task 74: 1024 [Mb]
  | Current stacksize for task 75: 1024 [Mb]
  | Current stacksize for task 76: 1024 [Mb]
  | Current stacksize for task 77: 1024 [Mb]
  | Current stacksize for task 78: 1024 [Mb]
  | Current stacksize for task 79: 1024 [Mb]
  | Current stacksize for task 80: 1024 [Mb]
  | Current stacksize for task 81: 1024 [Mb]
  | Current stacksize for task 82: 1024 [Mb]
  | Current stacksize for task 83: 1024 [Mb]
  | Current stacksize for task 84: 1024 [Mb]
  | Current stacksize for task 85: 1024 [Mb]
  | Current stacksize for task 86: 1024 [Mb]
  | Current stacksize for task 87: 1024 [Mb]
  | Current stacksize for task 88: 1024 [Mb]
  | Current stacksize for task 89: 1024 [Mb]
  | Current stacksize for task 90: 1024 [Mb]
  | Current stacksize for task 91: 1024 [Mb]
  | Current stacksize for task 92: 1024 [Mb]
  | Current stacksize for task 93: 1024 [Mb]
  | Current stacksize for task 94: 1024 [Mb]
  | Current stacksize for task 95: 1024 [Mb]
  | Current stacksize for task 96: 1024 [Mb]
  | Current stacksize for task 97: 1024 [Mb]
  | Current stacksize for task 98: 1024 [Mb]
  | Current stacksize for task 99: 1024 [Mb]
  | Current stacksize for task 100: 1024 [Mb]
  | Current stacksize for task 101: 1024 [Mb]
  | Current stacksize for task 102: 1024 [Mb]
  | Current stacksize for task 103: 1024 [Mb]
  | Current stacksize for task 104: 1024 [Mb]
  | Current stacksize for task 105: 1024 [Mb]
  | Current stacksize for task 106: 1024 [Mb]
  | Current stacksize for task 107: 1024 [Mb]
  | Current stacksize for task 108: 1024 [Mb]
  | Current stacksize for task 109: 1024 [Mb]
  | Current stacksize for task 110: 1024 [Mb]
  | Current stacksize for task 111: 1024 [Mb]
  | Current stacksize for task 112: 1024 [Mb]
  | Current stacksize for task 113: 1024 [Mb]
  | Current stacksize for task 114: 1024 [Mb]
  | Current stacksize for task 115: 1024 [Mb]
  | Current stacksize for task 116: 1024 [Mb]
  | Current stacksize for task 117: 1024 [Mb]
  | Current stacksize for task 118: 1024 [Mb]
  | Current stacksize for task 119: 1024 [Mb]
  | Current stacksize for task 120: 1024 [Mb]
  | Current stacksize for task 121: 1024 [Mb]
  | Current stacksize for task 122: 1024 [Mb]
  | Current stacksize for task 123: 1024 [Mb]
  | Current stacksize for task 124: 1024 [Mb]
  | Current stacksize for task 125: 1024 [Mb]
  | Current stacksize for task 126: 1024 [Mb]
  | Current stacksize for task 127: 1024 [Mb]
  | Current stacksize for task 128: 1024 [Mb]
  | Current stacksize for task 129: 1024 [Mb]
  | Current stacksize for task 130: 1024 [Mb]
  | Current stacksize for task 131: 1024 [Mb]
  | Current stacksize for task 132: 1024 [Mb]
  | Current stacksize for task 133: 1024 [Mb]
  | Current stacksize for task 134: 1024 [Mb]
  | Current stacksize for task 135: 1024 [Mb]
  | Current stacksize for task 136: 1024 [Mb]
  | Current stacksize for task 137: 1024 [Mb]
  | Current stacksize for task 138: 1024 [Mb]
  | Current stacksize for task 139: 1024 [Mb]
  | Current stacksize for task 140: 1024 [Mb]
  | Current stacksize for task 141: 1024 [Mb]
  | Current stacksize for task 142: 1024 [Mb]
  | Current stacksize for task 143: 1024 [Mb]
  | Current stacksize for task 144: 1024 [Mb]
  | Current stacksize for task 145: 1024 [Mb]
  | Current stacksize for task 146: 1024 [Mb]
  | Current stacksize for task 147: 1024 [Mb]
  | Current stacksize for task 148: 1024 [Mb]
  | Current stacksize for task 149: 1024 [Mb]
  | Current stacksize for task 150: 1024 [Mb]
  | Current stacksize for task 151: 1024 [Mb]
  | Current stacksize for task 152: 1024 [Mb]
  | Current stacksize for task 153: 1024 [Mb]
  | Current stacksize for task 154: 1024 [Mb]
  | Current stacksize for task 155: 1024 [Mb]
  | Current stacksize for task 156: 1024 [Mb]
  | Current stacksize for task 157: 1024 [Mb]
  | Current stacksize for task 158: 1024 [Mb]
  | Current stacksize for task 159: 1024 [Mb]
  | Current stacksize for task 160: 1024 [Mb]
  | Current stacksize for task 161: 1024 [Mb]
  | Current stacksize for task 162: 1024 [Mb]
  | Current stacksize for task 163: 1024 [Mb]
  | Current stacksize for task 164: 1024 [Mb]
  | Current stacksize for task 165: 1024 [Mb]
  | Current stacksize for task 166: 1024 [Mb]
  | Current stacksize for task 167: 1024 [Mb]
  | Current stacksize for task 168: 1024 [Mb]
  | Current stacksize for task 169: 1024 [Mb]
  | Current stacksize for task 170: 1024 [Mb]
  | Current stacksize for task 171: 1024 [Mb]
  | Current stacksize for task 172: 1024 [Mb]
  | Current stacksize for task 173: 1024 [Mb]
  | Current stacksize for task 174: 1024 [Mb]
  | Current stacksize for task 175: 1024 [Mb]
  | Current stacksize for task 176: 1024 [Mb]
  | Current stacksize for task 177: 1024 [Mb]
  | Current stacksize for task 178: 1024 [Mb]
  | Current stacksize for task 179: 1024 [Mb]
  | Current stacksize for task 180: 1024 [Mb]
  | Current stacksize for task 181: 1024 [Mb]
  | Current stacksize for task 182: 1024 [Mb]
  | Current stacksize for task 183: 1024 [Mb]
  | Current stacksize for task 184: 1024 [Mb]
  | Current stacksize for task 185: 1024 [Mb]
  | Current stacksize for task 186: 1024 [Mb]
  | Current stacksize for task 187: 1024 [Mb]
  | Current stacksize for task 188: 1024 [Mb]
  | Current stacksize for task 189: 1024 [Mb]
  | Current stacksize for task 190: 1024 [Mb]
  | Current stacksize for task 191: 1024 [Mb]
  | Current stacksize for task 192: 1024 [Mb]
  | Current stacksize for task 193: 1024 [Mb]
  | Current stacksize for task 194: 1024 [Mb]
  | Current stacksize for task 195: 1024 [Mb]
  | Current stacksize for task 196: 1024 [Mb]
  | Current stacksize for task 197: 1024 [Mb]
  | Current stacksize for task 198: 1024 [Mb]
  | Current stacksize for task 199: 1024 [Mb]
  | Current stacksize for task 200: 1024 [Mb]
  | Current stacksize for task 201: 1024 [Mb]
  | Current stacksize for task 202: 1024 [Mb]
  | Current stacksize for task 203: 1024 [Mb]
  | Current stacksize for task 204: 1024 [Mb]
  | Current stacksize for task 205: 1024 [Mb]
  | Current stacksize for task 206: 1024 [Mb]
  | Current stacksize for task 207: 1024 [Mb]
  | Current stacksize for task 208: 1024 [Mb]
  | Current stacksize for task 209: 1024 [Mb]
  | Current stacksize for task 210: 1024 [Mb]
  | Current stacksize for task 211: 1024 [Mb]
  | Current stacksize for task 212: 1024 [Mb]
  | Current stacksize for task 213: 1024 [Mb]
  | Current stacksize for task 214: 1024 [Mb]
  | Current stacksize for task 215: 1024 [Mb]
  | Current stacksize for task 216: 1024 [Mb]
  | Current stacksize for task 217: 1024 [Mb]
  | Current stacksize for task 218: 1024 [Mb]
  | Current stacksize for task 219: 1024 [Mb]
  | Current stacksize for task 220: 1024 [Mb]
  | Current stacksize for task 221: 1024 [Mb]
  | Current stacksize for task 222: 1024 [Mb]
  | Current stacksize for task 223: 1024 [Mb]
  | Current stacksize for task 224: 1024 [Mb]
  | Current stacksize for task 225: 1024 [Mb]
  | Current stacksize for task 226: 1024 [Mb]
  | Current stacksize for task 227: 1024 [Mb]
  | Current stacksize for task 228: 1024 [Mb]
  | Current stacksize for task 229: 1024 [Mb]
  | Current stacksize for task 230: 1024 [Mb]
  | Current stacksize for task 231: 1024 [Mb]
  | Current stacksize for task 232: 1024 [Mb]
  | Current stacksize for task 233: 1024 [Mb]
  | Current stacksize for task 234: 1024 [Mb]
  | Current stacksize for task 235: 1024 [Mb]
  | Current stacksize for task 236: 1024 [Mb]
  | Current stacksize for task 237: 1024 [Mb]
  | Current stacksize for task 238: 1024 [Mb]
  | Current stacksize for task 239: 1024 [Mb]
  | Current stacksize for task 240: 1024 [Mb]
  | Current stacksize for task 241: 1024 [Mb]
  | Current stacksize for task 242: 1024 [Mb]
  | Current stacksize for task 243: 1024 [Mb]
  | Current stacksize for task 244: 1024 [Mb]
  | Current stacksize for task 245: 1024 [Mb]
  | Current stacksize for task 246: 1024 [Mb]
  | Current stacksize for task 247: 1024 [Mb]
  | Current stacksize for task 248: 1024 [Mb]
  | Current stacksize for task 249: 1024 [Mb]
  | Current stacksize for task 250: 1024 [Mb]
  | Current stacksize for task 251: 1024 [Mb]
  | Current stacksize for task 252: 1024 [Mb]
  | Current stacksize for task 253: 1024 [Mb]
  | Current stacksize for task 254: 1024 [Mb]
  | Current stacksize for task 255: 1024 [Mb]

  Consistency checks for the contents of control.in are next.

  MPI_IN_PLACE appears to work with this MPI implementation.
  | Keeping use_mpi_in_place .true. (see manual).
  Target number of points in a grid batch is not set. Defaulting to  100
  Method for grid partitioning is not set. Defaulting to parallel hash+maxmin partitioning.
  Batch size limit is not set. Defaulting to    200
  By default, will store active basis functions for each batch.
  If in need of memory, prune_basis_once .false. can be used to disable this option.
  communication_type for Hartree potential was not specified.
  Defaulting to calc_hartree .
  Defaulting to Pulay charge density mixer.
  Pulay mixer: Number of relevant iterations not set.
  Defaulting to    8 iterations.
  Pulay mixer: Number of initial linear mixing iterations not set.
  Defaulting to    0 iterations.
  Work space size for distributed Hartree potential not set.
  Defaulting to   0.200000E+03 MB.
  Mixing parameter for charge density mixing has not been set.
  Using default: charge_mix_param =     0.0500.
  The mixing parameter will be adjusted in iteration number     2 of each s.c.f. cycle (i.e., each geometry step).
  Algorithm-dependent basis array size parameters:
  | n_max_pulay                         :        8
  Maximum number of self-consistency iterations not provided.
  Presetting  1000 iterations.
  Presetting      1001 iterations before the initial mixing cycle
  is restarted anyway using the sc_init_iter criterion / keyword.
  Presetting a factor      1.000 between actual scf density residual
  and density convergence criterion sc_accuracy_rho below which sc_init_iter
  takes no effect.
  No maximum number of relaxation steps, defaulting to     1000
  Default initial Hessian is Lindh matrix (thres = 15.00) plus  0.200000E+01 eV/A^2 times unity.
  No maximum energy tolerance for TRM/BFGS moves, defaulting to   0.150000E-02
  Maximum energy tolerance by which TRM/BFGS trajectory may increase over multiple steps:   0.300000E-02
  No harmonic length scale. Defaulting to   0.250000E-01 A.
  No trust radius initializer. Defaulting to   0.200000E+00 A.
  Forces evaluation will include force correction term due to incomplete self-consistency (default).
  Force calculation: scf convergence accuracy of forces not set.
  Defaulting to 'sc_accuracy_forces not_checked'.
  Handling of forces: Unphysical translation and rotation will be removed from forces.
  No accuracy limit for integral partition fn. given. Defaulting to  0.1000E-14.
  No threshold value for u(r) in integrations given. Defaulting to  0.1000E-05.
  No occupation type (smearing scheme) given. Defaulting to Gaussian broadening, width =  0.1000E-01 eV.
  The width will be adjusted in iteration number     2 of each s.c.f. cycle (i.e., each geometry step).
  No accuracy for occupation numbers given. Defaulting to  0.1000E-12.
  No threshold value for occupation numbers given. Defaulting to  0.0000E+00.
  No accuracy for fermi level given. Defaulting to  0.1000E-19.
  Maximum # of iterations to find E_F not set. Defaulting to  200.
  Preferred method for the eigenvalue solver ('KS_method') not specified in 'control.in'.
  Calling BLACS routine to test compilation state
  Since ScaLAPACK support is enabled, defaulting to ELPA (via ELSI).
  Will not use alltoall communication since running on < 1024 CPUs.
  Threshold for basis singularities not set.
  Default threshold for basis singularities:  0.1000E-04
  partition_type (choice of integration weights) for integrals was not specified.
  | Using a version of the partition function of Stratmann and coworkers ('stratmann_sparse').
  | At each grid point, the set of atoms used to build the partition table is smoothly restricted to
  | only those atoms whose free-atom density would be non-zero at that grid point.
  Partitioning for Hartree potential was not defined. Using partition_type for integrals.
  | Adjusted default value of keyword multip_moments_threshold to:       0.10000000E-11
  | This value may affect high angular momentum components of the Hartree potential in periodic systems.
  Using 2025 definition of centers list for evaluation of the Stratmann partition function.
  Spin handling was not defined in control.in. Defaulting to unpolarized case.
  Angular momentum expansion for Kerker preconditioner not set explicitly.
  | Using default value of   0
  No explicit requirement for turning off preconditioner.
  | By default, it will be turned off when the charge convergence reaches
  | sc_accuracy_rho  =   0.100000E-08
  No special mixing parameter while Kerker preconditioner is on.
  Using default: charge_mix_param =     0.0500.
  No q(lm)/r^(l+1) cutoff set for long-range Hartree potential.
  | Using default value of  0.100000E-09 .
  | Verify using the multipole_threshold keyword.
  Defaulting to new monopole extrapolation.
  Density update method: automatic selection selected.
  Using density matrix based charge density update.
  Using density matrix based charge density update.
  Using packed matrix style: index .
  Threshold of packed matrixes:  0.000000E+00
  Geometry relaxation: A file "geometry.in.next_step" is written out by default after each step.
  | This file contains the geometry of the current relaxation step as well as
  | the current Hessian matrix needed to restart the relaxation algorithm.
  | If you do not want part or all of this information, use the keywords
  | "write_restart_geometry" or "hessian_to_restart_geometry" to switch the output off.
  Defaulting to use time-reversal symmetry for k-point grid.
  Charge integration errors on the 3D integration grid will be compensated
  by explicit normalization and distribution of residual charges.
  Use the "compensate_multipole_errors" flag to change this behaviour.
  Using the following vdw_convergence_threshold for supercell sums
  over the Tkatchenko-Scheffler correction:  0.313000E-05 eV.
  Found no potential conflicts with setting 'use_local_index' for this calculation.
  Flag 'use_local_index' has not been set.
  Testing whether we classify this calculation as large-scale ...
  The calculation contains at least 100 atoms. This is most likely a large-scale calculation.
  Setting 'use_local_index' to .true.

  Consistency checks for the contents of geometry.in are next.


  Range separation radius for Ewald summation (hartree_convergence_parameter):      5.00000000 bohr.
  Number of empty states per atom not set in control.in - providing a guess from actual geometry.
  | Total number of empty states used during s.c.f. cycle:     1558
  If you use a very high smearing, use empty_states (per atom!) in control.in to increase this value.

  Structure-dependent array size parameters: 
  | Maximum number of distinct radial functions  :       41
  | Maximum number of basis functions            :    10914
  | Number of Kohn-Sham states (occupied + empty):     7721
------------------------------------------------------------

  Checking k-grid inconsistencies now:
  | k-point density for reciprocal lattice vector 1 is    3.74 nkpts / Angstrom^-1
  | k-point density for reciprocal lattice vector 2 is    3.74 nkpts / Angstrom^-1
  | k-point density for reciprocal vacuum lattice vector 3 is   16.91 nkpts / Angstrom^-1

  | Ratio of k-point densities for reciprocal lattice vectors 1 vs 2 is    1.00

  * The specified k_grid leads to a nearly homogenous k-grid density in non-vacuum directions,
  * and seems sensible.

  | Checks passed.
  After read_input_data [GB]:    241.42

  Performing system and environment tests:
  | Environment variable OMP_NUM_THREADS correctly set to 1.
  | Checking for ScaLAPACK...
  | Testing pdtran()...
  | All pdtran() tests passed.
  | Testing CPU compatibility for run-time vs. build-time.
  | Reading /proc/cpuinfo for CPU information ...
  | Built for  : AMD EPYC 7402 24-Core Processor
  *** WARNING: CPU mismatch detected for Node c2265.mahti.csc.fi : AMD EPYC 7H12 64-Core Processor                                                      
  *** WARNING: CPU mismatch detected for Node c2133.mahti.csc.fi : AMD EPYC 7H12 64-Core Processor                                                      
** WARNING:
  | WARNING: This FHI-aims executable was built on a different
  CPU type than the CPUs used in this run.

  | Running on different hardware than that on which a code was compiled
  | can produce incorrect results (wrong numbers) due to architecture-specific
  | optimizations made by the compiler. Those wrong numbers may occur only spuriously.
  | They are therefore very difficult to rule out even by tests ahead of time.

** END OF WARNING
  | Running on : AMD EPYC 7H12 64-Core Processor
  | Runtime CPU compatibility verified.
  
  After prepare_system [GB]:    241.42

------------------------------------------------------------
          Preparing all fixed parts of the calculation.
------------------------------------------------------------
  Determining machine precision:
     2.2250738585072014E-308
  Setting up grids for atomic and cluster calculations.

  Creating wave function, potential, and density for free atoms.
  Runtime choices for atomic solver:
  | atomic solver xc        : PBE
  | compute density gradient: 1
  | compute kinetic density : F

  Species: Ag

  List of occupied orbitals and eigenvalues:
    n    l              occ      energy [Ha]    energy [eV]
    1    0           2.0000      -958.376532    -26078.7523
    2    0           2.0000      -137.767969     -3748.8572
    3    0           2.0000       -25.141857      -684.1447
    4    0           2.0000        -3.485255       -94.8386
    5    0           1.0000        -0.153893        -4.1876
    2    1           6.0000      -123.525516     -3361.3003
    3    1           6.0000       -20.493405      -557.6539
    4    1           6.0000        -2.144152       -58.3453
    3    2          10.0000       -13.176580      -358.5530
    4    2          10.0000        -0.266890        -7.2624


  Species: C

  List of occupied orbitals and eigenvalues:
    n    l              occ      energy [Ha]    energy [eV]
    1    0           2.0000       -10.046810      -273.3876
    2    0           2.0000        -0.503128       -13.6908
    2    1           2.0000        -0.191849        -5.2205


  Species: H

  List of occupied orbitals and eigenvalues:
    n    l              occ      energy [Ha]    energy [eV]
    1    0           1.0000        -0.237593        -6.4652


  Species: N

  List of occupied orbitals and eigenvalues:
    n    l              occ      energy [Ha]    energy [eV]
    1    0           2.0000       -14.143973      -384.8771
    2    0           2.0000        -0.682008       -18.5584
    2    1           3.0000        -0.259605        -7.0642


  Species: Zn

  List of occupied orbitals and eigenvalues:
    n    l              occ      energy [Ha]    energy [eV]
    1    0           2.0000      -354.022475     -9633.4417
    2    0           2.0000       -42.636481     -1160.1977
    3    0           2.0000        -4.744301      -129.0990
    4    0           2.0000        -0.215070        -5.8523
    2    1           6.0000       -36.949818     -1005.4557
    3    1           6.0000        -3.059299       -83.2478
    3    2          10.0000        -0.367716       -10.0061


  Adding cutoff potential to free-atom effective potential.
  Creating fixed part of basis set: Ionic, confined, hydrogenic.

  Ag                   ion:

  List of free ionic orbitals and eigenvalues:
    n    l      energy [Ha]    energy [eV]
    1    0      -959.242502    -26102.3166
    2    0      -138.615368     -3771.9161
    3    0       -25.985886      -707.1119
    4    0        -4.320835      -117.5759
    2    1      -124.372537     -3384.3489
    3    1       -21.337322      -580.6181
    4    1        -2.974632       -80.9438
    3    2       -14.020465      -381.5163
    4    2        -1.061785       -28.8926


  List of ionic basis orbitals and eigenvalues:
    n    l      energy [Ha]    energy [eV]    outer radius [A]
    5    1        -0.525828       -14.3085       4.586811


  Ag                   hydrogenic:

  List of hydrogenic basis orbitals: 
    n    l      effective z      eigenvalue [eV]  inner max. [A]     outer max. [A]     outer radius [A]   
    4    3         7.600000       -49.1160           1.110807           1.110807           4.421638
    3    0         2.600000        -9.1732           0.149597           2.489137           4.643229
    4    2         8.400000       -60.0006           0.428073           1.334373           4.367912


  C                    hydrogenic:

  List of hydrogenic basis orbitals: 
    n    l      effective z      eigenvalue [eV]  inner max. [A]     outer max. [A]     outer radius [A]   
    2    1         1.700000        -9.7616           1.230570           1.230570           4.607917
    3    2         6.000000       -54.4224           0.792453           0.792453           3.883070
    2    0         4.900000       -81.6679           0.082559           0.562749           3.078220


  H                    hydrogenic:

  List of hydrogenic basis orbitals: 
    n    l      effective z      eigenvalue [eV]  inner max. [A]     outer max. [A]     outer radius [A]   
    2    0         2.100000       -14.9728           0.193243           1.317208           4.583499
    2    1         3.500000       -41.6669           0.602369           0.602369           3.723403


  N                    hydrogenic:

  List of hydrogenic basis orbitals: 
    n    l      effective z      eigenvalue [eV]  inner max. [A]     outer max. [A]     outer radius [A]   
    2    1         1.800000       -10.9749           1.177451           1.177451           4.573712
    3    2         6.800000       -69.9026           0.704619           0.704619           3.538137
    3    0         5.800000       -50.8545           0.067388           1.191934           4.250239


  Zn                   hydrogenic:

  List of hydrogenic basis orbitals: 
    n    l      effective z      eigenvalue [eV]  inner max. [A]     outer max. [A]     outer radius [A]   
    2    1         1.700000        -9.7616           1.235824           1.235824           4.571361
    3    0         2.900000       -12.1225           0.135202           2.305302           4.627589
    4    1         5.400000       -24.5018           0.278118           2.277292           4.627589
    4    3         7.800000       -51.7350           1.080326           1.080326           4.353199
    3    2         4.500000       -30.6110           1.054232           1.054232           4.515816

  Creating atomic-like basis functions for current effective potential.

  Species Ag                  :

  List of atomic basis orbitals and eigenvalues:
    n    l      energy [Ha]    energy [eV]    outer radius [A]
    1    0      -958.376532    -26078.7523       0.218529
    2    0      -137.767969     -3748.8572       0.595480
    3    0       -25.141857      -684.1447       1.384220
    4    0        -3.485255       -94.8386       3.462568
    5    0        -0.153893        -4.1876       4.586811
    2    1      -123.525516     -3361.3003       0.610219
    3    1       -20.493405      -557.6539       1.489569
    4    1        -2.144152       -58.3453       4.058994
    3    2       -13.176580      -358.5530       1.724930
    4    2        -0.266890        -7.2624       4.531079


  Species C                   :

  List of atomic basis orbitals and eigenvalues:
    n    l      energy [Ha]    energy [eV]    outer radius [A]
    1    0       -10.046810      -273.3876       1.934409
    2    0        -0.503128       -13.6908       4.496620
    2    1        -0.191849        -5.2205       4.551928


  Species H                   :

  List of atomic basis orbitals and eigenvalues:
    n    l      energy [Ha]    energy [eV]    outer radius [A]
    1    0        -0.237593        -6.4652       4.527807


  Species N                   :

  List of atomic basis orbitals and eigenvalues:
    n    l      energy [Ha]    energy [eV]    outer radius [A]
    1    0       -14.143973      -384.8771       1.637919
    2    0        -0.682008       -18.5584       4.463241
    2    1        -0.259605        -7.0642       4.518138


  Species Zn                  :

  List of atomic basis orbitals and eigenvalues:
    n    l      energy [Ha]    energy [eV]    outer radius [A]
    1    0      -354.022475     -9633.4417       0.350836
    2    0       -42.636481     -1160.1977       1.028769
    3    0        -4.744301      -129.0990       2.943830
    4    0        -0.215070        -5.8523       4.571361
    2    1       -36.949818     -1005.4557       1.067199
    3    1        -3.059299       -83.2478       3.493350
    3    2        -0.367716       -10.0061       4.460946

  Assembling full basis from fixed parts.
  | Species Ag :   atomic orbital   1 s accepted.
  | Species Ag :   atomic orbital   2 s accepted.
  | Species Ag :   atomic orbital   3 s accepted.
  | Species Ag :   atomic orbital   4 s accepted.
  | Species Ag :   atomic orbital   5 s accepted.
  | Species Ag :    hydro orbital   3 s accepted.
  | Species Ag :   atomic orbital   2 p accepted.
  | Species Ag :   atomic orbital   3 p accepted.
  | Species Ag :   atomic orbital   4 p accepted.
  | Species Ag :    ionic orbital   5 p accepted.
  | Species Ag :   atomic orbital   3 d accepted.
  | Species Ag :    hydro orbital   4 d accepted.
  | Species Ag :   atomic orbital   4 d accepted.
  | Species Ag :    hydro orbital   4 f accepted.
  | Species C :   atomic orbital   1 s accepted.
  | Species C :    hydro orbital   2 s accepted.
  | Species C :   atomic orbital   2 s accepted.
  | Species C :   atomic orbital   2 p accepted.
  | Species C :    hydro orbital   2 p accepted.
  | Species C :    hydro orbital   3 d accepted.
  | Species H :   atomic orbital   1 s accepted.
  | Species H :    hydro orbital   2 s accepted.
  | Species H :    hydro orbital   2 p accepted.
  | Species N :   atomic orbital   1 s accepted.
  | Species N :    hydro orbital   3 s accepted.
  | Species N :   atomic orbital   2 s accepted.
  | Species N :   atomic orbital   2 p accepted.
  | Species N :    hydro orbital   2 p accepted.
  | Species N :    hydro orbital   3 d accepted.
  | Species Zn :   atomic orbital   1 s accepted.
  | Species Zn :   atomic orbital   2 s accepted.
  | Species Zn :   atomic orbital   3 s accepted.
  | Species Zn :   atomic orbital   4 s accepted.
  | Species Zn :    hydro orbital   3 s accepted.
  | Species Zn :   atomic orbital   2 p accepted.
  | Species Zn :   atomic orbital   3 p accepted.
  | Species Zn :    hydro orbital   2 p accepted.
  | Species Zn :    hydro orbital   4 p accepted.
  | Species Zn :   atomic orbital   3 d accepted.
  | Species Zn :    hydro orbital   3 d accepted.
  | Species Zn :    hydro orbital   4 f accepted.

  Basis size parameters after reduction:
  | Total number of radial functions:       41
  | Total number of basis functions :    10914

  Per-task memory consumption for arrays in subroutine allocate_ext:
  |          15.452172MB.
  Testing on-site integration grid accuracy.
  |  Species  Function  <phi|h_atom|phi> (log., in eV)  <phi|h_atom|phi> (rad., in eV)
           1        1             -26078.7522962004             -26078.7050038282 ***
           1        2              -3748.8571825891              -3748.8564638138
           1        3               -684.1447429952               -684.1447145505
           1        4                -94.8386020389                -94.8385997776
           1        5                 -4.2026518779                 -4.2150124605
           1        6                  6.5883049883                  6.4593378836 ***
           1        7              -3361.3003164451              -3361.3003151577
           1        8               -557.6539219411               -557.6539191551
           1        9                -58.3453484083                -58.3453474066
           1       10                  1.2032632121                  1.1972375912
           1       11               -358.5529845261               -358.5529835865
           1       12                 17.9428490881                 17.9429259916
           1       13                 -6.0696970103                 -6.0698655744
           1       14                 24.3026730906                 24.3026930796
           2       15               -273.3876219248               -273.3875919908
           2       16                -10.7204647119                -10.7200987605
           2       17                 17.5782951162                 17.5752355731
           2       18                 -5.2222267983                 -5.2237454471
           2       19                  8.6866956284                  8.6634852736
           2       20                 27.4984676161                 27.4985577266
           3       21                 -6.4664147733                 -6.4652229287
           3       22                 13.7099062243                 13.7158503352
           3       23                 25.2661739479                 25.2663166526
           4       24               -384.8770852097               -384.8770238657
           4       25                 12.5754985572                 12.5755902269
           4       26                -15.7673946340                -15.7673131149
           4       27                 -7.0647024644                 -7.0651952861
           4       28                  8.8117910312                  8.7928686445
           4       29                 35.9641313274                 35.9643080893
           5       30              -9633.4416882338              -9633.4317844938
           5       31              -1160.1976900223              -1160.1975738372
           5       32               -129.0989980833               -129.0989955243
           5       33                 -5.8582781161                 -5.8657829222
           5       34                  5.5703594076                  5.4424908485 ***
           5       35              -1005.4556950709              -1005.4556937488
           5       36                -83.2477527453                -83.2477523351
           5       37                 -0.1774788700                 -0.1956203363
           5       38                 11.3497052281                 11.2804481313 ***
           5       39                -10.0060929413                -10.0061187189
           5       40                 16.4454898071                 16.4446506840
           5       41                 31.7037598931                 31.7038558113
 * Note: Onsite integrals marked "***" above are less accurate than
 * onsite_accuracy_threshold =    0.03000 eV. Usually, this is harmless.
 * However, one integral did have a negative value. This integral could be important.
 * When in doubt, tighten the "radial" and/or "radial_multiplier" flags to check.

  Preparing densities etc. for the partition functions (integrals / Hartree potential).

  Preparations completed.
  max(cpu_time)          :      0.488 s.
  Wall clock time (cpu1) :      0.494 s.
------------------------------------------------------------
  After prepare_scf [GB]:    236.22

  Initializing index lists of integration centers etc. from given atomic structure:
  Mapping all atomic coordinates to central unit cell.

  Initializing the k-points
  Using symmetry for reducing the k-points
  | k-points reduced from:        1 to        1
  | Number of k-points                             :         1
  The eigenvectors in the calculations are REAL.
  | Number of basis functions in the Hamiltonian integrals       :     18798
  | Number of basis functions in a single unit cell              :     10914
  | Number of centers in hartree potential                       :      1684
  | Number of centers in hartree multipole                       :       995
  | Number of centers in electron density summation              :       869
  | Number of centers in basis integrals                         :       880
  | Number of centers in integrals                               :       587
  | Number of centers in hamiltonian                             :       869
  | Number of centers in partition table from touching 0-cell    :       587
  | Number of centers in partition table total                   :       880
  | Consuming          0 KiB for k_phase.
  | Number of super-cells (origin) [n_cells]                     :          75
  | Number of super-cells (after PM_index) [n_cells]             :          10
  | Number of super-cells in hamiltonian [n_cells_in_hamiltonian]:          10
  | Size of matrix packed + index [n_hamiltonian_matrix_size]    :    14516546
  After initialize_bc_dependent_lists [GB]:    234.40

------------------------------------------------------------
          Begin self-consistency loop: Initialization.

          Date     :  20260304, Time     :  134654.073
------------------------------------------------------------

  Initializing relaxation algorithms.
  Finished initialization of distributed Hessian storage.
  | Global dimension:       555
  | BLACS block size:         3
  | Number of workers:      185

  Available memory per node after initialize_hartree_non_periodic_ewald [GB]:    234.18
  | Estimated reciprocal-space cutoff momentum G_max:         1.84432723 bohr^-1 .
  | Reciprocal lattice points for long-range Hartree potential:   41924
  Available memory per node after initialize_recip_hartree_potential [GB]:    234.18
  Using simple linear distribution as default method for k-point parallelism.
  * Using 256 tasks for Scalapack Eigenvalue solver.
  Detailed listing of tasks and assigned k-points:
   Task     0 k-point     1 on c2133.mahti.csc.fi
   Task     1 k-point     1 on c2133.mahti.csc.fi
   Task     2 k-point     1 on c2133.mahti.csc.fi
   Task     3 k-point     1 on c2133.mahti.csc.fi
   Task     4 k-point     1 on c2133.mahti.csc.fi
   Task     5 k-point     1 on c2133.mahti.csc.fi
   Task     6 k-point     1 on c2133.mahti.csc.fi
   Task     7 k-point     1 on c2133.mahti.csc.fi
   Task     8 k-point     1 on c2133.mahti.csc.fi
   Task     9 k-point     1 on c2133.mahti.csc.fi
   Task    10 k-point     1 on c2133.mahti.csc.fi
   Task    11 k-point     1 on c2133.mahti.csc.fi
   Task    12 k-point     1 on c2133.mahti.csc.fi
   Task    13 k-point     1 on c2133.mahti.csc.fi
   Task    14 k-point     1 on c2133.mahti.csc.fi
   Task    15 k-point     1 on c2133.mahti.csc.fi
   Task    16 k-point     1 on c2133.mahti.csc.fi
   Task    17 k-point     1 on c2133.mahti.csc.fi
   Task    18 k-point     1 on c2133.mahti.csc.fi
   Task    19 k-point     1 on c2133.mahti.csc.fi
   Task    20 k-point     1 on c2133.mahti.csc.fi
   Task    21 k-point     1 on c2133.mahti.csc.fi
   Task    22 k-point     1 on c2133.mahti.csc.fi
   Task    23 k-point     1 on c2133.mahti.csc.fi
   Task    24 k-point     1 on c2133.mahti.csc.fi
   Task    25 k-point     1 on c2133.mahti.csc.fi
   Task    26 k-point     1 on c2133.mahti.csc.fi
   Task    27 k-point     1 on c2133.mahti.csc.fi
   Task    28 k-point     1 on c2133.mahti.csc.fi
   Task    29 k-point     1 on c2133.mahti.csc.fi
   Task    30 k-point     1 on c2133.mahti.csc.fi
   Task    31 k-point     1 on c2133.mahti.csc.fi
   Task    32 k-point     1 on c2133.mahti.csc.fi
   Task    33 k-point     1 on c2133.mahti.csc.fi
   Task    34 k-point     1 on c2133.mahti.csc.fi
   Task    35 k-point     1 on c2133.mahti.csc.fi
   Task    36 k-point     1 on c2133.mahti.csc.fi
   Task    37 k-point     1 on c2133.mahti.csc.fi
   Task    38 k-point     1 on c2133.mahti.csc.fi
   Task    39 k-point     1 on c2133.mahti.csc.fi
   Task    40 k-point     1 on c2133.mahti.csc.fi
   Task    41 k-point     1 on c2133.mahti.csc.fi
   Task    42 k-point     1 on c2133.mahti.csc.fi
   Task    43 k-point     1 on c2133.mahti.csc.fi
   Task    44 k-point     1 on c2133.mahti.csc.fi
   Task    45 k-point     1 on c2133.mahti.csc.fi
   Task    46 k-point     1 on c2133.mahti.csc.fi
   Task    47 k-point     1 on c2133.mahti.csc.fi
   Task    48 k-point     1 on c2133.mahti.csc.fi
   Task    49 k-point     1 on c2133.mahti.csc.fi
   Task    50 k-point     1 on c2133.mahti.csc.fi
   Task    51 k-point     1 on c2133.mahti.csc.fi
   Task    52 k-point     1 on c2133.mahti.csc.fi
   Task    53 k-point     1 on c2133.mahti.csc.fi
   Task    54 k-point     1 on c2133.mahti.csc.fi
   Task    55 k-point     1 on c2133.mahti.csc.fi
   Task    56 k-point     1 on c2133.mahti.csc.fi
   Task    57 k-point     1 on c2133.mahti.csc.fi
   Task    58 k-point     1 on c2133.mahti.csc.fi
   Task    59 k-point     1 on c2133.mahti.csc.fi
   Task    60 k-point     1 on c2133.mahti.csc.fi
   Task    61 k-point     1 on c2133.mahti.csc.fi
   Task    62 k-point     1 on c2133.mahti.csc.fi
   Task    63 k-point     1 on c2133.mahti.csc.fi
   Task    64 k-point     1 on c2133.mahti.csc.fi
   Task    65 k-point     1 on c2133.mahti.csc.fi
   Task    66 k-point     1 on c2133.mahti.csc.fi
   Task    67 k-point     1 on c2133.mahti.csc.fi
   Task    68 k-point     1 on c2133.mahti.csc.fi
   Task    69 k-point     1 on c2133.mahti.csc.fi
   Task    70 k-point     1 on c2133.mahti.csc.fi
   Task    71 k-point     1 on c2133.mahti.csc.fi
   Task    72 k-point     1 on c2133.mahti.csc.fi
   Task    73 k-point     1 on c2133.mahti.csc.fi
   Task    74 k-point     1 on c2133.mahti.csc.fi
   Task    75 k-point     1 on c2133.mahti.csc.fi
   Task    76 k-point     1 on c2133.mahti.csc.fi
   Task    77 k-point     1 on c2133.mahti.csc.fi
   Task    78 k-point     1 on c2133.mahti.csc.fi
   Task    79 k-point     1 on c2133.mahti.csc.fi
   Task    80 k-point     1 on c2133.mahti.csc.fi
   Task    81 k-point     1 on c2133.mahti.csc.fi
   Task    82 k-point     1 on c2133.mahti.csc.fi
   Task    83 k-point     1 on c2133.mahti.csc.fi
   Task    84 k-point     1 on c2133.mahti.csc.fi
   Task    85 k-point     1 on c2133.mahti.csc.fi
   Task    86 k-point     1 on c2133.mahti.csc.fi
   Task    87 k-point     1 on c2133.mahti.csc.fi
   Task    88 k-point     1 on c2133.mahti.csc.fi
   Task    89 k-point     1 on c2133.mahti.csc.fi
   Task    90 k-point     1 on c2133.mahti.csc.fi
   Task    91 k-point     1 on c2133.mahti.csc.fi
   Task    92 k-point     1 on c2133.mahti.csc.fi
   Task    93 k-point     1 on c2133.mahti.csc.fi
   Task    94 k-point     1 on c2133.mahti.csc.fi
   Task    95 k-point     1 on c2133.mahti.csc.fi
   Task    96 k-point     1 on c2133.mahti.csc.fi
   Task    97 k-point     1 on c2133.mahti.csc.fi
   Task    98 k-point     1 on c2133.mahti.csc.fi
   Task    99 k-point     1 on c2133.mahti.csc.fi
   Task   100 k-point     1 on c2133.mahti.csc.fi
   Task   101 k-point     1 on c2133.mahti.csc.fi
   Task   102 k-point     1 on c2133.mahti.csc.fi
   Task   103 k-point     1 on c2133.mahti.csc.fi
   Task   104 k-point     1 on c2133.mahti.csc.fi
   Task   105 k-point     1 on c2133.mahti.csc.fi
   Task   106 k-point     1 on c2133.mahti.csc.fi
   Task   107 k-point     1 on c2133.mahti.csc.fi
   Task   108 k-point     1 on c2133.mahti.csc.fi
   Task   109 k-point     1 on c2133.mahti.csc.fi
   Task   110 k-point     1 on c2133.mahti.csc.fi
   Task   111 k-point     1 on c2133.mahti.csc.fi
   Task   112 k-point     1 on c2133.mahti.csc.fi
   Task   113 k-point     1 on c2133.mahti.csc.fi
   Task   114 k-point     1 on c2133.mahti.csc.fi
   Task   115 k-point     1 on c2133.mahti.csc.fi
   Task   116 k-point     1 on c2133.mahti.csc.fi
   Task   117 k-point     1 on c2133.mahti.csc.fi
   Task   118 k-point     1 on c2133.mahti.csc.fi
   Task   119 k-point     1 on c2133.mahti.csc.fi
   Task   120 k-point     1 on c2133.mahti.csc.fi
   Task   121 k-point     1 on c2133.mahti.csc.fi
   Task   122 k-point     1 on c2133.mahti.csc.fi
   Task   123 k-point     1 on c2133.mahti.csc.fi
   Task   124 k-point     1 on c2133.mahti.csc.fi
   Task   125 k-point     1 on c2133.mahti.csc.fi
   Task   126 k-point     1 on c2133.mahti.csc.fi
   Task   127 k-point     1 on c2133.mahti.csc.fi
   Task   128 k-point     1 on c2265.mahti.csc.fi
   Task   129 k-point     1 on c2265.mahti.csc.fi
   Task   130 k-point     1 on c2265.mahti.csc.fi
   Task   131 k-point     1 on c2265.mahti.csc.fi
   Task   132 k-point     1 on c2265.mahti.csc.fi
   Task   133 k-point     1 on c2265.mahti.csc.fi
   Task   134 k-point     1 on c2265.mahti.csc.fi
   Task   135 k-point     1 on c2265.mahti.csc.fi
   Task   136 k-point     1 on c2265.mahti.csc.fi
   Task   137 k-point     1 on c2265.mahti.csc.fi
   Task   138 k-point     1 on c2265.mahti.csc.fi
   Task   139 k-point     1 on c2265.mahti.csc.fi
   Task   140 k-point     1 on c2265.mahti.csc.fi
   Task   141 k-point     1 on c2265.mahti.csc.fi
   Task   142 k-point     1 on c2265.mahti.csc.fi
   Task   143 k-point     1 on c2265.mahti.csc.fi
   Task   144 k-point     1 on c2265.mahti.csc.fi
   Task   145 k-point     1 on c2265.mahti.csc.fi
   Task   146 k-point     1 on c2265.mahti.csc.fi
   Task   147 k-point     1 on c2265.mahti.csc.fi
   Task   148 k-point     1 on c2265.mahti.csc.fi
   Task   149 k-point     1 on c2265.mahti.csc.fi
   Task   150 k-point     1 on c2265.mahti.csc.fi
   Task   151 k-point     1 on c2265.mahti.csc.fi
   Task   152 k-point     1 on c2265.mahti.csc.fi
   Task   153 k-point     1 on c2265.mahti.csc.fi
   Task   154 k-point     1 on c2265.mahti.csc.fi
   Task   155 k-point     1 on c2265.mahti.csc.fi
   Task   156 k-point     1 on c2265.mahti.csc.fi
   Task   157 k-point     1 on c2265.mahti.csc.fi
   Task   158 k-point     1 on c2265.mahti.csc.fi
   Task   159 k-point     1 on c2265.mahti.csc.fi
   Task   160 k-point     1 on c2265.mahti.csc.fi
   Task   161 k-point     1 on c2265.mahti.csc.fi
   Task   162 k-point     1 on c2265.mahti.csc.fi
   Task   163 k-point     1 on c2265.mahti.csc.fi
   Task   164 k-point     1 on c2265.mahti.csc.fi
   Task   165 k-point     1 on c2265.mahti.csc.fi
   Task   166 k-point     1 on c2265.mahti.csc.fi
   Task   167 k-point     1 on c2265.mahti.csc.fi
   Task   168 k-point     1 on c2265.mahti.csc.fi
   Task   169 k-point     1 on c2265.mahti.csc.fi
   Task   170 k-point     1 on c2265.mahti.csc.fi
   Task   171 k-point     1 on c2265.mahti.csc.fi
   Task   172 k-point     1 on c2265.mahti.csc.fi
   Task   173 k-point     1 on c2265.mahti.csc.fi
   Task   174 k-point     1 on c2265.mahti.csc.fi
   Task   175 k-point     1 on c2265.mahti.csc.fi
   Task   176 k-point     1 on c2265.mahti.csc.fi
   Task   177 k-point     1 on c2265.mahti.csc.fi
   Task   178 k-point     1 on c2265.mahti.csc.fi
   Task   179 k-point     1 on c2265.mahti.csc.fi
   Task   180 k-point     1 on c2265.mahti.csc.fi
   Task   181 k-point     1 on c2265.mahti.csc.fi
   Task   182 k-point     1 on c2265.mahti.csc.fi
   Task   183 k-point     1 on c2265.mahti.csc.fi
   Task   184 k-point     1 on c2265.mahti.csc.fi
   Task   185 k-point     1 on c2265.mahti.csc.fi
   Task   186 k-point     1 on c2265.mahti.csc.fi
   Task   187 k-point     1 on c2265.mahti.csc.fi
   Task   188 k-point     1 on c2265.mahti.csc.fi
   Task   189 k-point     1 on c2265.mahti.csc.fi
   Task   190 k-point     1 on c2265.mahti.csc.fi
   Task   191 k-point     1 on c2265.mahti.csc.fi
   Task   192 k-point     1 on c2265.mahti.csc.fi
   Task   193 k-point     1 on c2265.mahti.csc.fi
   Task   194 k-point     1 on c2265.mahti.csc.fi
   Task   195 k-point     1 on c2265.mahti.csc.fi
   Task   196 k-point     1 on c2265.mahti.csc.fi
   Task   197 k-point     1 on c2265.mahti.csc.fi
   Task   198 k-point     1 on c2265.mahti.csc.fi
   Task   199 k-point     1 on c2265.mahti.csc.fi
   Task   200 k-point     1 on c2265.mahti.csc.fi
   Task   201 k-point     1 on c2265.mahti.csc.fi
   Task   202 k-point     1 on c2265.mahti.csc.fi
   Task   203 k-point     1 on c2265.mahti.csc.fi
   Task   204 k-point     1 on c2265.mahti.csc.fi
   Task   205 k-point     1 on c2265.mahti.csc.fi
   Task   206 k-point     1 on c2265.mahti.csc.fi
   Task   207 k-point     1 on c2265.mahti.csc.fi
   Task   208 k-point     1 on c2265.mahti.csc.fi
   Task   209 k-point     1 on c2265.mahti.csc.fi
   Task   210 k-point     1 on c2265.mahti.csc.fi
   Task   211 k-point     1 on c2265.mahti.csc.fi
   Task   212 k-point     1 on c2265.mahti.csc.fi
   Task   213 k-point     1 on c2265.mahti.csc.fi
   Task   214 k-point     1 on c2265.mahti.csc.fi
   Task   215 k-point     1 on c2265.mahti.csc.fi
   Task   216 k-point     1 on c2265.mahti.csc.fi
   Task   217 k-point     1 on c2265.mahti.csc.fi
   Task   218 k-point     1 on c2265.mahti.csc.fi
   Task   219 k-point     1 on c2265.mahti.csc.fi
   Task   220 k-point     1 on c2265.mahti.csc.fi
   Task   221 k-point     1 on c2265.mahti.csc.fi
   Task   222 k-point     1 on c2265.mahti.csc.fi
   Task   223 k-point     1 on c2265.mahti.csc.fi
   Task   224 k-point     1 on c2265.mahti.csc.fi
   Task   225 k-point     1 on c2265.mahti.csc.fi
   Task   226 k-point     1 on c2265.mahti.csc.fi
   Task   227 k-point     1 on c2265.mahti.csc.fi
   Task   228 k-point     1 on c2265.mahti.csc.fi
   Task   229 k-point     1 on c2265.mahti.csc.fi
   Task   230 k-point     1 on c2265.mahti.csc.fi
   Task   231 k-point     1 on c2265.mahti.csc.fi
   Task   232 k-point     1 on c2265.mahti.csc.fi
   Task   233 k-point     1 on c2265.mahti.csc.fi
   Task   234 k-point     1 on c2265.mahti.csc.fi
   Task   235 k-point     1 on c2265.mahti.csc.fi
   Task   236 k-point     1 on c2265.mahti.csc.fi
   Task   237 k-point     1 on c2265.mahti.csc.fi
   Task   238 k-point     1 on c2265.mahti.csc.fi
   Task   239 k-point     1 on c2265.mahti.csc.fi
   Task   240 k-point     1 on c2265.mahti.csc.fi
   Task   241 k-point     1 on c2265.mahti.csc.fi
   Task   242 k-point     1 on c2265.mahti.csc.fi
   Task   243 k-point     1 on c2265.mahti.csc.fi
   Task   244 k-point     1 on c2265.mahti.csc.fi
   Task   245 k-point     1 on c2265.mahti.csc.fi
   Task   246 k-point     1 on c2265.mahti.csc.fi
   Task   247 k-point     1 on c2265.mahti.csc.fi
   Task   248 k-point     1 on c2265.mahti.csc.fi
   Task   249 k-point     1 on c2265.mahti.csc.fi
   Task   250 k-point     1 on c2265.mahti.csc.fi
   Task   251 k-point     1 on c2265.mahti.csc.fi
   Task   252 k-point     1 on c2265.mahti.csc.fi
   Task   253 k-point     1 on c2265.mahti.csc.fi
   Task   254 k-point     1 on c2265.mahti.csc.fi
   Task   255 k-point     1 on c2265.mahti.csc.fi
  K-point:     1 Tasks:   256 split into     16 X     16 BLACS grid
  Calculating block size based on n_basis =        10914  max_nprow =           16  max_npcol =           16
  ScaLAPACK block size set to:           16
  Allocating        3.611 MB for ovlp
  Allocating        3.611 MB for ham
  Allocating        3.611 MB for eigenvec
  Required Scalapack workspace - INTEGER:            1  REAL:             1
  Available memory per node after initialize_scalapack [GB]:    233.69
  Available memory per node after aims_elsi_init_scf [GB]:    233.69
  Available memory per node after initialize_fixed_grids [GB]:    233.69
  Partitioning the integration grid into batches with parallel hashing+maxmin method.
  | Number of batches:    25487
  | Maximal batch size:     198
  | Minimal batch size:      57
  | Average batch size:      90.240
  | Standard deviation of batch sizes:      30.766

  Integration load balanced across    256 MPI tasks.
  Work distribution over tasks is as follows:
  Task      0 has       9093 integration points.
  Task      1 has       8995 integration points.
  Task      2 has       9011 integration points.
  Task      3 has       8953 integration points.
  Task      4 has       8996 integration points.
  Task      5 has       8966 integration points.
  Task      6 has       9042 integration points.
  Task      7 has       8918 integration points.
  Task      8 has       9089 integration points.
  Task      9 has       8954 integration points.
  Task     10 has       9015 integration points.
  Task     11 has       8926 integration points.
  Task     12 has       9071 integration points.
  Task     13 has       8936 integration points.
  Task     14 has       8990 integration points.
  Task     15 has       8896 integration points.
  Task     16 has       9080 integration points.
  Task     17 has       8967 integration points.
  Task     18 has       8965 integration points.
  Task     19 has       8956 integration points.
  Task     20 has       9053 integration points.
  Task     21 has       8958 integration points.
  Task     22 has       8945 integration points.
  Task     23 has       8937 integration points.
  Task     24 has       9048 integration points.
  Task     25 has       8987 integration points.
  Task     26 has       8960 integration points.
  Task     27 has       8936 integration points.
  Task     28 has       9034 integration points.
  Task     29 has       8996 integration points.
  Task     30 has       8971 integration points.
  Task     31 has       8926 integration points.
  Task     32 has       9023 integration points.
  Task     33 has       8993 integration points.
  Task     34 has       9025 integration points.
  Task     35 has       8973 integration points.
  Task     36 has       9027 integration points.
  Task     37 has       8982 integration points.
  Task     38 has       9023 integration points.
  Task     39 has       8943 integration points.
  Task     40 has       9033 integration points.
  Task     41 has       9003 integration points.
  Task     42 has       9033 integration points.
  Task     43 has       8911 integration points.
  Task     44 has       9069 integration points.
  Task     45 has       8950 integration points.
  Task     46 has       9073 integration points.
  Task     47 has       8799 integration points.
  Task     48 has       8988 integration points.
  Task     49 has       8976 integration points.
  Task     50 has       9015 integration points.
  Task     51 has       8934 integration points.
  Task     52 has       9125 integration points.
  Task     53 has       8920 integration points.
  Task     54 has       9025 integration points.
  Task     55 has       8840 integration points.
  Task     56 has       9049 integration points.
  Task     57 has       8949 integration points.
  Task     58 has       9029 integration points.
  Task     59 has       8962 integration points.
  Task     60 has       9057 integration points.
  Task     61 has       9021 integration points.
  Task     62 has       8924 integration points.
  Task     63 has       8832 integration points.
  Task     64 has       9027 integration points.
  Task     65 has       9005 integration points.
  Task     66 has       9023 integration points.
  Task     67 has       8961 integration points.
  Task     68 has       9006 integration points.
  Task     69 has       8981 integration points.
  Task     70 has       9007 integration points.
  Task     71 has       8944 integration points.
  Task     72 has       9049 integration points.
  Task     73 has       8960 integration points.
  Task     74 has       8973 integration points.
  Task     75 has       8934 integration points.
  Task     76 has       9030 integration points.
  Task     77 has       8941 integration points.
  Task     78 has       9019 integration points.
  Task     79 has       8908 integration points.
  Task     80 has       9063 integration points.
  Task     81 has       8954 integration points.
  Task     82 has       9005 integration points.
  Task     83 has       8999 integration points.
  Task     84 has       9024 integration points.
  Task     85 has       8993 integration points.
  Task     86 has       8973 integration points.
  Task     87 has       8898 integration points.
  Task     88 has       9029 integration points.
  Task     89 has       8953 integration points.
  Task     90 has       9009 integration points.
  Task     91 has       8972 integration points.
  Task     92 has       9001 integration points.
  Task     93 has       8991 integration points.
  Task     94 has       9000 integration points.
  Task     95 has       8877 integration points.
  Task     96 has       9083 integration points.
  Task     97 has       8942 integration points.
  Task     98 has       9006 integration points.
  Task     99 has       8957 integration points.
  Task    100 has       9175 integration points.
  Task    101 has       8971 integration points.
  Task    102 has       8973 integration points.
  Task    103 has       8831 integration points.
  Task    104 has       9053 integration points.
  Task    105 has       9014 integration points.
  Task    106 has       8996 integration points.
  Task    107 has       8936 integration points.
  Task    108 has       9092 integration points.
  Task    109 has       8840 integration points.
  Task    110 has       9043 integration points.
  Task    111 has       8886 integration points.
  Task    112 has       9052 integration points.
  Task    113 has       9002 integration points.
  Task    114 has       9004 integration points.
  Task    115 has       8909 integration points.
  Task    116 has       8979 integration points.
  Task    117 has       8964 integration points.
  Task    118 has       8991 integration points.
  Task    119 has       8913 integration points.
  Task    120 has       9023 integration points.
  Task    121 has       8972 integration points.
  Task    122 has       8995 integration points.
  Task    123 has       8995 integration points.
  Task    124 has       9030 integration points.
  Task    125 has       8887 integration points.
  Task    126 has       9019 integration points.
  Task    127 has       8889 integration points.
  Task    128 has       9024 integration points.
  Task    129 has       9015 integration points.
  Task    130 has       9012 integration points.
  Task    131 has       8957 integration points.
  Task    132 has       9007 integration points.
  Task    133 has       8982 integration points.
  Task    134 has       9000 integration points.
  Task    135 has       8928 integration points.
  Task    136 has       9070 integration points.
  Task    137 has       8951 integration points.
  Task    138 has       9001 integration points.
  Task    139 has       8990 integration points.
  Task    140 has       9046 integration points.
  Task    141 has       8969 integration points.
  Task    142 has       8996 integration points.
  Task    143 has       8881 integration points.
  Task    144 has       9078 integration points.
  Task    145 has       8967 integration points.
  Task    146 has       9036 integration points.
  Task    147 has       8895 integration points.
  Task    148 has       9060 integration points.
  Task    149 has       8939 integration points.
  Task    150 has       9025 integration points.
  Task    151 has       8889 integration points.
  Task    152 has       9030 integration points.
  Task    153 has       8959 integration points.
  Task    154 has       9006 integration points.
  Task    155 has       8975 integration points.
  Task    156 has       9025 integration points.
  Task    157 has       8980 integration points.
  Task    158 has       8995 integration points.
  Task    159 has       8887 integration points.
  Task    160 has       9086 integration points.
  Task    161 has       9000 integration points.
  Task    162 has       9029 integration points.
  Task    163 has       8973 integration points.
  Task    164 has       9138 integration points.
  Task    165 has       8895 integration points.
  Task    166 has       8955 integration points.
  Task    167 has       8885 integration points.
  Task    168 has       9114 integration points.
  Task    169 has       8927 integration points.
  Task    170 has       9047 integration points.
  Task    171 has       8898 integration points.
  Task    172 has       9032 integration points.
  Task    173 has       8957 integration points.
  Task    174 has       8944 integration points.
  Task    175 has       8923 integration points.
  Task    176 has       9073 integration points.
  Task    177 has       8992 integration points.
  Task    178 has       8977 integration points.
  Task    179 has       8954 integration points.
  Task    180 has       9088 integration points.
  Task    181 has       8842 integration points.
  Task    182 has       9066 integration points.
  Task    183 has       8855 integration points.
  Task    184 has       9048 integration points.
  Task    185 has       8923 integration points.
  Task    186 has       8974 integration points.
  Task    187 has       8966 integration points.
  Task    188 has       9110 integration points.
  Task    189 has       9027 integration points.
  Task    190 has       8959 integration points.
  Task    191 has       8814 integration points.
  Task    192 has       9058 integration points.
  Task    193 has       8990 integration points.
  Task    194 has       9026 integration points.
  Task    195 has       8971 integration points.
  Task    196 has       9047 integration points.
  Task    197 has       8971 integration points.
  Task    198 has       9002 integration points.
  Task    199 has       8891 integration points.
  Task    200 has       9035 integration points.
  Task    201 has       8964 integration points.
  Task    202 has       9035 integration points.
  Task    203 has       8934 integration points.
  Task    204 has       9000 integration points.
  Task    205 has       8948 integration points.
  Task    206 has       9039 integration points.
  Task    207 has       8906 integration points.
  Task    208 has       9077 integration points.
  Task    209 has       8957 integration points.
  Task    210 has       9016 integration points.
  Task    211 has       8947 integration points.
  Task    212 has       9046 integration points.
  Task    213 has       8917 integration points.
  Task    214 has       9007 integration points.
  Task    215 has       8917 integration points.
  Task    216 has       9029 integration points.
  Task    217 has       8997 integration points.
  Task    218 has       9008 integration points.
  Task    219 has       8896 integration points.
  Task    220 has       9005 integration points.
  Task    221 has       8960 integration points.
  Task    222 has       8970 integration points.
  Task    223 has       8944 integration points.
  Task    224 has       9048 integration points.
  Task    225 has       8985 integration points.
  Task    226 has       8995 integration points.
  Task    227 has       8944 integration points.
  Task    228 has       9112 integration points.
  Task    229 has       8878 integration points.
  Task    230 has       9063 integration points.
  Task    231 has       8877 integration points.
  Task    232 has       9023 integration points.
  Task    233 has       9003 integration points.
  Task    234 has       9052 integration points.
  Task    235 has       8932 integration points.
  Task    236 has       9104 integration points.
  Task    237 has       8887 integration points.
  Task    238 has       9056 integration points.
  Task    239 has       8804 integration points.
  Task    240 has       9012 integration points.
  Task    241 has       9000 integration points.
  Task    242 has       9045 integration points.
  Task    243 has       8906 integration points.
  Task    244 has       9097 integration points.
  Task    245 has       9011 integration points.
  Task    246 has       9006 integration points.
  Task    247 has       8788 integration points.
  Task    248 has       9059 integration points.
  Task    249 has       8980 integration points.
  Task    250 has       9005 integration points.
  Task    251 has       8903 integration points.
  Task    252 has       9059 integration points.
  Task    253 has       8858 integration points.
  Task    254 has       8969 integration points.
  Task    255 has       8934 integration points.
  Available memory per node after partition_grid [GB]:    233.45
  Initializing partition tables, free-atom densities, potentials, etc. across the integration grid (initialize_grid_storage).
  | initialize_grid_storage: Actual outermost partition radius vs. multipole_radius_free
  | (-- VB: in principle, multipole_radius_free should be larger, hence this output)
  | Species        1: Confinement radius =              4.999999999999999 AA, multipole_radius_free =              5.058069901110960 AA.
  | Species        1: outer_partition_radius set to              5.058069901110960 AA .
  | Species        2: Confinement radius =              4.999999999999999 AA, multipole_radius_free =              5.019602836301480 AA.
  | Species        2: outer_partition_radius set to              5.019602836301480 AA .
  | Species        3: Confinement radius =              4.999999999999999 AA, multipole_radius_free =              5.054417573612229 AA.
  | Species        3: outer_partition_radius set to              5.054417573612229 AA .
  | Species        4: Confinement radius =              4.999999999999999 AA, multipole_radius_free =              5.043624274424571 AA.
  | Species        4: outer_partition_radius set to              5.043624274424571 AA .
  | Species        5: Confinement radius =              4.999999999999999 AA, multipole_radius_free =              5.041031794424897 AA.
  | Species        5: outer_partition_radius set to              5.041031794424897 AA .
  | The sparse table of interatomic distances needs       1224.67 kbyte instead of      6195.20 kbyte of memory.
  | Net number of integration points:  2299958
  | of which are non-zero points    :  2012175
  | Numerical average free-atom electrostatic potential    :     -1.82986944 eV
  Available memory per node after initialize_grid_storage_p1 [GB]:    233.44
  Renormalizing the initial density to the exact electron count on the 3D integration grid.
  | Initial density: Formal number of electrons (from input files) :   12326.0000000000
  | Integrated number of electrons on 3D grid     :   12325.9688522342
  | Charge integration error                      :      -0.0311477658
  | Normalization factor for density and gradient :       1.0000025270
  Renormalizing the free-atom superposition density to the exact electron count on the 3D integration grid.
  | Formal number of electrons (from input files) :   12326.0000000000
  | Integrated number of electrons on 3D grid     :   12325.9688522342
  | Charge integration error                      :      -0.0311477658
  | Normalization factor for density and gradient :       1.0000025270
  Obtaining max. number of non-zero basis functions in each batch (get_n_compute_maxes).
  | Maximal number of non-zero basis functions:      711 in task     0
  | Maximal number of non-zero basis functions:      721 in task     1
  | Maximal number of non-zero basis functions:      711 in task     2
  | Maximal number of non-zero basis functions:      711 in task     3
  | Maximal number of non-zero basis functions:      852 in task     4
  | Maximal number of non-zero basis functions:      853 in task     5
  | Maximal number of non-zero basis functions:      862 in task     6
  | Maximal number of non-zero basis functions:      851 in task     7
  | Maximal number of non-zero basis functions:      721 in task     8
  | Maximal number of non-zero basis functions:      705 in task     9
  | Maximal number of non-zero basis functions:      726 in task    10
  | Maximal number of non-zero basis functions:      713 in task    11
  | Maximal number of non-zero basis functions:      857 in task    12
  | Maximal number of non-zero basis functions:      857 in task    13
  | Maximal number of non-zero basis functions:      855 in task    14
  | Maximal number of non-zero basis functions:      858 in task    15
  | Maximal number of non-zero basis functions:      721 in task    16
  | Maximal number of non-zero basis functions:      714 in task    17
  | Maximal number of non-zero basis functions:      724 in task    18
  | Maximal number of non-zero basis functions:      693 in task    19
  | Maximal number of non-zero basis functions:      862 in task    20
  | Maximal number of non-zero basis functions:      854 in task    21
  | Maximal number of non-zero basis functions:      854 in task    22
  | Maximal number of non-zero basis functions:      867 in task    23
  | Maximal number of non-zero basis functions:      724 in task    24
  | Maximal number of non-zero basis functions:      715 in task    25
  | Maximal number of non-zero basis functions:      720 in task    26
  | Maximal number of non-zero basis functions:      735 in task    27
  | Maximal number of non-zero basis functions:      857 in task    28
  | Maximal number of non-zero basis functions:      865 in task    29
  | Maximal number of non-zero basis functions:      864 in task    30
  | Maximal number of non-zero basis functions:      854 in task    31
  | Maximal number of non-zero basis functions:      855 in task    32
  | Maximal number of non-zero basis functions:      619 in task    33
  | Maximal number of non-zero basis functions:      858 in task    34
  | Maximal number of non-zero basis functions:      639 in task    35
  | Maximal number of non-zero basis functions:      837 in task    36
  | Maximal number of non-zero basis functions:      621 in task    37
  | Maximal number of non-zero basis functions:      841 in task    38
  | Maximal number of non-zero basis functions:      666 in task    39
  | Maximal number of non-zero basis functions:      854 in task    40
  | Maximal number of non-zero basis functions:      836 in task    41
  | Maximal number of non-zero basis functions:      876 in task    42
  | Maximal number of non-zero basis functions:      853 in task    43
  | Maximal number of non-zero basis functions:      673 in task    44
  | Maximal number of non-zero basis functions:      682 in task    45
  | Maximal number of non-zero basis functions:      390 in task    46
  | Maximal number of non-zero basis functions:      408 in task    47
  | Maximal number of non-zero basis functions:      856 in task    48
  | Maximal number of non-zero basis functions:      843 in task    49
  | Maximal number of non-zero basis functions:      833 in task    50
  | Maximal number of non-zero basis functions:      855 in task    51
  | Maximal number of non-zero basis functions:      696 in task    52
  | Maximal number of non-zero basis functions:      648 in task    53
  | Maximal number of non-zero basis functions:      758 in task    54
  | Maximal number of non-zero basis functions:      596 in task    55
  | Maximal number of non-zero basis functions:      866 in task    56
  | Maximal number of non-zero basis functions:      730 in task    57
  | Maximal number of non-zero basis functions:      869 in task    58
  | Maximal number of non-zero basis functions:      857 in task    59
  | Maximal number of non-zero basis functions:      576 in task    60
  | Maximal number of non-zero basis functions:      430 in task    61
  | Maximal number of non-zero basis functions:      549 in task    62
  | Maximal number of non-zero basis functions:      480 in task    63
  | Maximal number of non-zero basis functions:      721 in task    64
  | Maximal number of non-zero basis functions:      692 in task    65
  | Maximal number of non-zero basis functions:      711 in task    66
  | Maximal number of non-zero basis functions:      704 in task    67
  | Maximal number of non-zero basis functions:      867 in task    68
  | Maximal number of non-zero basis functions:      856 in task    69
  | Maximal number of non-zero basis functions:      872 in task    70
  | Maximal number of non-zero basis functions:      864 in task    71
  | Maximal number of non-zero basis functions:      738 in task    72
  | Maximal number of non-zero basis functions:      721 in task    73
  | Maximal number of non-zero basis functions:      711 in task    74
  | Maximal number of non-zero basis functions:      705 in task    75
  | Maximal number of non-zero basis functions:      853 in task    76
  | Maximal number of non-zero basis functions:      860 in task    77
  | Maximal number of non-zero basis functions:      864 in task    78
  | Maximal number of non-zero basis functions:      860 in task    79
  | Maximal number of non-zero basis functions:      720 in task    80
  | Maximal number of non-zero basis functions:      712 in task    81
  | Maximal number of non-zero basis functions:      716 in task    82
  | Maximal number of non-zero basis functions:      704 in task    83
  | Maximal number of non-zero basis functions:      855 in task    84
  | Maximal number of non-zero basis functions:      861 in task    85
  | Maximal number of non-zero basis functions:      856 in task    86
  | Maximal number of non-zero basis functions:      865 in task    87
  | Maximal number of non-zero basis functions:      716 in task    88
  | Maximal number of non-zero basis functions:      720 in task    89
  | Maximal number of non-zero basis functions:      715 in task    90
  | Maximal number of non-zero basis functions:      739 in task    91
  | Maximal number of non-zero basis functions:      862 in task    92
  | Maximal number of non-zero basis functions:      848 in task    93
  | Maximal number of non-zero basis functions:      860 in task    94
  | Maximal number of non-zero basis functions:      865 in task    95
  | Maximal number of non-zero basis functions:      857 in task    96
  | Maximal number of non-zero basis functions:      861 in task    97
  | Maximal number of non-zero basis functions:      863 in task    98
  | Maximal number of non-zero basis functions:      862 in task    99
  | Maximal number of non-zero basis functions:      628 in task   100
  | Maximal number of non-zero basis functions:      681 in task   101
  | Maximal number of non-zero basis functions:      781 in task   102
  | Maximal number of non-zero basis functions:      619 in task   103
  | Maximal number of non-zero basis functions:      843 in task   104
  | Maximal number of non-zero basis functions:      814 in task   105
  | Maximal number of non-zero basis functions:      860 in task   106
  | Maximal number of non-zero basis functions:      759 in task   107
  | Maximal number of non-zero basis functions:      597 in task   108
  | Maximal number of non-zero basis functions:      451 in task   109
  | Maximal number of non-zero basis functions:      493 in task   110
  | Maximal number of non-zero basis functions:      435 in task   111
  | Maximal number of non-zero basis functions:      841 in task   112
  | Maximal number of non-zero basis functions:      627 in task   113
  | Maximal number of non-zero basis functions:      856 in task   114
  | Maximal number of non-zero basis functions:      652 in task   115
  | Maximal number of non-zero basis functions:      832 in task   116
  | Maximal number of non-zero basis functions:      695 in task   117
  | Maximal number of non-zero basis functions:      833 in task   118
  | Maximal number of non-zero basis functions:      612 in task   119
  | Maximal number of non-zero basis functions:      854 in task   120
  | Maximal number of non-zero basis functions:      869 in task   121
  | Maximal number of non-zero basis functions:      837 in task   122
  | Maximal number of non-zero basis functions:      835 in task   123
  | Maximal number of non-zero basis functions:      637 in task   124
  | Maximal number of non-zero basis functions:      342 in task   125
  | Maximal number of non-zero basis functions:      700 in task   126
  | Maximal number of non-zero basis functions:      386 in task   127
  | Maximal number of non-zero basis functions:      720 in task   128
  | Maximal number of non-zero basis functions:      704 in task   129
  | Maximal number of non-zero basis functions:      703 in task   130
  | Maximal number of non-zero basis functions:      703 in task   131
  | Maximal number of non-zero basis functions:      866 in task   132
  | Maximal number of non-zero basis functions:      855 in task   133
  | Maximal number of non-zero basis functions:      860 in task   134
  | Maximal number of non-zero basis functions:      855 in task   135
  | Maximal number of non-zero basis functions:      721 in task   136
  | Maximal number of non-zero basis functions:      704 in task   137
  | Maximal number of non-zero basis functions:      711 in task   138
  | Maximal number of non-zero basis functions:      721 in task   139
  | Maximal number of non-zero basis functions:      854 in task   140
  | Maximal number of non-zero basis functions:      856 in task   141
  | Maximal number of non-zero basis functions:      857 in task   142
  | Maximal number of non-zero basis functions:      856 in task   143
  | Maximal number of non-zero basis functions:      701 in task   144
  | Maximal number of non-zero basis functions:      721 in task   145
  | Maximal number of non-zero basis functions:      721 in task   146
  | Maximal number of non-zero basis functions:      732 in task   147
  | Maximal number of non-zero basis functions:      849 in task   148
  | Maximal number of non-zero basis functions:      852 in task   149
  | Maximal number of non-zero basis functions:      868 in task   150
  | Maximal number of non-zero basis functions:      864 in task   151
  | Maximal number of non-zero basis functions:      721 in task   152
  | Maximal number of non-zero basis functions:      742 in task   153
  | Maximal number of non-zero basis functions:      713 in task   154
  | Maximal number of non-zero basis functions:      711 in task   155
  | Maximal number of non-zero basis functions:      865 in task   156
  | Maximal number of non-zero basis functions:      857 in task   157
  | Maximal number of non-zero basis functions:      861 in task   158
  | Maximal number of non-zero basis functions:      860 in task   159
  | Maximal number of non-zero basis functions:      844 in task   160
  | Maximal number of non-zero basis functions:      855 in task   161
  | Maximal number of non-zero basis functions:      868 in task   162
  | Maximal number of non-zero basis functions:      876 in task   163
  | Maximal number of non-zero basis functions:      702 in task   164
  | Maximal number of non-zero basis functions:      410 in task   165
  | Maximal number of non-zero basis functions:      645 in task   166
  | Maximal number of non-zero basis functions:      378 in task   167
  | Maximal number of non-zero basis functions:      851 in task   168
  | Maximal number of non-zero basis functions:      620 in task   169
  | Maximal number of non-zero basis functions:      836 in task   170
  | Maximal number of non-zero basis functions:      647 in task   171
  | Maximal number of non-zero basis functions:      841 in task   172
  | Maximal number of non-zero basis functions:      652 in task   173
  | Maximal number of non-zero basis functions:      844 in task   174
  | Maximal number of non-zero basis functions:      634 in task   175
  | Maximal number of non-zero basis functions:      864 in task   176
  | Maximal number of non-zero basis functions:      776 in task   177
  | Maximal number of non-zero basis functions:      868 in task   178
  | Maximal number of non-zero basis functions:      799 in task   179
  | Maximal number of non-zero basis functions:      512 in task   180
  | Maximal number of non-zero basis functions:      437 in task   181
  | Maximal number of non-zero basis functions:      609 in task   182
  | Maximal number of non-zero basis functions:      496 in task   183
  | Maximal number of non-zero basis functions:      860 in task   184
  | Maximal number of non-zero basis functions:      854 in task   185
  | Maximal number of non-zero basis functions:      845 in task   186
  | Maximal number of non-zero basis functions:      858 in task   187
  | Maximal number of non-zero basis functions:      762 in task   188
  | Maximal number of non-zero basis functions:      614 in task   189
  | Maximal number of non-zero basis functions:      648 in task   190
  | Maximal number of non-zero basis functions:      684 in task   191
  | Maximal number of non-zero basis functions:      756 in task   192
  | Maximal number of non-zero basis functions:      712 in task   193
  | Maximal number of non-zero basis functions:      704 in task   194
  | Maximal number of non-zero basis functions:      721 in task   195
  | Maximal number of non-zero basis functions:      863 in task   196
  | Maximal number of non-zero basis functions:      863 in task   197
  | Maximal number of non-zero basis functions:      867 in task   198
  | Maximal number of non-zero basis functions:      867 in task   199
  | Maximal number of non-zero basis functions:      721 in task   200
  | Maximal number of non-zero basis functions:      720 in task   201
  | Maximal number of non-zero basis functions:      721 in task   202
  | Maximal number of non-zero basis functions:      721 in task   203
  | Maximal number of non-zero basis functions:      854 in task   204
  | Maximal number of non-zero basis functions:      860 in task   205
  | Maximal number of non-zero basis functions:      865 in task   206
  | Maximal number of non-zero basis functions:      852 in task   207
  | Maximal number of non-zero basis functions:      692 in task   208
  | Maximal number of non-zero basis functions:      705 in task   209
  | Maximal number of non-zero basis functions:      711 in task   210
  | Maximal number of non-zero basis functions:      701 in task   211
  | Maximal number of non-zero basis functions:      867 in task   212
  | Maximal number of non-zero basis functions:      856 in task   213
  | Maximal number of non-zero basis functions:      846 in task   214
  | Maximal number of non-zero basis functions:      854 in task   215
  | Maximal number of non-zero basis functions:      720 in task   216
  | Maximal number of non-zero basis functions:      723 in task   217
  | Maximal number of non-zero basis functions:      681 in task   218
  | Maximal number of non-zero basis functions:      681 in task   219
  | Maximal number of non-zero basis functions:      857 in task   220
  | Maximal number of non-zero basis functions:      852 in task   221
  | Maximal number of non-zero basis functions:      865 in task   222
  | Maximal number of non-zero basis functions:      864 in task   223
  | Maximal number of non-zero basis functions:      862 in task   224
  | Maximal number of non-zero basis functions:      841 in task   225
  | Maximal number of non-zero basis functions:      868 in task   226
  | Maximal number of non-zero basis functions:      765 in task   227
  | Maximal number of non-zero basis functions:      540 in task   228
  | Maximal number of non-zero basis functions:      478 in task   229
  | Maximal number of non-zero basis functions:      520 in task   230
  | Maximal number of non-zero basis functions:      421 in task   231
  | Maximal number of non-zero basis functions:      867 in task   232
  | Maximal number of non-zero basis functions:      834 in task   233
  | Maximal number of non-zero basis functions:      833 in task   234
  | Maximal number of non-zero basis functions:      841 in task   235
  | Maximal number of non-zero basis functions:      758 in task   236
  | Maximal number of non-zero basis functions:      600 in task   237
  | Maximal number of non-zero basis functions:      699 in task   238
  | Maximal number of non-zero basis functions:      651 in task   239
  | Maximal number of non-zero basis functions:      842 in task   240
  | Maximal number of non-zero basis functions:      855 in task   241
  | Maximal number of non-zero basis functions:      844 in task   242
  | Maximal number of non-zero basis functions:      843 in task   243
  | Maximal number of non-zero basis functions:      681 in task   244
  | Maximal number of non-zero basis functions:      672 in task   245
  | Maximal number of non-zero basis functions:      408 in task   246
  | Maximal number of non-zero basis functions:      337 in task   247
  | Maximal number of non-zero basis functions:      839 in task   248
  | Maximal number of non-zero basis functions:      651 in task   249
  | Maximal number of non-zero basis functions:      840 in task   250
  | Maximal number of non-zero basis functions:      619 in task   251
  | Maximal number of non-zero basis functions:      841 in task   252
  | Maximal number of non-zero basis functions:      636 in task   253
  | Maximal number of non-zero basis functions:      837 in task   254
  | Maximal number of non-zero basis functions:      610 in task   255
  Available memory per node after get_n_compute_maxes_p1 [GB]:    232.60
  Available memory per node after allocate_matrices [GB]:    232.60
  use_local_index: Max. local matrix size =      1445784
  Task:     0 matrix size:     670124
  Task:     1 matrix size:     651417
  Task:     2 matrix size:     663781
  Task:     3 matrix size:     641990
  Task:     4 matrix size:     981769
  Task:     5 matrix size:     987694
  Task:     6 matrix size:     997868
  Task:     7 matrix size:    1008020
  Task:     8 matrix size:     681405
  Task:     9 matrix size:     645167
  Task:    10 matrix size:     657614
  Task:    11 matrix size:     645170
  Task:    12 matrix size:    1007280
  Task:    13 matrix size:     989239
  Task:    14 matrix size:    1008352
  Task:    15 matrix size:    1007612
  Task:    16 matrix size:     646642
  Task:    17 matrix size:     648323
  Task:    18 matrix size:     648264
  Task:    19 matrix size:     668906
  Task:    20 matrix size:     984159
  Task:    21 matrix size:     990256
  Task:    22 matrix size:    1004762
  Task:    23 matrix size:    1014013
  Task:    24 matrix size:     660122
  Task:    25 matrix size:     665396
  Task:    26 matrix size:     648265
  Task:    27 matrix size:     654781
  Task:    28 matrix size:     998147
  Task:    29 matrix size:     988970
  Task:    30 matrix size:    1014478
  Task:    31 matrix size:     998365
  Task:    32 matrix size:    1079945
  Task:    33 matrix size:     510627
  Task:    34 matrix size:    1067926
  Task:    35 matrix size:     604280
  Task:    36 matrix size:    1051465
  Task:    37 matrix size:     604209
  Task:    38 matrix size:    1073036
  Task:    39 matrix size:     698132
  Task:    40 matrix size:     912947
  Task:    41 matrix size:     990854
  Task:    42 matrix size:     991481
  Task:    43 matrix size:    1105587
  Task:    44 matrix size:     743145
  Task:    45 matrix size:     647715
  Task:    46 matrix size:     259408
  Task:    47 matrix size:     174873
  Task:    48 matrix size:    1012531
  Task:    49 matrix size:    1076207
  Task:    50 matrix size:    1062137
  Task:    51 matrix size:    1095181
  Task:    52 matrix size:     858458
  Task:    53 matrix size:     792314
  Task:    54 matrix size:     832824
  Task:    55 matrix size:     428857
  Task:    56 matrix size:    1221820
  Task:    57 matrix size:     803837
  Task:    58 matrix size:    1361630
  Task:    59 matrix size:     846852
  Task:    60 matrix size:     347101
  Task:    61 matrix size:     182106
  Task:    62 matrix size:     396938
  Task:    63 matrix size:     264640
  Task:    64 matrix size:     670121
  Task:    65 matrix size:     645146
  Task:    66 matrix size:     648355
  Task:    67 matrix size:     654553
  Task:    68 matrix size:     988919
  Task:    69 matrix size:     989366
  Task:    70 matrix size:     968791
  Task:    71 matrix size:     957950
  Task:    72 matrix size:     690052
  Task:    73 matrix size:     645182
  Task:    74 matrix size:     666431
  Task:    75 matrix size:     650717
  Task:    76 matrix size:     975210
  Task:    77 matrix size:     968074
  Task:    78 matrix size:    1009972
  Task:    79 matrix size:     970368
  Task:    80 matrix size:     687772
  Task:    81 matrix size:     645057
  Task:    82 matrix size:     649914
  Task:    83 matrix size:     641968
  Task:    84 matrix size:    1007538
  Task:    85 matrix size:    1014192
  Task:    86 matrix size:     985037
  Task:    87 matrix size:     984696
  Task:    88 matrix size:     667024
  Task:    89 matrix size:     641987
  Task:    90 matrix size:     651403
  Task:    91 matrix size:     656088
  Task:    92 matrix size:    1020961
  Task:    93 matrix size:     953960
  Task:    94 matrix size:     968529
  Task:    95 matrix size:    1041167
  Task:    96 matrix size:    1110387
  Task:    97 matrix size:     991456
  Task:    98 matrix size:    1119096
  Task:    99 matrix size:     963529
  Task:   100 matrix size:     867664
  Task:   101 matrix size:     819493
  Task:   102 matrix size:     864095
  Task:   103 matrix size:     422781
  Task:   104 matrix size:    1431638
  Task:   105 matrix size:     877595
  Task:   106 matrix size:    1244974
  Task:   107 matrix size:     778247
  Task:   108 matrix size:     447922
  Task:   109 matrix size:     251565
  Task:   110 matrix size:     288578
  Task:   111 matrix size:     201661
  Task:   112 matrix size:    1044790
  Task:   113 matrix size:     560432
  Task:   114 matrix size:    1031103
  Task:   115 matrix size:     559495
  Task:   116 matrix size:    1072135
  Task:   117 matrix size:     691284
  Task:   118 matrix size:    1080248
  Task:   119 matrix size:     608162
  Task:   120 matrix size:     984488
  Task:   121 matrix size:    1157659
  Task:   122 matrix size:     937458
  Task:   123 matrix size:     945362
  Task:   124 matrix size:     540271
  Task:   125 matrix size:     154953
  Task:   126 matrix size:     766270
  Task:   127 matrix size:     295148
  Task:   128 matrix size:     681886
  Task:   129 matrix size:     671615
  Task:   130 matrix size:     647610
  Task:   131 matrix size:     645134
  Task:   132 matrix size:     953347
  Task:   133 matrix size:     991332
  Task:   134 matrix size:    1001167
  Task:   135 matrix size:     997242
  Task:   136 matrix size:     651416
  Task:   137 matrix size:     645057
  Task:   138 matrix size:     649803
  Task:   139 matrix size:     651438
  Task:   140 matrix size:     983389
  Task:   141 matrix size:    1020952
  Task:   142 matrix size:     978209
  Task:   143 matrix size:     972203
  Task:   144 matrix size:     699571
  Task:   145 matrix size:     654641
  Task:   146 matrix size:     648252
  Task:   147 matrix size:     651336
  Task:   148 matrix size:    1026733
  Task:   149 matrix size:     951627
  Task:   150 matrix size:     977616
  Task:   151 matrix size:    1003950
  Task:   152 matrix size:     661879
  Task:   153 matrix size:     659691
  Task:   154 matrix size:     648216
  Task:   155 matrix size:     635175
  Task:   156 matrix size:    1053397
  Task:   157 matrix size:     999607
  Task:   158 matrix size:     959248
  Task:   159 matrix size:    1002448
  Task:   160 matrix size:    1082449
  Task:   161 matrix size:     850647
  Task:   162 matrix size:    1149283
  Task:   163 matrix size:     951926
  Task:   164 matrix size:     792454
  Task:   165 matrix size:     311314
  Task:   166 matrix size:     542143
  Task:   167 matrix size:     173081
  Task:   168 matrix size:    1032077
  Task:   169 matrix size:     591566
  Task:   170 matrix size:    1085959
  Task:   171 matrix size:     659454
  Task:   172 matrix size:    1065487
  Task:   173 matrix size:     570622
  Task:   174 matrix size:    1017846
  Task:   175 matrix size:     542594
  Task:   176 matrix size:    1142595
  Task:   177 matrix size:     759383
  Task:   178 matrix size:    1445784
  Task:   179 matrix size:     912534
  Task:   180 matrix size:     311947
  Task:   181 matrix size:     181405
  Task:   182 matrix size:     439926
  Task:   183 matrix size:     239187
  Task:   184 matrix size:    1020157
  Task:   185 matrix size:    1087371
  Task:   186 matrix size:    1019129
  Task:   187 matrix size:    1108418
  Task:   188 matrix size:     880985
  Task:   189 matrix size:     430659
  Task:   190 matrix size:     899468
  Task:   191 matrix size:     817864
  Task:   192 matrix size:     672225
  Task:   193 matrix size:     666946
  Task:   194 matrix size:     650731
  Task:   195 matrix size:     648377
  Task:   196 matrix size:    1023020
  Task:   197 matrix size:    1005894
  Task:   198 matrix size:     993503
  Task:   199 matrix size:     984528
  Task:   200 matrix size:     651445
  Task:   201 matrix size:     654517
  Task:   202 matrix size:     654547
  Task:   203 matrix size:     651425
  Task:   204 matrix size:     976949
  Task:   205 matrix size:    1034931
  Task:   206 matrix size:    1001491
  Task:   207 matrix size:     966982
  Task:   208 matrix size:     671290
  Task:   209 matrix size:     648249
  Task:   210 matrix size:     648240
  Task:   211 matrix size:     648252
  Task:   212 matrix size:     962575
  Task:   213 matrix size:    1009011
  Task:   214 matrix size:     979818
  Task:   215 matrix size:    1002586
  Task:   216 matrix size:     654532
  Task:   217 matrix size:     645321
  Task:   218 matrix size:     662006
  Task:   219 matrix size:     656443
  Task:   220 matrix size:     962061
  Task:   221 matrix size:     977737
  Task:   222 matrix size:    1010863
  Task:   223 matrix size:     944683
  Task:   224 matrix size:    1348460
  Task:   225 matrix size:     882644
  Task:   226 matrix size:    1232192
  Task:   227 matrix size:     868928
  Task:   228 matrix size:     437639
  Task:   229 matrix size:     261867
  Task:   230 matrix size:     308973
  Task:   231 matrix size:     170402
  Task:   232 matrix size:    1103707
  Task:   233 matrix size:     986643
  Task:   234 matrix size:    1172215
  Task:   235 matrix size:     989508
  Task:   236 matrix size:     871664
  Task:   237 matrix size:     431982
  Task:   238 matrix size:     861580
  Task:   239 matrix size:     818221
  Task:   240 matrix size:    1136929
  Task:   241 matrix size:     989635
  Task:   242 matrix size:     983353
  Task:   243 matrix size:     839960
  Task:   244 matrix size:     651291
  Task:   245 matrix size:     745132
  Task:   246 matrix size:     170416
  Task:   247 matrix size:     200009
  Task:   248 matrix size:    1051593
  Task:   249 matrix size:     635892
  Task:   250 matrix size:    1122140
  Task:   251 matrix size:     594802
  Task:   252 matrix size:    1096336
  Task:   253 matrix size:     532702
  Task:   254 matrix size:    1084848
  Task:   255 matrix size:     479346
  Available memory per node after init_comm_sparse_local_matrix_scalapack [GB]:    231.94
  Integrating Hamiltonian matrix: batch-based integration.
  Time summed over all CPUs for integration: real work      196.532 s, elapsed      282.089 s => Consider using load balancing!
  Available memory per node after integrate hamiltonian matrix [GB]:    229.42
  Integrating overlap matrix.
  Time summed over all CPUs for integration: real work      152.878 s, elapsed      226.458 s
  Available memory per node after integrate ovlp matrix [GB]:    229.22
  Available memory per node after ASI_callbacks invoke [GB]:    229.21
  Available memory per node after save_overlap_scalapack [GB]:    229.21

  Updating Kohn-Sham eigenvalues and eigenvectors using ELSI and the ELPA eigensolver.

  Obtaining occupation numbers and electronic chemical potential using ELSI.
  | Note that, for insulating systems, the printed 'chemical potential' value is not uniquely defined.
  | It can be anywhere in the energy gap, as long as it correctly separates occupied and unoccupied states.
  | In systems with a gap, the physically relevant chemical potential is the VBM or HOMO.

  | Chemical potential (Fermi level):    -4.28536272 eV
  Available memory per node after advance_KS_solution [GB]:    228.81
  Writing Kohn-Sham eigenvalues.

  State    Occupation    Eigenvalue [Ha]    Eigenvalue [eV]
      1       2.00000        -958.381802       -26078.89570
      2       2.00000        -958.381802       -26078.89570
      3       2.00000        -958.381792       -26078.89543
      4       2.00000        -958.381792       -26078.89543
      5       2.00000        -958.381675       -26078.89225
      6       2.00000        -958.381675       -26078.89225
      7       2.00000        -958.381670       -26078.89213
      8       2.00000        -958.381670       -26078.89213
      9       2.00000        -958.381612       -26078.89055
     10       2.00000        -958.381612       -26078.89055
     11       2.00000        -958.381602       -26078.89028
     12       2.00000        -958.381602       -26078.89028
     13       2.00000        -958.381587       -26078.88987
     14       2.00000        -958.381587       -26078.88987
     15       2.00000        -958.381582       -26078.88973
     16       2.00000        -958.381582       -26078.88973
     17       2.00000        -958.381566       -26078.88930
     18       2.00000        -958.381566       -26078.88930
     19       2.00000        -958.381564       -26078.88924
     20       2.00000        -958.381564       -26078.88924
     21       2.00000        -958.381564       -26078.88923
     22       2.00000        -958.381564       -26078.88923
     23       2.00000        -958.381559       -26078.88911
     24       2.00000        -958.381559       -26078.88911
     25       2.00000        -958.381556       -26078.88903
     26       2.00000        -958.381556       -26078.88903
     27       2.00000        -958.381553       -26078.88892
     28       2.00000        -958.381552       -26078.88892
     29       2.00000        -958.381550       -26078.88885
     30       2.00000        -958.381550       -26078.88885
     31       2.00000        -958.381547       -26078.88877
     32       2.00000        -958.381547       -26078.88877
     33       2.00000        -958.381547       -26078.88877
     34       2.00000        -958.381547       -26078.88877
     35       2.00000        -958.381544       -26078.88869
     36       2.00000        -958.381544       -26078.88868
     37       2.00000        -958.381535       -26078.88845
     38       2.00000        -958.381535       -26078.88845
     39       2.00000        -958.381535       -26078.88844
     40       2.00000        -958.381535       -26078.88844
     41       2.00000        -958.381534       -26078.88843
     42       2.00000        -958.381534       -26078.88843
     43       2.00000        -958.381534       -26078.88843
     44       2.00000        -958.381534       -26078.88843
     45       2.00000        -958.381533       -26078.88840
     46       2.00000        -958.381533       -26078.88840
     47       2.00000        -958.381533       -26078.88838
     48       2.00000        -958.381533       -26078.88838
     49       2.00000        -958.381532       -26078.88835
     50       2.00000        -958.381532       -26078.88835
     51       2.00000        -958.381530       -26078.88832
     52       2.00000        -958.381530       -26078.88832
     53       2.00000        -958.381530       -26078.88832
     54       2.00000        -958.381530       -26078.88832
     55       2.00000        -958.381530       -26078.88832
     56       2.00000        -958.381530       -26078.88831
     57       2.00000        -958.381529       -26078.88829
     58       2.00000        -958.381529       -26078.88829
     59       2.00000        -958.381528       -26078.88826
     60       2.00000        -958.381528       -26078.88826
     61       2.00000        -958.381523       -26078.88813
     62       2.00000        -958.381523       -26078.88813
     63       2.00000        -958.381476       -26078.88683
     64       2.00000        -958.381476       -26078.88683
     65       2.00000        -958.380983       -26078.87343
     66       2.00000        -958.380911       -26078.87146
     67       2.00000        -958.380911       -26078.87146
     68       2.00000        -958.380911       -26078.87146
     69       2.00000        -958.380905       -26078.87130
     70       2.00000        -958.380905       -26078.87130
     71       2.00000        -958.380905       -26078.87129
     72       2.00000        -958.380905       -26078.87129
     73       2.00000        -958.380904       -26078.87128
     74       2.00000        -958.380904       -26078.87128
     75       2.00000        -958.380902       -26078.87123
     76       2.00000        -958.380902       -26078.87123
     77       2.00000        -958.380901       -26078.87120
     78       2.00000        -958.380901       -26078.87120
     79       2.00000        -958.380899       -26078.87113
     80       2.00000        -958.380899       -26078.87113
     81       2.00000        -958.380898       -26078.87111
     82       2.00000        -958.380897       -26078.87108
     83       2.00000        -958.380897       -26078.87108
     84       2.00000        -958.380893       -26078.87097
     85       2.00000        -958.380893       -26078.87097
     86       2.00000        -958.380891       -26078.87091
     87       2.00000        -958.380891       -26078.87091
     88       2.00000        -958.380889       -26078.87088
     89       2.00000        -958.380889       -26078.87088
     90       2.00000        -958.380888       -26078.87085
     91       2.00000        -958.380888       -26078.87085
     92       2.00000        -958.380886       -26078.87078
     93       2.00000        -958.380886       -26078.87078
     94       2.00000        -958.380885       -26078.87075
     95       2.00000        -958.380885       -26078.87075
     96       2.00000        -958.380882       -26078.87068
     97       2.00000        -958.380881       -26078.87066
     98       2.00000        -958.380881       -26078.87066
     99       2.00000        -958.380881       -26078.87065
    100       2.00000        -958.380881       -26078.87065
    101       2.00000        -958.380881       -26078.87065
    102       2.00000        -958.380881       -26078.87065
    103       2.00000        -958.380880       -26078.87062
    104       2.00000        -958.380880       -26078.87062
    105       2.00000        -958.380880       -26078.87061
    106       2.00000        -958.380880       -26078.87061
    107       2.00000        -958.380880       -26078.87061
    108       2.00000        -958.380880       -26078.87061
    109       2.00000        -958.380878       -26078.87057
    110       2.00000        -958.380878       -26078.87057
    111       2.00000        -958.380878       -26078.87057
    112       2.00000        -958.380878       -26078.87057
    113       2.00000        -958.380877       -26078.87055
    114       2.00000        -958.380877       -26078.87055
    115       2.00000        -958.380875       -26078.87050
    116       2.00000        -958.380875       -26078.87050
    117       2.00000        -958.380875       -26078.87047
    118       2.00000        -958.380875       -26078.87047
    119       2.00000        -958.380874       -26078.87047
    120       2.00000        -958.380874       -26078.87047
    121       2.00000        -958.380865       -26078.87023
    122       2.00000        -958.380865       -26078.87023
    123       2.00000        -958.380863       -26078.87016
    124       2.00000        -958.380863       -26078.87016
    125       2.00000        -958.380854       -26078.86991
    126       2.00000        -958.380854       -26078.86991
    127       2.00000        -958.380852       -26078.86986
    128       2.00000        -958.380852       -26078.86986
    129       2.00000        -958.379656       -26078.83732
    130       2.00000        -958.379656       -26078.83732
    131       2.00000        -958.379641       -26078.83690
    132       2.00000        -958.379641       -26078.83690
    133       2.00000        -958.379571       -26078.83501
    134       2.00000        -958.379434       -26078.83128
    135       2.00000        -958.379434       -26078.83128
    136       2.00000        -958.379417       -26078.83083
    137       2.00000        -958.379417       -26078.83083
    138       2.00000        -958.379375       -26078.82968
    139       2.00000        -958.379375       -26078.82968
    140       2.00000        -958.379350       -26078.82900
    141       2.00000        -958.379350       -26078.82900
    142       2.00000        -958.379342       -26078.82878
    143       2.00000        -958.379342       -26078.82878
    144       2.00000        -958.379335       -26078.82858
    145       2.00000        -958.379335       -26078.82858
    146       2.00000        -958.379333       -26078.82853
    147       2.00000        -958.379333       -26078.82853
    148       2.00000        -958.379327       -26078.82836
    149       2.00000        -958.379327       -26078.82836
    150       2.00000        -958.379313       -26078.82798
    151       2.00000        -958.379313       -26078.82798
    152       2.00000        -958.379312       -26078.82795
    153       2.00000        -958.379312       -26078.82795
    154       2.00000        -958.379303       -26078.82771
    155       2.00000        -958.379303       -26078.82771
    156       2.00000        -958.379294       -26078.82747
    157       2.00000        -958.379294       -26078.82747
    158       2.00000        -958.379293       -26078.82745
    159       2.00000        -958.379293       -26078.82745
    160       2.00000        -958.379273       -26078.82691
    161       2.00000        -958.379273       -26078.82691
    162       2.00000        -958.379267       -26078.82674
    163       2.00000        -958.379267       -26078.82674
    164       2.00000        -958.379266       -26078.82670
    165       2.00000        -958.379266       -26078.82670
    166       2.00000        -958.379263       -26078.82661
    167       2.00000        -958.379263       -26078.82661
    168       2.00000        -958.379262       -26078.82661
    169       2.00000        -958.379259       -26078.82650
    170       2.00000        -958.379259       -26078.82650
    171       2.00000        -958.379258       -26078.82649
    172       2.00000        -958.379258       -26078.82649
    173       2.00000        -958.379258       -26078.82648
    174       2.00000        -958.379258       -26078.82648
    175       2.00000        -958.379253       -26078.82636
    176       2.00000        -958.379253       -26078.82636
    177       2.00000        -958.379250       -26078.82628
    178       2.00000        -958.379250       -26078.82628
    179       2.00000        -958.379250       -26078.82626
    180       2.00000        -958.379250       -26078.82626
    181       2.00000        -958.379250       -26078.82626
    182       2.00000        -958.379250       -26078.82626
    183       2.00000        -958.379248       -26078.82621
    184       2.00000        -958.379248       -26078.82621
    185       2.00000        -958.379245       -26078.82613
    186       2.00000        -958.379245       -26078.82613
    187       2.00000        -958.379241       -26078.82603
    188       2.00000        -958.379240       -26078.82600
    189       2.00000        -958.379240       -26078.82600
    190       2.00000        -958.379240       -26078.82600
    191       2.00000        -958.379240       -26078.82600
    192       2.00000        -958.379238       -26078.82594
    193       2.00000        -958.378600       -26078.80859
    194       2.00000        -958.378600       -26078.80859
    195       2.00000        -958.378600       -26078.80859
    196       2.00000        -958.378600       -26078.80859
    197       2.00000        -958.378600       -26078.80859
    198       2.00000        -958.378600       -26078.80859
    199       2.00000        -958.378600       -26078.80859
    200       2.00000        -958.378600       -26078.80859
    201       2.00000        -958.378600       -26078.80859
    202       2.00000        -958.378600       -26078.80859
    203       2.00000        -958.378600       -26078.80859
    204       2.00000        -958.378600       -26078.80859
    205       2.00000        -958.378600       -26078.80859
    206       2.00000        -958.378600       -26078.80859
    207       2.00000        -958.378600       -26078.80859
    208       2.00000        -958.378600       -26078.80859
    209       2.00000        -958.378600       -26078.80859
    210       2.00000        -958.378600       -26078.80859
    211       2.00000        -958.378600       -26078.80859
    212       2.00000        -958.378600       -26078.80859
    213       2.00000        -958.378600       -26078.80859
    214       2.00000        -958.378600       -26078.80859
    215       2.00000        -958.378600       -26078.80859
    216       2.00000        -958.378600       -26078.80859
    217       2.00000        -958.378600       -26078.80859
    218       2.00000        -958.378600       -26078.80859
    219       2.00000        -958.378600       -26078.80859
    220       2.00000        -958.378600       -26078.80859
    221       2.00000        -958.378600       -26078.80859
    222       2.00000        -958.378600       -26078.80859
    223       2.00000        -958.378600       -26078.80859
    224       2.00000        -958.378600       -26078.80859
    225       2.00000        -958.378600       -26078.80859
    226       2.00000        -958.378600       -26078.80859
    227       2.00000        -958.378600       -26078.80859
    228       2.00000        -958.378600       -26078.80859
    229       2.00000        -958.378600       -26078.80859
    230       2.00000        -958.378600       -26078.80859
    231       2.00000        -958.378600       -26078.80859
    232       2.00000        -958.378600       -26078.80859
    233       2.00000        -958.378600       -26078.80859
    234       2.00000        -958.378600       -26078.80859
    235       2.00000        -958.378600       -26078.80859
    236       2.00000        -958.378600       -26078.80859
    237       2.00000        -958.378600       -26078.80859
    238       2.00000        -958.378600       -26078.80859
    239       2.00000        -958.378600       -26078.80859
    240       2.00000        -958.378600       -26078.80859
    241       2.00000        -958.378600       -26078.80859
    242       2.00000        -958.378600       -26078.80859
    243       2.00000        -958.378600       -26078.80859
    244       2.00000        -958.378600       -26078.80859
    245       2.00000        -958.378600       -26078.80859
    246       2.00000        -958.378600       -26078.80859
    247       2.00000        -958.378600       -26078.80859
    248       2.00000        -958.378600       -26078.80859
    249       2.00000        -958.378600       -26078.80859
    250       2.00000        -958.378600       -26078.80859
    251       2.00000        -958.378600       -26078.80859
    252       2.00000        -958.378600       -26078.80859
    253       2.00000        -958.378600       -26078.80859
    254       2.00000        -958.378600       -26078.80859
    255       2.00000        -958.378600       -26078.80859
    256       2.00000        -958.378600       -26078.80859
    257       2.00000        -354.031824        -9633.69609
    258       2.00000        -137.774667        -3749.03944
    259       2.00000        -137.774667        -3749.03944
    260       2.00000        -137.774657        -3749.03916
    261       2.00000        -137.774657        -3749.03916
    262       2.00000        -137.774539        -3749.03595
    263       2.00000        -137.774539        -3749.03595
    264       2.00000        -137.774534        -3749.03583
    265       2.00000        -137.774534        -3749.03583
    266       2.00000        -137.774476        -3749.03424
    267       2.00000        -137.774476        -3749.03424
    268       2.00000        -137.774466        -3749.03396
    269       2.00000        -137.774466        -3749.03396
    270       2.00000        -137.774451        -3749.03355
    271       2.00000        -137.774451        -3749.03355
    272       2.00000        -137.774445        -3749.03341
    273       2.00000        -137.774445        -3749.03341
    274       2.00000        -137.774429        -3749.03297
    275       2.00000        -137.774429        -3749.03297
    276       2.00000        -137.774427        -3749.03291
    277       2.00000        -137.774427        -3749.03291
    278       2.00000        -137.774427        -3749.03291
    279       2.00000        -137.774427        -3749.03291
    280       2.00000        -137.774422        -3749.03278
    281       2.00000        -137.774422        -3749.03278
    282       2.00000        -137.774419        -3749.03270
    283       2.00000        -137.774419        -3749.03270
    284       2.00000        -137.774415        -3749.03259
    285       2.00000        -137.774415        -3749.03259
    286       2.00000        -137.774413        -3749.03252
    287       2.00000        -137.774413        -3749.03252
    288       2.00000        -137.774410        -3749.03244
    289       2.00000        -137.774410        -3749.03244
    290       2.00000        -137.774410        -3749.03244
    291       2.00000        -137.774410        -3749.03244
    292       2.00000        -137.774407        -3749.03235
    293       2.00000        -137.774407        -3749.03235
    294       2.00000        -137.774398        -3749.03212
    295       2.00000        -137.774398        -3749.03212
    296       2.00000        -137.774397        -3749.03210
    297       2.00000        -137.774397        -3749.03210
    298       2.00000        -137.774397        -3749.03210
    299       2.00000        -137.774397        -3749.03210
    300       2.00000        -137.774397        -3749.03210
    301       2.00000        -137.774397        -3749.03210
    302       2.00000        -137.774396        -3749.03206
    303       2.00000        -137.774396        -3749.03206
    304       2.00000        -137.774395        -3749.03205
    305       2.00000        -137.774395        -3749.03205
    306       2.00000        -137.774394        -3749.03202
    307       2.00000        -137.774394        -3749.03202
    308       2.00000        -137.774393        -3749.03199
    309       2.00000        -137.774393        -3749.03199
    310       2.00000        -137.774393        -3749.03199
    311       2.00000        -137.774393        -3749.03199
    312       2.00000        -137.774393        -3749.03198
    313       2.00000        -137.774393        -3749.03198
    314       2.00000        -137.774392        -3749.03195
    315       2.00000        -137.774392        -3749.03195
    316       2.00000        -137.774391        -3749.03193
    317       2.00000        -137.774391        -3749.03193
    318       2.00000        -137.774386        -3749.03179
    319       2.00000        -137.774386        -3749.03179
    320       2.00000        -137.774338        -3749.03048
    321       2.00000        -137.774338        -3749.03048
    322       2.00000        -137.773841        -3749.01695
    323       2.00000        -137.773767        -3749.01496
    324       2.00000        -137.773767        -3749.01496
    325       2.00000        -137.773767        -3749.01495
    326       2.00000        -137.773762        -3749.01480
    327       2.00000        -137.773762        -3749.01480
    328       2.00000        -137.773761        -3749.01479
    329       2.00000        -137.773761        -3749.01479
    330       2.00000        -137.773761        -3749.01478
    331       2.00000        -137.773761        -3749.01478
    332       2.00000        -137.773759        -3749.01473
    333       2.00000        -137.773759        -3749.01473
    334       2.00000        -137.773758        -3749.01470
    335       2.00000        -137.773758        -3749.01470
    336       2.00000        -137.773755        -3749.01463
    337       2.00000        -137.773755        -3749.01463
    338       2.00000        -137.773755        -3749.01461
    339       2.00000        -137.773753        -3749.01457
    340       2.00000        -137.773753        -3749.01457
    341       2.00000        -137.773749        -3749.01446
    342       2.00000        -137.773749        -3749.01446
    343       2.00000        -137.773747        -3749.01440
    344       2.00000        -137.773747        -3749.01440
    345       2.00000        -137.773746        -3749.01437
    346       2.00000        -137.773746        -3749.01437
    347       2.00000        -137.773745        -3749.01434
    348       2.00000        -137.773745        -3749.01434
    349       2.00000        -137.773742        -3749.01427
    350       2.00000        -137.773742        -3749.01427
    351       2.00000        -137.773741        -3749.01424
    352       2.00000        -137.773741        -3749.01424
    353       2.00000        -137.773738        -3749.01417
    354       2.00000        -137.773738        -3749.01415
    355       2.00000        -137.773738        -3749.01415
    356       2.00000        -137.773737        -3749.01414
    357       2.00000        -137.773737        -3749.01414
    358       2.00000        -137.773737        -3749.01414
    359       2.00000        -137.773737        -3749.01414
    360       2.00000        -137.773736        -3749.01411
    361       2.00000        -137.773736        -3749.01411
    362       2.00000        -137.773736        -3749.01410
    363       2.00000        -137.773736        -3749.01410
    364       2.00000        -137.773736        -3749.01410
    365       2.00000        -137.773736        -3749.01410
    366       2.00000        -137.773734        -3749.01406
    367       2.00000        -137.773734        -3749.01406
    368       2.00000        -137.773734        -3749.01406
    369       2.00000        -137.773734        -3749.01406
    370       2.00000        -137.773733        -3749.01403
    371       2.00000        -137.773733        -3749.01403
    372       2.00000        -137.773732        -3749.01398
    373       2.00000        -137.773732        -3749.01398
    374       2.00000        -137.773731        -3749.01396
    375       2.00000        -137.773731        -3749.01396
    376       2.00000        -137.773730        -3749.01395
    377       2.00000        -137.773730        -3749.01395
    378       2.00000        -137.773722        -3749.01371
    379       2.00000        -137.773722        -3749.01371
    380       2.00000        -137.773719        -3749.01364
    381       2.00000        -137.773719        -3749.01364
    382       2.00000        -137.773710        -3749.01339
    383       2.00000        -137.773710        -3749.01339
    384       2.00000        -137.773708        -3749.01334
    385       2.00000        -137.773708        -3749.01334
    386       2.00000        -137.772493        -3748.98028
    387       2.00000        -137.772493        -3748.98028
    388       2.00000        -137.772477        -3748.97985
    389       2.00000        -137.772477        -3748.97985
    390       2.00000        -137.772408        -3748.97797
    391       2.00000        -137.772268        -3748.97417
    392       2.00000        -137.772268        -3748.97417
    393       2.00000        -137.772252        -3748.97372
    394       2.00000        -137.772252        -3748.97372
    395       2.00000        -137.772208        -3748.97253
    396       2.00000        -137.772208        -3748.97253
    397       2.00000        -137.772185        -3748.97190
    398       2.00000        -137.772185        -3748.97189
    399       2.00000        -137.772177        -3748.97167
    400       2.00000        -137.772177        -3748.97167
    401       2.00000        -137.772168        -3748.97143
    402       2.00000        -137.772168        -3748.97143
    403       2.00000        -137.772167        -3748.97141
    404       2.00000        -137.772167        -3748.97141
    405       2.00000        -137.772159        -3748.97120
    406       2.00000        -137.772159        -3748.97120
    407       2.00000        -137.772146        -3748.97082
    408       2.00000        -137.772145        -3748.97082
    409       2.00000        -137.772144        -3748.97079
    410       2.00000        -137.772144        -3748.97079
    411       2.00000        -137.772136        -3748.97057
    412       2.00000        -137.772136        -3748.97057
    413       2.00000        -137.772126        -3748.97030
    414       2.00000        -137.772126        -3748.97030
    415       2.00000        -137.772126        -3748.97028
    416       2.00000        -137.772126        -3748.97028
    417       2.00000        -137.772105        -3748.96974
    418       2.00000        -137.772105        -3748.96974
    419       2.00000        -137.772099        -3748.96956
    420       2.00000        -137.772099        -3748.96956
    421       2.00000        -137.772098        -3748.96953
    422       2.00000        -137.772098        -3748.96953
    423       2.00000        -137.772094        -3748.96943
    424       2.00000        -137.772094        -3748.96943
    425       2.00000        -137.772094        -3748.96943
    426       2.00000        -137.772090        -3748.96932
    427       2.00000        -137.772090        -3748.96932
    428       2.00000        -137.772090        -3748.96931
    429       2.00000        -137.772090        -3748.96931
    430       2.00000        -137.772090        -3748.96931
    431       2.00000        -137.772090        -3748.96931
    432       2.00000        -137.772085        -3748.96918
    433       2.00000        -137.772085        -3748.96918
    434       2.00000        -137.772082        -3748.96910
    435       2.00000        -137.772082        -3748.96910
    436       2.00000        -137.772082        -3748.96908
    437       2.00000        -137.772082        -3748.96908
    438       2.00000        -137.772082        -3748.96908
    439       2.00000        -137.772082        -3748.96908
    440       2.00000        -137.772080        -3748.96903
    441       2.00000        -137.772080        -3748.96903
    442       2.00000        -137.772077        -3748.96895
    443       2.00000        -137.772077        -3748.96895
    444       2.00000        -137.772073        -3748.96884
    445       2.00000        -137.772072        -3748.96882
    446       2.00000        -137.772072        -3748.96882
    447       2.00000        -137.772072        -3748.96882
    448       2.00000        -137.772072        -3748.96882
    449       2.00000        -137.772070        -3748.96876
    450       2.00000        -137.771425        -3748.95123
    451       2.00000        -137.771425        -3748.95123
    452       2.00000        -137.771425        -3748.95123
    453       2.00000        -137.771425        -3748.95123
    454       2.00000        -137.771425        -3748.95123
    455       2.00000        -137.771425        -3748.95123
    456       2.00000        -137.771425        -3748.95123
    457       2.00000        -137.771425        -3748.95123
    458       2.00000        -137.771425        -3748.95123
    459       2.00000        -137.771425        -3748.95123
    460       2.00000        -137.771425        -3748.95123
    461       2.00000        -137.771425        -3748.95123
    462       2.00000        -137.771425        -3748.95123
    463       2.00000        -137.771425        -3748.95123
    464       2.00000        -137.771425        -3748.95123
    465       2.00000        -137.771425        -3748.95123
    466       2.00000        -137.771425        -3748.95123
    467       2.00000        -137.771425        -3748.95123
    468       2.00000        -137.771425        -3748.95123
    469       2.00000        -137.771425        -3748.95123
    470       2.00000        -137.771425        -3748.95123
    471       2.00000        -137.771425        -3748.95123
    472       2.00000        -137.771425        -3748.95123
    473       2.00000        -137.771425        -3748.95123
    474       2.00000        -137.771425        -3748.95123
    475       2.00000        -137.771425        -3748.95123
    476       2.00000        -137.771425        -3748.95123
    477       2.00000        -137.771425        -3748.95123
    478       2.00000        -137.771425        -3748.95123
    479       2.00000        -137.771425        -3748.95123
    480       2.00000        -137.771425        -3748.95123
    481       2.00000        -137.771425        -3748.95123
    482       2.00000        -137.771425        -3748.95123
    483       2.00000        -137.771425        -3748.95123
    484       2.00000        -137.771425        -3748.95123
    485       2.00000        -137.771425        -3748.95123
    486       2.00000        -137.771425        -3748.95123
    487       2.00000        -137.771425        -3748.95123
    488       2.00000        -137.771425        -3748.95123
    489       2.00000        -137.771425        -3748.95123
    490       2.00000        -137.771425        -3748.95123
    491       2.00000        -137.771425        -3748.95123
    492       2.00000        -137.771425        -3748.95123
    493       2.00000        -137.771425        -3748.95123
    494       2.00000        -137.771425        -3748.95123
    495       2.00000        -137.771425        -3748.95123
    496       2.00000        -137.771425        -3748.95123
    497       2.00000        -137.771425        -3748.95123
    498       2.00000        -137.771425        -3748.95123
    499       2.00000        -137.771425        -3748.95123
    500       2.00000        -137.771425        -3748.95123
    501       2.00000        -137.771425        -3748.95123
    502       2.00000        -137.771425        -3748.95123
    503       2.00000        -137.771425        -3748.95123
    504       2.00000        -137.771425        -3748.95123
    505       2.00000        -137.771425        -3748.95123
    506       2.00000        -137.771425        -3748.95123
    507       2.00000        -137.771425        -3748.95123
    508       2.00000        -137.771425        -3748.95123
    509       2.00000        -137.771425        -3748.95123
    510       2.00000        -137.771425        -3748.95123
    511       2.00000        -137.771425        -3748.95123
    512       2.00000        -137.771425        -3748.95123
    513       2.00000        -137.771425        -3748.95123
    514       2.00000        -123.532355        -3361.48640
    515       2.00000        -123.532355        -3361.48640
    516       2.00000        -123.532353        -3361.48637
    517       2.00000        -123.532353        -3361.48637
    518       2.00000        -123.532352        -3361.48633
    519       2.00000        -123.532352        -3361.48633
    520       2.00000        -123.532344        -3361.48612
    521       2.00000        -123.532344        -3361.48612
    522       2.00000        -123.532343        -3361.48609
    523       2.00000        -123.532343        -3361.48609
    524       2.00000        -123.532342        -3361.48605
    525       2.00000        -123.532342        -3361.48605
    526       2.00000        -123.532227        -3361.48292
    527       2.00000        -123.532227        -3361.48292
    528       2.00000        -123.532225        -3361.48288
    529       2.00000        -123.532225        -3361.48288
    530       2.00000        -123.532225        -3361.48287
    531       2.00000        -123.532225        -3361.48287
    532       2.00000        -123.532222        -3361.48280
    533       2.00000        -123.532222        -3361.48280
    534       2.00000        -123.532221        -3361.48275
    535       2.00000        -123.532221        -3361.48275
    536       2.00000        -123.532220        -3361.48275
    537       2.00000        -123.532220        -3361.48275
    538       2.00000        -123.532163        -3361.48120
    539       2.00000        -123.532163        -3361.48120
    540       2.00000        -123.532162        -3361.48116
    541       2.00000        -123.532162        -3361.48116
    542       2.00000        -123.532162        -3361.48116
    543       2.00000        -123.532162        -3361.48116
    544       2.00000        -123.532153        -3361.48092
    545       2.00000        -123.532153        -3361.48092
    546       2.00000        -123.532152        -3361.48089
    547       2.00000        -123.532152        -3361.48089
    548       2.00000        -123.532152        -3361.48088
    549       2.00000        -123.532152        -3361.48088
    550       2.00000        -123.532138        -3361.48051
    551       2.00000        -123.532138        -3361.48051
    552       2.00000        -123.532137        -3361.48048
    553       2.00000        -123.532137        -3361.48048
    554       2.00000        -123.532137        -3361.48047
    555       2.00000        -123.532137        -3361.48047
    556       2.00000        -123.532133        -3361.48038
    557       2.00000        -123.532133        -3361.48038
    558       2.00000        -123.532132        -3361.48034
    559       2.00000        -123.532132        -3361.48034
    560       2.00000        -123.532132        -3361.48033
    561       2.00000        -123.532132        -3361.48033
    562       2.00000        -123.532117        -3361.47993
    563       2.00000        -123.532117        -3361.47993
    564       2.00000        -123.532116        -3361.47991
    565       2.00000        -123.532116        -3361.47991
    566       2.00000        -123.532116        -3361.47990
    567       2.00000        -123.532116        -3361.47990
    568       2.00000        -123.532115        -3361.47987
    569       2.00000        -123.532115        -3361.47987
    570       2.00000        -123.532115        -3361.47987
    571       2.00000        -123.532115        -3361.47987
    572       2.00000        -123.532114        -3361.47985
    573       2.00000        -123.532114        -3361.47985
    574       2.00000        -123.532114        -3361.47984
    575       2.00000        -123.532114        -3361.47984
    576       2.00000        -123.532114        -3361.47984
    577       2.00000        -123.532114        -3361.47984
    578       2.00000        -123.532113        -3361.47983
    579       2.00000        -123.532113        -3361.47983
    580       2.00000        -123.532110        -3361.47975
    581       2.00000        -123.532110        -3361.47975
    582       2.00000        -123.532109        -3361.47972
    583       2.00000        -123.532109        -3361.47972
    584       2.00000        -123.532109        -3361.47971
    585       2.00000        -123.532109        -3361.47971
    586       2.00000        -123.532107        -3361.47966
    587       2.00000        -123.532107        -3361.47966
    588       2.00000        -123.532106        -3361.47963
    589       2.00000        -123.532106        -3361.47963
    590       2.00000        -123.532106        -3361.47962
    591       2.00000        -123.532106        -3361.47962
    592       2.00000        -123.532103        -3361.47955
    593       2.00000        -123.532103        -3361.47955
    594       2.00000        -123.532102        -3361.47953
    595       2.00000        -123.532102        -3361.47953
    596       2.00000        -123.532102        -3361.47952
    597       2.00000        -123.532102        -3361.47952
    598       2.00000        -123.532100        -3361.47948
    599       2.00000        -123.532100        -3361.47948
    600       2.00000        -123.532099        -3361.47945
    601       2.00000        -123.532099        -3361.47945
    602       2.00000        -123.532099        -3361.47945
    603       2.00000        -123.532099        -3361.47945
    604       2.00000        -123.532098        -3361.47941
    605       2.00000        -123.532098        -3361.47941
    606       2.00000        -123.532097        -3361.47939
    607       2.00000        -123.532097        -3361.47939
    608       2.00000        -123.532096        -3361.47938
    609       2.00000        -123.532096        -3361.47938
    610       2.00000        -123.532096        -3361.47937
    611       2.00000        -123.532096        -3361.47937
    612       2.00000        -123.532096        -3361.47937
    613       2.00000        -123.532096        -3361.47937
    614       2.00000        -123.532096        -3361.47937
    615       2.00000        -123.532096        -3361.47937
    616       2.00000        -123.532094        -3361.47931
    617       2.00000        -123.532094        -3361.47931
    618       2.00000        -123.532093        -3361.47929
    619       2.00000        -123.532093        -3361.47929
    620       2.00000        -123.532093        -3361.47928
    621       2.00000        -123.532093        -3361.47928
    622       2.00000        -123.532085        -3361.47908
    623       2.00000        -123.532085        -3361.47908
    624       2.00000        -123.532085        -3361.47907
    625       2.00000        -123.532085        -3361.47907
    626       2.00000        -123.532085        -3361.47906
    627       2.00000        -123.532085        -3361.47906
    628       2.00000        -123.532085        -3361.47906
    629       2.00000        -123.532085        -3361.47906
    630       2.00000        -123.532084        -3361.47905
    631       2.00000        -123.532084        -3361.47905
    632       2.00000        -123.532084        -3361.47905
    633       2.00000        -123.532084        -3361.47905
    634       2.00000        -123.532084        -3361.47904
    635       2.00000        -123.532084        -3361.47904
    636       2.00000        -123.532084        -3361.47903
    637       2.00000        -123.532084        -3361.47903
    638       2.00000        -123.532084        -3361.47903
    639       2.00000        -123.532084        -3361.47903
    640       2.00000        -123.532084        -3361.47903
    641       2.00000        -123.532084        -3361.47903
    642       2.00000        -123.532084        -3361.47903
    643       2.00000        -123.532084        -3361.47903
    644       2.00000        -123.532084        -3361.47903
    645       2.00000        -123.532084        -3361.47903
    646       2.00000        -123.532083        -3361.47901
    647       2.00000        -123.532083        -3361.47901
    648       2.00000        -123.532083        -3361.47901
    649       2.00000        -123.532083        -3361.47901
    650       2.00000        -123.532083        -3361.47900
    651       2.00000        -123.532083        -3361.47900
    652       2.00000        -123.532082        -3361.47899
    653       2.00000        -123.532082        -3361.47899
    654       2.00000        -123.532082        -3361.47898
    655       2.00000        -123.532082        -3361.47898
    656       2.00000        -123.532082        -3361.47898
    657       2.00000        -123.532082        -3361.47898
    658       2.00000        -123.532082        -3361.47898
    659       2.00000        -123.532082        -3361.47898
    660       2.00000        -123.532081        -3361.47895
    661       2.00000        -123.532081        -3361.47895
    662       2.00000        -123.532081        -3361.47895
    663       2.00000        -123.532081        -3361.47895
    664       2.00000        -123.532081        -3361.47895
    665       2.00000        -123.532081        -3361.47895
    666       2.00000        -123.532081        -3361.47895
    667       2.00000        -123.532081        -3361.47895
    668       2.00000        -123.532080        -3361.47894
    669       2.00000        -123.532080        -3361.47894
    670       2.00000        -123.532080        -3361.47892
    671       2.00000        -123.532080        -3361.47892
    672       2.00000        -123.532080        -3361.47892
    673       2.00000        -123.532080        -3361.47892
    674       2.00000        -123.532080        -3361.47892
    675       2.00000        -123.532080        -3361.47892
    676       2.00000        -123.532080        -3361.47892
    677       2.00000        -123.532080        -3361.47892
    678       2.00000        -123.532080        -3361.47891
    679       2.00000        -123.532080        -3361.47891
    680       2.00000        -123.532080        -3361.47891
    681       2.00000        -123.532080        -3361.47891
    682       2.00000        -123.532079        -3361.47891
    683       2.00000        -123.532079        -3361.47891
    684       2.00000        -123.532079        -3361.47889
    685       2.00000        -123.532079        -3361.47889
    686       2.00000        -123.532079        -3361.47889
    687       2.00000        -123.532079        -3361.47889
    688       2.00000        -123.532079        -3361.47889
    689       2.00000        -123.532079        -3361.47889
    690       2.00000        -123.532078        -3361.47886
    691       2.00000        -123.532078        -3361.47886
    692       2.00000        -123.532078        -3361.47886
    693       2.00000        -123.532078        -3361.47886
    694       2.00000        -123.532073        -3361.47875
    695       2.00000        -123.532073        -3361.47875
    696       2.00000        -123.532073        -3361.47872
    697       2.00000        -123.532073        -3361.47872
    698       2.00000        -123.532072        -3361.47872
    699       2.00000        -123.532072        -3361.47872
    700       2.00000        -123.532026        -3361.47745
    701       2.00000        -123.532026        -3361.47745
    702       2.00000        -123.532025        -3361.47742
    703       2.00000        -123.532025        -3361.47742
    704       2.00000        -123.532024        -3361.47741
    705       2.00000        -123.532024        -3361.47741
    706       2.00000        -123.531529        -3361.46393
    707       2.00000        -123.531529        -3361.46392
    708       2.00000        -123.531528        -3361.46392
    709       2.00000        -123.531456        -3361.46195
    710       2.00000        -123.531456        -3361.46195
    711       2.00000        -123.531456        -3361.46194
    712       2.00000        -123.531456        -3361.46194
    713       2.00000        -123.531456        -3361.46194
    714       2.00000        -123.531455        -3361.46193
    715       2.00000        -123.531455        -3361.46193
    716       2.00000        -123.531455        -3361.46193
    717       2.00000        -123.531455        -3361.46193
    718       2.00000        -123.531450        -3361.46179
    719       2.00000        -123.531450        -3361.46179
    720       2.00000        -123.531450        -3361.46178
    721       2.00000        -123.531450        -3361.46178
    722       2.00000        -123.531450        -3361.46177
    723       2.00000        -123.531450        -3361.46177
    724       2.00000        -123.531450        -3361.46177
    725       2.00000        -123.531450        -3361.46177
    726       2.00000        -123.531449        -3361.46177
    727       2.00000        -123.531449        -3361.46177
    728       2.00000        -123.531449        -3361.46176
    729       2.00000        -123.531449        -3361.46176
    730       2.00000        -123.531449        -3361.46176
    731       2.00000        -123.531449        -3361.46176
    732       2.00000        -123.531449        -3361.46175
    733       2.00000        -123.531449        -3361.46175
    734       2.00000        -123.531449        -3361.46175
    735       2.00000        -123.531449        -3361.46175
    736       2.00000        -123.531448        -3361.46172
    737       2.00000        -123.531448        -3361.46172
    738       2.00000        -123.531447        -3361.46170
    739       2.00000        -123.531447        -3361.46170
    740       2.00000        -123.531447        -3361.46170
    741       2.00000        -123.531447        -3361.46170
    742       2.00000        -123.531447        -3361.46169
    743       2.00000        -123.531447        -3361.46169
    744       2.00000        -123.531446        -3361.46168
    745       2.00000        -123.531446        -3361.46168
    746       2.00000        -123.531446        -3361.46166
    747       2.00000        -123.531446        -3361.46166
    748       2.00000        -123.531444        -3361.46162
    749       2.00000        -123.531444        -3361.46162
    750       2.00000        -123.531443        -3361.46160
    751       2.00000        -123.531443        -3361.46160
    752       2.00000        -123.531443        -3361.46160
    753       2.00000        -123.531443        -3361.46160
    754       2.00000        -123.531443        -3361.46160
    755       2.00000        -123.531443        -3361.46158
    756       2.00000        -123.531443        -3361.46158
    757       2.00000        -123.531442        -3361.46156
    758       2.00000        -123.531442        -3361.46156
    759       2.00000        -123.531441        -3361.46155
    760       2.00000        -123.531441        -3361.46155
    761       2.00000        -123.531441        -3361.46155
    762       2.00000        -123.531441        -3361.46155
    763       2.00000        -123.531438        -3361.46145
    764       2.00000        -123.531438        -3361.46145
    765       2.00000        -123.531437        -3361.46144
    766       2.00000        -123.531437        -3361.46144
    767       2.00000        -123.531437        -3361.46144
    768       2.00000        -123.531437        -3361.46144
    769       2.00000        -123.531436        -3361.46139
    770       2.00000        -123.531436        -3361.46139
    771       2.00000        -123.531435        -3361.46138
    772       2.00000        -123.531435        -3361.46138
    773       2.00000        -123.531435        -3361.46137
    774       2.00000        -123.531435        -3361.46137
    775       2.00000        -123.531434        -3361.46136
    776       2.00000        -123.531434        -3361.46136
    777       2.00000        -123.531434        -3361.46134
    778       2.00000        -123.531434        -3361.46134
    779       2.00000        -123.531434        -3361.46134
    780       2.00000        -123.531434        -3361.46134
    781       2.00000        -123.531433        -3361.46133
    782       2.00000        -123.531433        -3361.46133
    783       2.00000        -123.531433        -3361.46132
    784       2.00000        -123.531433        -3361.46132
    785       2.00000        -123.531433        -3361.46131
    786       2.00000        -123.531433        -3361.46131
    787       2.00000        -123.531431        -3361.46126
    788       2.00000        -123.531431        -3361.46126
    789       2.00000        -123.531430        -3361.46125
    790       2.00000        -123.531430        -3361.46125
    791       2.00000        -123.531430        -3361.46125
    792       2.00000        -123.531430        -3361.46125
    793       2.00000        -123.531430        -3361.46123
    794       2.00000        -123.531430        -3361.46123
    795       2.00000        -123.531429        -3361.46121
    796       2.00000        -123.531429        -3361.46121
    797       2.00000        -123.531429        -3361.46121
    798       2.00000        -123.531429        -3361.46121
    799       2.00000        -123.531427        -3361.46116
    800       2.00000        -123.531427        -3361.46115
    801       2.00000        -123.531427        -3361.46115
    802       2.00000        -123.531426        -3361.46114
    803       2.00000        -123.531426        -3361.46114
    804       2.00000        -123.531426        -3361.46113
    805       2.00000        -123.531426        -3361.46113
    806       2.00000        -123.531426        -3361.46113
    807       2.00000        -123.531426        -3361.46113
    808       2.00000        -123.531426        -3361.46113
    809       2.00000        -123.531426        -3361.46113
    810       2.00000        -123.531426        -3361.46112
    811       2.00000        -123.531426        -3361.46112
    812       2.00000        -123.531425        -3361.46112
    813       2.00000        -123.531425        -3361.46112
    814       2.00000        -123.531425        -3361.46112
    815       2.00000        -123.531425        -3361.46112
    816       2.00000        -123.531425        -3361.46112
    817       2.00000        -123.531425        -3361.46112
    818       2.00000        -123.531425        -3361.46111
    819       2.00000        -123.531425        -3361.46111
    820       2.00000        -123.531425        -3361.46110
    821       2.00000        -123.531425        -3361.46110
    822       2.00000        -123.531425        -3361.46109
    823       2.00000        -123.531425        -3361.46109
    824       2.00000        -123.531425        -3361.46109
    825       2.00000        -123.531425        -3361.46109
    826       2.00000        -123.531424        -3361.46109
    827       2.00000        -123.531424        -3361.46109
    828       2.00000        -123.531424        -3361.46109
    829       2.00000        -123.531424        -3361.46109
    830       2.00000        -123.531424        -3361.46108
    831       2.00000        -123.531424        -3361.46108
    832       2.00000        -123.531424        -3361.46108
    833       2.00000        -123.531424        -3361.46108
    834       2.00000        -123.531424        -3361.46108
    835       2.00000        -123.531424        -3361.46108
    836       2.00000        -123.531424        -3361.46107
    837       2.00000        -123.531424        -3361.46107
    838       2.00000        -123.531423        -3361.46105
    839       2.00000        -123.531423        -3361.46105
    840       2.00000        -123.531423        -3361.46105
    841       2.00000        -123.531423        -3361.46105
    842       2.00000        -123.531423        -3361.46104
    843       2.00000        -123.531423        -3361.46104
    844       2.00000        -123.531423        -3361.46104
    845       2.00000        -123.531423        -3361.46104
    846       2.00000        -123.531423        -3361.46104
    847       2.00000        -123.531423        -3361.46104
    848       2.00000        -123.531422        -3361.46103
    849       2.00000        -123.531422        -3361.46103
    850       2.00000        -123.531422        -3361.46102
    851       2.00000        -123.531422        -3361.46102
    852       2.00000        -123.531422        -3361.46101
    853       2.00000        -123.531422        -3361.46101
    854       2.00000        -123.531422        -3361.46101
    855       2.00000        -123.531422        -3361.46101
    856       2.00000        -123.531420        -3361.46097
    857       2.00000        -123.531420        -3361.46097
    858       2.00000        -123.531420        -3361.46096
    859       2.00000        -123.531420        -3361.46096
    860       2.00000        -123.531420        -3361.46096
    861       2.00000        -123.531420        -3361.46096
    862       2.00000        -123.531419        -3361.46095
    863       2.00000        -123.531419        -3361.46095
    864       2.00000        -123.531419        -3361.46094
    865       2.00000        -123.531419        -3361.46094
    866       2.00000        -123.531419        -3361.46094
    867       2.00000        -123.531419        -3361.46094
    868       2.00000        -123.531419        -3361.46094
    869       2.00000        -123.531419        -3361.46094
    870       2.00000        -123.531419        -3361.46093
    871       2.00000        -123.531419        -3361.46093
    872       2.00000        -123.531419        -3361.46093
    873       2.00000        -123.531419        -3361.46093
    874       2.00000        -123.531410        -3361.46070
    875       2.00000        -123.531410        -3361.46070
    876       2.00000        -123.531410        -3361.46069
    877       2.00000        -123.531410        -3361.46069
    878       2.00000        -123.531410        -3361.46069
    879       2.00000        -123.531410        -3361.46069
    880       2.00000        -123.531408        -3361.46063
    881       2.00000        -123.531408        -3361.46063
    882       2.00000        -123.531407        -3361.46062
    883       2.00000        -123.531407        -3361.46062
    884       2.00000        -123.531407        -3361.46062
    885       2.00000        -123.531407        -3361.46062
    886       2.00000        -123.531398        -3361.46038
    887       2.00000        -123.531398        -3361.46038
    888       2.00000        -123.531398        -3361.46037
    889       2.00000        -123.531398        -3361.46037
    890       2.00000        -123.531398        -3361.46036
    891       2.00000        -123.531398        -3361.46036
    892       2.00000        -123.531397        -3361.46034
    893       2.00000        -123.531397        -3361.46034
    894       2.00000        -123.531396        -3361.46033
    895       2.00000        -123.531396        -3361.46032
    896       2.00000        -123.531396        -3361.46031
    897       2.00000        -123.531396        -3361.46031
    898       2.00000        -123.530187        -3361.42743
    899       2.00000        -123.530187        -3361.42743
    900       2.00000        -123.530187        -3361.42742
    901       2.00000        -123.530187        -3361.42742
    902       2.00000        -123.530182        -3361.42728
    903       2.00000        -123.530182        -3361.42728
    904       2.00000        -123.530172        -3361.42701
    905       2.00000        -123.530172        -3361.42701
    906       2.00000        -123.530172        -3361.42700
    907       2.00000        -123.530172        -3361.42700
    908       2.00000        -123.530166        -3361.42684
    909       2.00000        -123.530166        -3361.42684
    910       2.00000        -123.530102        -3361.42510
    911       2.00000        -123.530102        -3361.42510
    912       2.00000        -123.530099        -3361.42502
    913       2.00000        -123.529964        -3361.42134
    914       2.00000        -123.529964        -3361.42134
    915       2.00000        -123.529964        -3361.42134
    916       2.00000        -123.529964        -3361.42134
    917       2.00000        -123.529957        -3361.42117
    918       2.00000        -123.529957        -3361.42117
    919       2.00000        -123.529947        -3361.42089
    920       2.00000        -123.529947        -3361.42089
    921       2.00000        -123.529947        -3361.42088
    922       2.00000        -123.529947        -3361.42088
    923       2.00000        -123.529941        -3361.42072
    924       2.00000        -123.529941        -3361.42072
    925       2.00000        -123.529904        -3361.41972
    926       2.00000        -123.529904        -3361.41972
    927       2.00000        -123.529904        -3361.41972
    928       2.00000        -123.529904        -3361.41972
    929       2.00000        -123.529897        -3361.41953
    930       2.00000        -123.529897        -3361.41953
    931       2.00000        -123.529879        -3361.41903
    932       2.00000        -123.529879        -3361.41903
    933       2.00000        -123.529878        -3361.41902
    934       2.00000        -123.529878        -3361.41902
    935       2.00000        -123.529877        -3361.41897
    936       2.00000        -123.529877        -3361.41897
    937       2.00000        -123.529871        -3361.41881
    938       2.00000        -123.529871        -3361.41881
    939       2.00000        -123.529871        -3361.41881
    940       2.00000        -123.529871        -3361.41881
    941       2.00000        -123.529868        -3361.41875
    942       2.00000        -123.529868        -3361.41875
    943       2.00000        -123.529864        -3361.41862
    944       2.00000        -123.529864        -3361.41862
    945       2.00000        -123.529864        -3361.41861
    946       2.00000        -123.529864        -3361.41861
    947       2.00000        -123.529862        -3361.41856
    948       2.00000        -123.529862        -3361.41856
    949       2.00000        -123.529862        -3361.41856
    950       2.00000        -123.529861        -3361.41856
    951       2.00000        -123.529858        -3361.41846
    952       2.00000        -123.529858        -3361.41846
    953       2.00000        -123.529857        -3361.41843
    954       2.00000        -123.529857        -3361.41843
    955       2.00000        -123.529855        -3361.41839
    956       2.00000        -123.529855        -3361.41839
    957       2.00000        -123.529855        -3361.41838
    958       2.00000        -123.529855        -3361.41838
    959       2.00000        -123.529848        -3361.41820
    960       2.00000        -123.529848        -3361.41820
    961       2.00000        -123.529842        -3361.41802
    962       2.00000        -123.529842        -3361.41802
    963       2.00000        -123.529842        -3361.41801
    964       2.00000        -123.529842        -3361.41801
    965       2.00000        -123.529841        -3361.41799
    966       2.00000        -123.529841        -3361.41799
    967       2.00000        -123.529840        -3361.41798
    968       2.00000        -123.529840        -3361.41798
    969       2.00000        -123.529834        -3361.41782
    970       2.00000        -123.529834        -3361.41782
    971       2.00000        -123.529833        -3361.41778
    972       2.00000        -123.529833        -3361.41778
    973       2.00000        -123.529831        -3361.41773
    974       2.00000        -123.529831        -3361.41773
    975       2.00000        -123.529831        -3361.41773
    976       2.00000        -123.529831        -3361.41773
    977       2.00000        -123.529827        -3361.41762
    978       2.00000        -123.529827        -3361.41762
    979       2.00000        -123.529822        -3361.41750
    980       2.00000        -123.529822        -3361.41750
    981       2.00000        -123.529822        -3361.41749
    982       2.00000        -123.529822        -3361.41749
    983       2.00000        -123.529822        -3361.41748
    984       2.00000        -123.529822        -3361.41748
    985       2.00000        -123.529822        -3361.41747
    986       2.00000        -123.529822        -3361.41747
    987       2.00000        -123.529815        -3361.41729
    988       2.00000        -123.529815        -3361.41729
    989       2.00000        -123.529815        -3361.41729
    990       2.00000        -123.529815        -3361.41729
    991       2.00000        -123.529802        -3361.41693
    992       2.00000        -123.529802        -3361.41693
    993       2.00000        -123.529802        -3361.41693
    994       2.00000        -123.529802        -3361.41693
    995       2.00000        -123.529795        -3361.41676
    996       2.00000        -123.529795        -3361.41676
    997       2.00000        -123.529795        -3361.41676
    998       2.00000        -123.529795        -3361.41676
    999       2.00000        -123.529794        -3361.41673
   1000       2.00000        -123.529794        -3361.41673
   1001       2.00000        -123.529794        -3361.41673
   1002       2.00000        -123.529794        -3361.41673
   1003       2.00000        -123.529794        -3361.41672
   1004       2.00000        -123.529794        -3361.41672
   1005       2.00000        -123.529791        -3361.41663
   1006       2.00000        -123.529791        -3361.41663
   1007       2.00000        -123.529791        -3361.41663
   1008       2.00000        -123.529790        -3361.41663
   1009       2.00000        -123.529790        -3361.41663
   1010       2.00000        -123.529790        -3361.41662
   1011       2.00000        -123.529788        -3361.41657
   1012       2.00000        -123.529788        -3361.41657
   1013       2.00000        -123.529787        -3361.41653
   1014       2.00000        -123.529787        -3361.41653
   1015       2.00000        -123.529786        -3361.41652
   1016       2.00000        -123.529786        -3361.41652
   1017       2.00000        -123.529786        -3361.41651
   1018       2.00000        -123.529786        -3361.41651
   1019       2.00000        -123.529786        -3361.41651
   1020       2.00000        -123.529786        -3361.41651
   1021       2.00000        -123.529786        -3361.41650
   1022       2.00000        -123.529786        -3361.41650
   1023       2.00000        -123.529786        -3361.41650
   1024       2.00000        -123.529786        -3361.41650
   1025       2.00000        -123.529786        -3361.41650
   1026       2.00000        -123.529786        -3361.41650
   1027       2.00000        -123.529783        -3361.41644
   1028       2.00000        -123.529783        -3361.41644
   1029       2.00000        -123.529783        -3361.41643
   1030       2.00000        -123.529781        -3361.41637
   1031       2.00000        -123.529781        -3361.41637
   1032       2.00000        -123.529781        -3361.41637
   1033       2.00000        -123.529781        -3361.41637
   1034       2.00000        -123.529780        -3361.41633
   1035       2.00000        -123.529780        -3361.41633
   1036       2.00000        -123.529779        -3361.41632
   1037       2.00000        -123.529779        -3361.41632
   1038       2.00000        -123.529779        -3361.41631
   1039       2.00000        -123.529779        -3361.41631
   1040       2.00000        -123.529778        -3361.41629
   1041       2.00000        -123.529778        -3361.41629
   1042       2.00000        -123.529778        -3361.41629
   1043       2.00000        -123.529778        -3361.41629
   1044       2.00000        -123.529778        -3361.41628
   1045       2.00000        -123.529778        -3361.41628
   1046       2.00000        -123.529778        -3361.41628
   1047       2.00000        -123.529778        -3361.41628
   1048       2.00000        -123.529778        -3361.41628
   1049       2.00000        -123.529778        -3361.41628
   1050       2.00000        -123.529778        -3361.41627
   1051       2.00000        -123.529778        -3361.41627
   1052       2.00000        -123.529776        -3361.41623
   1053       2.00000        -123.529776        -3361.41623
   1054       2.00000        -123.529776        -3361.41622
   1055       2.00000        -123.529776        -3361.41622
   1056       2.00000        -123.529774        -3361.41618
   1057       2.00000        -123.529774        -3361.41618
   1058       2.00000        -123.529773        -3361.41615
   1059       2.00000        -123.529773        -3361.41615
   1060       2.00000        -123.529773        -3361.41614
   1061       2.00000        -123.529773        -3361.41614
   1062       2.00000        -123.529771        -3361.41610
   1063       2.00000        -123.529771        -3361.41610
   1064       2.00000        -123.529771        -3361.41609
   1065       2.00000        -123.529771        -3361.41609
   1066       2.00000        -123.529771        -3361.41609
   1067       2.00000        -123.529771        -3361.41609
   1068       2.00000        -123.529769        -3361.41604
   1069       2.00000        -123.529769        -3361.41604
   1070       2.00000        -123.529769        -3361.41603
   1071       2.00000        -123.529769        -3361.41603
   1072       2.00000        -123.529768        -3361.41602
   1073       2.00000        -123.529768        -3361.41602
   1074       2.00000        -123.529768        -3361.41602
   1075       2.00000        -123.529768        -3361.41602
   1076       2.00000        -123.529768        -3361.41601
   1077       2.00000        -123.529768        -3361.41601
   1078       2.00000        -123.529768        -3361.41601
   1079       2.00000        -123.529768        -3361.41601
   1080       2.00000        -123.529766        -3361.41596
   1081       2.00000        -123.529766        -3361.41596
   1082       2.00000        -123.529766        -3361.41596
   1083       2.00000        -123.529766        -3361.41595
   1084       2.00000        -123.529762        -3361.41585
   1085       2.00000        -123.529761        -3361.41583
   1086       2.00000        -123.529761        -3361.41583
   1087       2.00000        -123.529761        -3361.41583
   1088       2.00000        -123.529761        -3361.41583
   1089       2.00000        -123.529759        -3361.41576
   1090       2.00000        -123.529123        -3361.39847
   1091       2.00000        -123.529123        -3361.39847
   1092       2.00000        -123.529123        -3361.39847
   1093       2.00000        -123.529123        -3361.39847
   1094       2.00000        -123.529123        -3361.39847
   1095       2.00000        -123.529123        -3361.39847
   1096       2.00000        -123.529123        -3361.39847
   1097       2.00000        -123.529123        -3361.39847
   1098       2.00000        -123.529123        -3361.39847
   1099       2.00000        -123.529123        -3361.39847
   1100       2.00000        -123.529123        -3361.39847
   1101       2.00000        -123.529123        -3361.39847
   1102       2.00000        -123.529123        -3361.39847
   1103       2.00000        -123.529123        -3361.39847
   1104       2.00000        -123.529123        -3361.39847
   1105       2.00000        -123.529123        -3361.39847
   1106       2.00000        -123.529123        -3361.39847
   1107       2.00000        -123.529123        -3361.39847
   1108       2.00000        -123.529123        -3361.39847
   1109       2.00000        -123.529123        -3361.39847
   1110       2.00000        -123.529123        -3361.39847
   1111       2.00000        -123.529123        -3361.39847
   1112       2.00000        -123.529123        -3361.39847
   1113       2.00000        -123.529123        -3361.39847
   1114       2.00000        -123.529123        -3361.39847
   1115       2.00000        -123.529123        -3361.39847
   1116       2.00000        -123.529123        -3361.39847
   1117       2.00000        -123.529123        -3361.39847
   1118       2.00000        -123.529123        -3361.39847
   1119       2.00000        -123.529123        -3361.39847
   1120       2.00000        -123.529123        -3361.39847
   1121       2.00000        -123.529123        -3361.39847
   1122       2.00000        -123.529123        -3361.39847
   1123       2.00000        -123.529123        -3361.39847
   1124       2.00000        -123.529123        -3361.39847
   1125       2.00000        -123.529123        -3361.39847
   1126       2.00000        -123.529123        -3361.39847
   1127       2.00000        -123.529123        -3361.39847
   1128       2.00000        -123.529123        -3361.39847
   1129       2.00000        -123.529123        -3361.39847
   1130       2.00000        -123.529123        -3361.39847
   1131       2.00000        -123.529123        -3361.39847
   1132       2.00000        -123.529123        -3361.39847
   1133       2.00000        -123.529123        -3361.39847
   1134       2.00000        -123.529123        -3361.39847
   1135       2.00000        -123.529123        -3361.39847
   1136       2.00000        -123.529123        -3361.39847
   1137       2.00000        -123.529123        -3361.39847
   1138       2.00000        -123.529123        -3361.39847
   1139       2.00000        -123.529123        -3361.39847
   1140       2.00000        -123.529123        -3361.39847
   1141       2.00000        -123.529123        -3361.39847
   1142       2.00000        -123.529123        -3361.39847
   1143       2.00000        -123.529123        -3361.39847
   1144       2.00000        -123.529123        -3361.39847
   1145       2.00000        -123.529123        -3361.39847
   1146       2.00000        -123.529123        -3361.39847
   1147       2.00000        -123.529123        -3361.39847
   1148       2.00000        -123.529123        -3361.39847
   1149       2.00000        -123.529123        -3361.39847
   1150       2.00000        -123.529123        -3361.39847
   1151       2.00000        -123.529123        -3361.39847
   1152       2.00000        -123.529123        -3361.39847
   1153       2.00000        -123.529123        -3361.39847
   1154       2.00000        -123.529123        -3361.39847
   1155       2.00000        -123.529123        -3361.39847
   1156       2.00000        -123.529123        -3361.39847
   1157       2.00000        -123.529123        -3361.39847
   1158       2.00000        -123.529123        -3361.39847
   1159       2.00000        -123.529123        -3361.39847
   1160       2.00000        -123.529123        -3361.39847
   1161       2.00000        -123.529123        -3361.39847
   1162       2.00000        -123.529123        -3361.39847
   1163       2.00000        -123.529123        -3361.39847
   1164       2.00000        -123.529123        -3361.39847
   1165       2.00000        -123.529123        -3361.39847
   1166       2.00000        -123.529123        -3361.39847
   1167       2.00000        -123.529123        -3361.39847
   1168       2.00000        -123.529123        -3361.39847
   1169       2.00000        -123.529123        -3361.39847
   1170       2.00000        -123.529123        -3361.39847
   1171       2.00000        -123.529123        -3361.39847
   1172       2.00000        -123.529123        -3361.39847
   1173       2.00000        -123.529123        -3361.39847
   1174       2.00000        -123.529123        -3361.39847
   1175       2.00000        -123.529123        -3361.39847
   1176       2.00000        -123.529123        -3361.39847
   1177       2.00000        -123.529123        -3361.39847
   1178       2.00000        -123.529123        -3361.39847
   1179       2.00000        -123.529123        -3361.39847
   1180       2.00000        -123.529123        -3361.39847
   1181       2.00000        -123.529123        -3361.39847
   1182       2.00000        -123.529123        -3361.39847
   1183       2.00000        -123.529123        -3361.39847
   1184       2.00000        -123.529123        -3361.39847
   1185       2.00000        -123.529123        -3361.39847
   1186       2.00000        -123.529123        -3361.39847
   1187       2.00000        -123.529123        -3361.39847
   1188       2.00000        -123.529123        -3361.39847
   1189       2.00000        -123.529123        -3361.39847
   1190       2.00000        -123.529123        -3361.39847
   1191       2.00000        -123.529123        -3361.39847
   1192       2.00000        -123.529123        -3361.39847
   1193       2.00000        -123.529123        -3361.39847
   1194       2.00000        -123.529123        -3361.39847
   1195       2.00000        -123.529123        -3361.39847
   1196       2.00000        -123.529123        -3361.39847
   1197       2.00000        -123.529123        -3361.39847
   1198       2.00000        -123.529123        -3361.39847
   1199       2.00000        -123.529123        -3361.39847
   1200       2.00000        -123.529123        -3361.39847
   1201       2.00000        -123.529123        -3361.39847
   1202       2.00000        -123.529123        -3361.39847
   1203       2.00000        -123.529123        -3361.39847
   1204       2.00000        -123.529123        -3361.39847
   1205       2.00000        -123.529123        -3361.39847
   1206       2.00000        -123.529123        -3361.39847
   1207       2.00000        -123.529123        -3361.39847
   1208       2.00000        -123.529123        -3361.39847
   1209       2.00000        -123.529123        -3361.39847
   1210       2.00000        -123.529123        -3361.39847
   1211       2.00000        -123.529123        -3361.39847
   1212       2.00000        -123.529123        -3361.39847
   1213       2.00000        -123.529123        -3361.39847
   1214       2.00000        -123.529123        -3361.39847
   1215       2.00000        -123.529123        -3361.39847
   1216       2.00000        -123.529123        -3361.39847
   1217       2.00000        -123.529123        -3361.39847
   1218       2.00000        -123.529116        -3361.39826
   1219       2.00000        -123.529116        -3361.39826
   1220       2.00000        -123.529116        -3361.39826
   1221       2.00000        -123.529116        -3361.39826
   1222       2.00000        -123.529116        -3361.39826
   1223       2.00000        -123.529116        -3361.39826
   1224       2.00000        -123.529116        -3361.39826
   1225       2.00000        -123.529116        -3361.39826
   1226       2.00000        -123.529116        -3361.39826
   1227       2.00000        -123.529116        -3361.39826
   1228       2.00000        -123.529116        -3361.39826
   1229       2.00000        -123.529116        -3361.39826
   1230       2.00000        -123.529116        -3361.39826
   1231       2.00000        -123.529116        -3361.39826
   1232       2.00000        -123.529116        -3361.39826
   1233       2.00000        -123.529116        -3361.39826
   1234       2.00000        -123.529116        -3361.39826
   1235       2.00000        -123.529116        -3361.39826
   1236       2.00000        -123.529116        -3361.39826
   1237       2.00000        -123.529116        -3361.39826
   1238       2.00000        -123.529116        -3361.39826
   1239       2.00000        -123.529116        -3361.39826
   1240       2.00000        -123.529116        -3361.39826
   1241       2.00000        -123.529116        -3361.39826
   1242       2.00000        -123.529116        -3361.39826
   1243       2.00000        -123.529116        -3361.39826
   1244       2.00000        -123.529116        -3361.39826
   1245       2.00000        -123.529116        -3361.39826
   1246       2.00000        -123.529116        -3361.39826
   1247       2.00000        -123.529116        -3361.39826
   1248       2.00000        -123.529116        -3361.39826
   1249       2.00000        -123.529116        -3361.39826
   1250       2.00000        -123.529116        -3361.39826
   1251       2.00000        -123.529116        -3361.39826
   1252       2.00000        -123.529116        -3361.39826
   1253       2.00000        -123.529116        -3361.39826
   1254       2.00000        -123.529116        -3361.39826
   1255       2.00000        -123.529116        -3361.39826
   1256       2.00000        -123.529116        -3361.39826
   1257       2.00000        -123.529116        -3361.39826
   1258       2.00000        -123.529116        -3361.39826
   1259       2.00000        -123.529116        -3361.39826
   1260       2.00000        -123.529116        -3361.39826
   1261       2.00000        -123.529116        -3361.39826
   1262       2.00000        -123.529116        -3361.39826
   1263       2.00000        -123.529116        -3361.39826
   1264       2.00000        -123.529116        -3361.39826
   1265       2.00000        -123.529116        -3361.39826
   1266       2.00000        -123.529116        -3361.39826
   1267       2.00000        -123.529116        -3361.39826
   1268       2.00000        -123.529116        -3361.39826
   1269       2.00000        -123.529116        -3361.39826
   1270       2.00000        -123.529116        -3361.39826
   1271       2.00000        -123.529116        -3361.39826
   1272       2.00000        -123.529116        -3361.39826
   1273       2.00000        -123.529116        -3361.39826
   1274       2.00000        -123.529116        -3361.39826
   1275       2.00000        -123.529116        -3361.39826
   1276       2.00000        -123.529116        -3361.39826
   1277       2.00000        -123.529116        -3361.39826
   1278       2.00000        -123.529116        -3361.39826
   1279       2.00000        -123.529116        -3361.39826
   1280       2.00000        -123.529116        -3361.39826
   1281       2.00000        -123.529116        -3361.39826
   1282       2.00000         -42.646263        -1160.46386
   1283       2.00000         -36.959607        -1005.72208
   1284       2.00000         -36.959604        -1005.72199
   1285       2.00000         -36.959414        -1005.71683
   1286       2.00000         -25.149308         -684.34748
   1287       2.00000         -25.149308         -684.34748
   1288       2.00000         -25.149297         -684.34719
   1289       2.00000         -25.149297         -684.34718
   1290       2.00000         -25.149172         -684.34378
   1291       2.00000         -25.149172         -684.34378
   1292       2.00000         -25.149167         -684.34365
   1293       2.00000         -25.149167         -684.34365
   1294       2.00000         -25.149105         -684.34196
   1295       2.00000         -25.149105         -684.34196
   1296       2.00000         -25.149094         -684.34167
   1297       2.00000         -25.149094         -684.34167
   1298       2.00000         -25.149078         -684.34123
   1299       2.00000         -25.149078         -684.34123
   1300       2.00000         -25.149072         -684.34107
   1301       2.00000         -25.149072         -684.34107
   1302       2.00000         -25.149055         -684.34061
   1303       2.00000         -25.149055         -684.34061
   1304       2.00000         -25.149053         -684.34055
   1305       2.00000         -25.149053         -684.34055
   1306       2.00000         -25.149053         -684.34054
   1307       2.00000         -25.149053         -684.34054
   1308       2.00000         -25.149048         -684.34041
   1309       2.00000         -25.149048         -684.34041
   1310       2.00000         -25.149044         -684.34032
   1311       2.00000         -25.149044         -684.34032
   1312       2.00000         -25.149041         -684.34021
   1313       2.00000         -25.149041         -684.34021
   1314       2.00000         -25.149038         -684.34013
   1315       2.00000         -25.149038         -684.34013
   1316       2.00000         -25.149035         -684.34005
   1317       2.00000         -25.149035         -684.34005
   1318       2.00000         -25.149034         -684.34004
   1319       2.00000         -25.149034         -684.34004
   1320       2.00000         -25.149031         -684.33995
   1321       2.00000         -25.149031         -684.33995
   1322       2.00000         -25.149022         -684.33970
   1323       2.00000         -25.149022         -684.33970
   1324       2.00000         -25.149021         -684.33969
   1325       2.00000         -25.149021         -684.33969
   1326       2.00000         -25.149021         -684.33968
   1327       2.00000         -25.149021         -684.33968
   1328       2.00000         -25.149021         -684.33968
   1329       2.00000         -25.149021         -684.33968
   1330       2.00000         -25.149020         -684.33964
   1331       2.00000         -25.149020         -684.33964
   1332       2.00000         -25.149019         -684.33963
   1333       2.00000         -25.149019         -684.33963
   1334       2.00000         -25.149018         -684.33960
   1335       2.00000         -25.149018         -684.33960
   1336       2.00000         -25.149017         -684.33957
   1337       2.00000         -25.149017         -684.33957
   1338       2.00000         -25.149017         -684.33957
   1339       2.00000         -25.149017         -684.33957
   1340       2.00000         -25.149017         -684.33956
   1341       2.00000         -25.149016         -684.33956
   1342       2.00000         -25.149016         -684.33953
   1343       2.00000         -25.149016         -684.33953
   1344       2.00000         -25.149014         -684.33950
   1345       2.00000         -25.149014         -684.33950
   1346       2.00000         -25.149009         -684.33936
   1347       2.00000         -25.149009         -684.33936
   1348       2.00000         -25.148958         -684.33797
   1349       2.00000         -25.148958         -684.33797
   1350       2.00000         -25.148428         -684.32354
   1351       2.00000         -25.148350         -684.32143
   1352       2.00000         -25.148350         -684.32143
   1353       2.00000         -25.148350         -684.32142
   1354       2.00000         -25.148344         -684.32125
   1355       2.00000         -25.148344         -684.32125
   1356       2.00000         -25.148343         -684.32124
   1357       2.00000         -25.148343         -684.32124
   1358       2.00000         -25.148343         -684.32123
   1359       2.00000         -25.148343         -684.32123
   1360       2.00000         -25.148341         -684.32117
   1361       2.00000         -25.148341         -684.32117
   1362       2.00000         -25.148340         -684.32115
   1363       2.00000         -25.148340         -684.32115
   1364       2.00000         -25.148337         -684.32107
   1365       2.00000         -25.148337         -684.32107
   1366       2.00000         -25.148336         -684.32105
   1367       2.00000         -25.148335         -684.32101
   1368       2.00000         -25.148335         -684.32101
   1369       2.00000         -25.148331         -684.32089
   1370       2.00000         -25.148331         -684.32089
   1371       2.00000         -25.148328         -684.32083
   1372       2.00000         -25.148328         -684.32083
   1373       2.00000         -25.148327         -684.32079
   1374       2.00000         -25.148327         -684.32079
   1375       2.00000         -25.148326         -684.32077
   1376       2.00000         -25.148326         -684.32076
   1377       2.00000         -25.148323         -684.32069
   1378       2.00000         -25.148323         -684.32069
   1379       2.00000         -25.148322         -684.32065
   1380       2.00000         -25.148322         -684.32065
   1381       2.00000         -25.148319         -684.32058
   1382       2.00000         -25.148318         -684.32056
   1383       2.00000         -25.148318         -684.32056
   1384       2.00000         -25.148318         -684.32055
   1385       2.00000         -25.148318         -684.32055
   1386       2.00000         -25.148318         -684.32055
   1387       2.00000         -25.148318         -684.32055
   1388       2.00000         -25.148317         -684.32052
   1389       2.00000         -25.148317         -684.32052
   1390       2.00000         -25.148317         -684.32051
   1391       2.00000         -25.148317         -684.32051
   1392       2.00000         -25.148316         -684.32051
   1393       2.00000         -25.148316         -684.32051
   1394       2.00000         -25.148315         -684.32046
   1395       2.00000         -25.148315         -684.32046
   1396       2.00000         -25.148315         -684.32046
   1397       2.00000         -25.148315         -684.32046
   1398       2.00000         -25.148314         -684.32044
   1399       2.00000         -25.148314         -684.32044
   1400       2.00000         -25.148312         -684.32038
   1401       2.00000         -25.148312         -684.32038
   1402       2.00000         -25.148311         -684.32036
   1403       2.00000         -25.148311         -684.32036
   1404       2.00000         -25.148311         -684.32035
   1405       2.00000         -25.148311         -684.32035
   1406       2.00000         -25.148301         -684.32009
   1407       2.00000         -25.148301         -684.32009
   1408       2.00000         -25.148298         -684.32002
   1409       2.00000         -25.148298         -684.32002
   1410       2.00000         -25.148289         -684.31975
   1411       2.00000         -25.148289         -684.31975
   1412       2.00000         -25.148287         -684.31970
   1413       2.00000         -25.148287         -684.31970
   1414       2.00000         -25.146943         -684.28314
   1415       2.00000         -25.146943         -684.28314
   1416       2.00000         -25.146925         -684.28264
   1417       2.00000         -25.146925         -684.28264
   1418       2.00000         -25.146860         -684.28086
   1419       2.00000         -25.146702         -684.27658
   1420       2.00000         -25.146702         -684.27658
   1421       2.00000         -25.146686         -684.27613
   1422       2.00000         -25.146686         -684.27613
   1423       2.00000         -25.146634         -684.27473
   1424       2.00000         -25.146634         -684.27473
   1425       2.00000         -25.146621         -684.27437
   1426       2.00000         -25.146621         -684.27437
   1427       2.00000         -25.146611         -684.27411
   1428       2.00000         -25.146611         -684.27411
   1429       2.00000         -25.146598         -684.27376
   1430       2.00000         -25.146598         -684.27376
   1431       2.00000         -25.146591         -684.27355
   1432       2.00000         -25.146591         -684.27355
   1433       2.00000         -25.146582         -684.27331
   1434       2.00000         -25.146582         -684.27330
   1435       2.00000         -25.146567         -684.27290
   1436       2.00000         -25.146567         -684.27290
   1437       2.00000         -25.146565         -684.27286
   1438       2.00000         -25.146565         -684.27286
   1439       2.00000         -25.146565         -684.27284
   1440       2.00000         -25.146565         -684.27284
   1441       2.00000         -25.146546         -684.27233
   1442       2.00000         -25.146546         -684.27233
   1443       2.00000         -25.146546         -684.27232
   1444       2.00000         -25.146546         -684.27232
   1445       2.00000         -25.146524         -684.27174
   1446       2.00000         -25.146524         -684.27174
   1447       2.00000         -25.146517         -684.27154
   1448       2.00000         -25.146517         -684.27154
   1449       2.00000         -25.146516         -684.27151
   1450       2.00000         -25.146516         -684.27151
   1451       2.00000         -25.146512         -684.27141
   1452       2.00000         -25.146512         -684.27141
   1453       2.00000         -25.146512         -684.27141
   1454       2.00000         -25.146508         -684.27128
   1455       2.00000         -25.146508         -684.27128
   1456       2.00000         -25.146507         -684.27127
   1457       2.00000         -25.146507         -684.27127
   1458       2.00000         -25.146507         -684.27127
   1459       2.00000         -25.146507         -684.27127
   1460       2.00000         -25.146502         -684.27113
   1461       2.00000         -25.146502         -684.27113
   1462       2.00000         -25.146499         -684.27105
   1463       2.00000         -25.146499         -684.27104
   1464       2.00000         -25.146498         -684.27103
   1465       2.00000         -25.146498         -684.27103
   1466       2.00000         -25.146498         -684.27103
   1467       2.00000         -25.146498         -684.27103
   1468       2.00000         -25.146496         -684.27098
   1469       2.00000         -25.146496         -684.27098
   1470       2.00000         -25.146493         -684.27089
   1471       2.00000         -25.146493         -684.27089
   1472       2.00000         -25.146489         -684.27078
   1473       2.00000         -25.146488         -684.27075
   1474       2.00000         -25.146488         -684.27075
   1475       2.00000         -25.146488         -684.27075
   1476       2.00000         -25.146488         -684.27075
   1477       2.00000         -25.146486         -684.27069
   1478       2.00000         -25.145799         -684.25200
   1479       2.00000         -25.145799         -684.25200
   1480       2.00000         -25.145799         -684.25200
   1481       2.00000         -25.145799         -684.25200
   1482       2.00000         -25.145799         -684.25200
   1483       2.00000         -25.145799         -684.25200
   1484       2.00000         -25.145799         -684.25200
   1485       2.00000         -25.145799         -684.25200
   1486       2.00000         -25.145799         -684.25200
   1487       2.00000         -25.145799         -684.25200
   1488       2.00000         -25.145799         -684.25200
   1489       2.00000         -25.145799         -684.25200
   1490       2.00000         -25.145799         -684.25200
   1491       2.00000         -25.145799         -684.25200
   1492       2.00000         -25.145799         -684.25200
   1493       2.00000         -25.145799         -684.25200
   1494       2.00000         -25.145799         -684.25200
   1495       2.00000         -25.145799         -684.25200
   1496       2.00000         -25.145799         -684.25200
   1497       2.00000         -25.145799         -684.25200
   1498       2.00000         -25.145799         -684.25200
   1499       2.00000         -25.145799         -684.25200
   1500       2.00000         -25.145799         -684.25200
   1501       2.00000         -25.145799         -684.25200
   1502       2.00000         -25.145799         -684.25200
   1503       2.00000         -25.145799         -684.25200
   1504       2.00000         -25.145799         -684.25200
   1505       2.00000         -25.145799         -684.25200
   1506       2.00000         -25.145799         -684.25200
   1507       2.00000         -25.145799         -684.25200
   1508       2.00000         -25.145799         -684.25200
   1509       2.00000         -25.145799         -684.25200
   1510       2.00000         -25.145799         -684.25200
   1511       2.00000         -25.145799         -684.25200
   1512       2.00000         -25.145799         -684.25200
   1513       2.00000         -25.145799         -684.25200
   1514       2.00000         -25.145799         -684.25200
   1515       2.00000         -25.145799         -684.25200
   1516       2.00000         -25.145799         -684.25200
   1517       2.00000         -25.145799         -684.25200
   1518       2.00000         -25.145799         -684.25200
   1519       2.00000         -25.145799         -684.25200
   1520       2.00000         -25.145799         -684.25200
   1521       2.00000         -25.145799         -684.25200
   1522       2.00000         -25.145799         -684.25200
   1523       2.00000         -25.145799         -684.25200
   1524       2.00000         -25.145799         -684.25200
   1525       2.00000         -25.145799         -684.25200
   1526       2.00000         -25.145799         -684.25200
   1527       2.00000         -25.145799         -684.25200
   1528       2.00000         -25.145799         -684.25200
   1529       2.00000         -25.145799         -684.25200
   1530       2.00000         -25.145799         -684.25200
   1531       2.00000         -25.145799         -684.25200
   1532       2.00000         -25.145799         -684.25200
   1533       2.00000         -25.145799         -684.25200
   1534       2.00000         -25.145799         -684.25200
   1535       2.00000         -25.145799         -684.25200
   1536       2.00000         -25.145799         -684.25200
   1537       2.00000         -25.145799         -684.25200
   1538       2.00000         -25.145799         -684.25200
   1539       2.00000         -25.145799         -684.25200
   1540       2.00000         -25.145799         -684.25200
   1541       2.00000         -25.145799         -684.25200
   1542       2.00000         -20.500907         -557.85807
   1543       2.00000         -20.500907         -557.85807
   1544       2.00000         -20.500897         -557.85778
   1545       2.00000         -20.500897         -557.85778
   1546       2.00000         -20.500896         -557.85777
   1547       2.00000         -20.500896         -557.85777
   1548       2.00000         -20.500885         -557.85747
   1549       2.00000         -20.500885         -557.85747
   1550       2.00000         -20.500882         -557.85738
   1551       2.00000         -20.500882         -557.85738
   1552       2.00000         -20.500871         -557.85710
   1553       2.00000         -20.500871         -557.85710
   1554       2.00000         -20.500770         -557.85432
   1555       2.00000         -20.500770         -557.85432
   1556       2.00000         -20.500766         -557.85422
   1557       2.00000         -20.500766         -557.85422
   1558       2.00000         -20.500755         -557.85394
   1559       2.00000         -20.500755         -557.85394
   1560       2.00000         -20.500753         -557.85386
   1561       2.00000         -20.500753         -557.85386
   1562       2.00000         -20.500750         -557.85378
   1563       2.00000         -20.500750         -557.85378
   1564       2.00000         -20.500748         -557.85373
   1565       2.00000         -20.500748         -557.85373
   1566       2.00000         -20.500700         -557.85244
   1567       2.00000         -20.500700         -557.85244
   1568       2.00000         -20.500690         -557.85215
   1569       2.00000         -20.500690         -557.85215
   1570       2.00000         -20.500688         -557.85211
   1571       2.00000         -20.500688         -557.85211
   1572       2.00000         -20.500688         -557.85209
   1573       2.00000         -20.500688         -557.85209
   1574       2.00000         -20.500678         -557.85183
   1575       2.00000         -20.500678         -557.85183
   1576       2.00000         -20.500676         -557.85179
   1577       2.00000         -20.500676         -557.85179
   1578       2.00000         -20.500674         -557.85171
   1579       2.00000         -20.500674         -557.85171
   1580       2.00000         -20.500670         -557.85161
   1581       2.00000         -20.500670         -557.85161
   1582       2.00000         -20.500663         -557.85142
   1583       2.00000         -20.500663         -557.85142
   1584       2.00000         -20.500659         -557.85132
   1585       2.00000         -20.500659         -557.85132
   1586       2.00000         -20.500656         -557.85123
   1587       2.00000         -20.500656         -557.85123
   1588       2.00000         -20.500653         -557.85115
   1589       2.00000         -20.500653         -557.85115
   1590       2.00000         -20.500650         -557.85107
   1591       2.00000         -20.500650         -557.85107
   1592       2.00000         -20.500648         -557.85102
   1593       2.00000         -20.500648         -557.85102
   1594       2.00000         -20.500647         -557.85100
   1595       2.00000         -20.500647         -557.85100
   1596       2.00000         -20.500643         -557.85087
   1597       2.00000         -20.500643         -557.85087
   1598       2.00000         -20.500641         -557.85081
   1599       2.00000         -20.500641         -557.85081
   1600       2.00000         -20.500640         -557.85081
   1601       2.00000         -20.500640         -557.85080
   1602       2.00000         -20.500638         -557.85075
   1603       2.00000         -20.500638         -557.85075
   1604       2.00000         -20.500638         -557.85073
   1605       2.00000         -20.500638         -557.85073
   1606       2.00000         -20.500637         -557.85072
   1607       2.00000         -20.500637         -557.85072
   1608       2.00000         -20.500636         -557.85068
   1609       2.00000         -20.500636         -557.85068
   1610       2.00000         -20.500634         -557.85064
   1611       2.00000         -20.500634         -557.85064
   1612       2.00000         -20.500634         -557.85064
   1613       2.00000         -20.500634         -557.85064
   1614       2.00000         -20.500633         -557.85061
   1615       2.00000         -20.500633         -557.85061
   1616       2.00000         -20.500632         -557.85057
   1617       2.00000         -20.500632         -557.85057
   1618       2.00000         -20.500630         -557.85053
   1619       2.00000         -20.500630         -557.85053
   1620       2.00000         -20.500630         -557.85052
   1621       2.00000         -20.500630         -557.85052
   1622       2.00000         -20.500628         -557.85048
   1623       2.00000         -20.500628         -557.85048
   1624       2.00000         -20.500628         -557.85047
   1625       2.00000         -20.500628         -557.85047
   1626       2.00000         -20.500627         -557.85043
   1627       2.00000         -20.500627         -557.85043
   1628       2.00000         -20.500626         -557.85041
   1629       2.00000         -20.500626         -557.85041
   1630       2.00000         -20.500626         -557.85040
   1631       2.00000         -20.500626         -557.85040
   1632       2.00000         -20.500624         -557.85036
   1633       2.00000         -20.500624         -557.85036
   1634       2.00000         -20.500622         -557.85031
   1635       2.00000         -20.500622         -557.85031
   1636       2.00000         -20.500621         -557.85028
   1637       2.00000         -20.500621         -557.85028
   1638       2.00000         -20.500619         -557.85023
   1639       2.00000         -20.500619         -557.85023
   1640       2.00000         -20.500619         -557.85022
   1641       2.00000         -20.500619         -557.85022
   1642       2.00000         -20.500619         -557.85022
   1643       2.00000         -20.500619         -557.85022
   1644       2.00000         -20.500618         -557.85020
   1645       2.00000         -20.500618         -557.85020
   1646       2.00000         -20.500617         -557.85018
   1647       2.00000         -20.500617         -557.85018
   1648       2.00000         -20.500616         -557.85014
   1649       2.00000         -20.500616         -557.85014
   1650       2.00000         -20.500616         -557.85014
   1651       2.00000         -20.500616         -557.85014
   1652       2.00000         -20.500615         -557.85013
   1653       2.00000         -20.500615         -557.85013
   1654       2.00000         -20.500615         -557.85011
   1655       2.00000         -20.500615         -557.85011
   1656       2.00000         -20.500614         -557.85010
   1657       2.00000         -20.500614         -557.85010
   1658       2.00000         -20.500614         -557.85009
   1659       2.00000         -20.500614         -557.85009
   1660       2.00000         -20.500613         -557.85007
   1661       2.00000         -20.500613         -557.85007
   1662       2.00000         -20.500613         -557.85007
   1663       2.00000         -20.500613         -557.85007
   1664       2.00000         -20.500611         -557.85000
   1665       2.00000         -20.500611         -557.85000
   1666       2.00000         -20.500611         -557.85000
   1667       2.00000         -20.500611         -557.85000
   1668       2.00000         -20.500610         -557.84998
   1669       2.00000         -20.500610         -557.84998
   1670       2.00000         -20.500609         -557.84996
   1671       2.00000         -20.500609         -557.84996
   1672       2.00000         -20.500609         -557.84994
   1673       2.00000         -20.500609         -557.84994
   1674       2.00000         -20.500607         -557.84989
   1675       2.00000         -20.500607         -557.84989
   1676       2.00000         -20.500607         -557.84989
   1677       2.00000         -20.500607         -557.84989
   1678       2.00000         -20.500606         -557.84988
   1679       2.00000         -20.500606         -557.84988
   1680       2.00000         -20.500605         -557.84985
   1681       2.00000         -20.500605         -557.84985
   1682       2.00000         -20.500605         -557.84985
   1683       2.00000         -20.500605         -557.84985
   1684       2.00000         -20.500605         -557.84983
   1685       2.00000         -20.500605         -557.84983
   1686       2.00000         -20.500605         -557.84983
   1687       2.00000         -20.500605         -557.84983
   1688       2.00000         -20.500604         -557.84982
   1689       2.00000         -20.500604         -557.84982
   1690       2.00000         -20.500603         -557.84980
   1691       2.00000         -20.500603         -557.84980
   1692       2.00000         -20.500603         -557.84978
   1693       2.00000         -20.500603         -557.84978
   1694       2.00000         -20.500602         -557.84977
   1695       2.00000         -20.500602         -557.84977
   1696       2.00000         -20.500602         -557.84977
   1697       2.00000         -20.500602         -557.84977
   1698       2.00000         -20.500602         -557.84976
   1699       2.00000         -20.500602         -557.84976
   1700       2.00000         -20.500601         -557.84975
   1701       2.00000         -20.500601         -557.84975
   1702       2.00000         -20.500601         -557.84974
   1703       2.00000         -20.500601         -557.84974
   1704       2.00000         -20.500601         -557.84974
   1705       2.00000         -20.500601         -557.84973
   1706       2.00000         -20.500601         -557.84973
   1707       2.00000         -20.500601         -557.84973
   1708       2.00000         -20.500600         -557.84972
   1709       2.00000         -20.500600         -557.84972
   1710       2.00000         -20.500600         -557.84972
   1711       2.00000         -20.500600         -557.84972
   1712       2.00000         -20.500600         -557.84971
   1713       2.00000         -20.500600         -557.84971
   1714       2.00000         -20.500600         -557.84971
   1715       2.00000         -20.500600         -557.84971
   1716       2.00000         -20.500600         -557.84970
   1717       2.00000         -20.500600         -557.84970
   1718       2.00000         -20.500599         -557.84969
   1719       2.00000         -20.500599         -557.84969
   1720       2.00000         -20.500599         -557.84967
   1721       2.00000         -20.500599         -557.84967
   1722       2.00000         -20.500598         -557.84966
   1723       2.00000         -20.500598         -557.84965
   1724       2.00000         -20.500594         -557.84955
   1725       2.00000         -20.500594         -557.84955
   1726       2.00000         -20.500593         -557.84951
   1727       2.00000         -20.500593         -557.84951
   1728       2.00000         -20.500553         -557.84843
   1729       2.00000         -20.500553         -557.84843
   1730       2.00000         -20.500544         -557.84819
   1731       2.00000         -20.500544         -557.84819
   1732       2.00000         -20.500539         -557.84804
   1733       2.00000         -20.500539         -557.84804
   1734       2.00000         -20.500018         -557.83386
   1735       2.00000         -20.500013         -557.83375
   1736       2.00000         -20.500013         -557.83372
   1737       2.00000         -20.499941         -557.83178
   1738       2.00000         -20.499941         -557.83178
   1739       2.00000         -20.499940         -557.83174
   1740       2.00000         -20.499936         -557.83165
   1741       2.00000         -20.499936         -557.83165
   1742       2.00000         -20.499935         -557.83162
   1743       2.00000         -20.499935         -557.83161
   1744       2.00000         -20.499935         -557.83161
   1745       2.00000         -20.499934         -557.83160
   1746       2.00000         -20.499934         -557.83159
   1747       2.00000         -20.499934         -557.83159
   1748       2.00000         -20.499933         -557.83157
   1749       2.00000         -20.499933         -557.83157
   1750       2.00000         -20.499933         -557.83156
   1751       2.00000         -20.499933         -557.83156
   1752       2.00000         -20.499933         -557.83156
   1753       2.00000         -20.499933         -557.83155
   1754       2.00000         -20.499933         -557.83155
   1755       2.00000         -20.499933         -557.83155
   1756       2.00000         -20.499929         -557.83144
   1757       2.00000         -20.499929         -557.83144
   1758       2.00000         -20.499929         -557.83144
   1759       2.00000         -20.499929         -557.83144
   1760       2.00000         -20.499928         -557.83143
   1761       2.00000         -20.499928         -557.83143
   1762       2.00000         -20.499928         -557.83142
   1763       2.00000         -20.499928         -557.83142
   1764       2.00000         -20.499928         -557.83142
   1765       2.00000         -20.499928         -557.83142
   1766       2.00000         -20.499928         -557.83142
   1767       2.00000         -20.499928         -557.83142
   1768       2.00000         -20.499927         -557.83138
   1769       2.00000         -20.499927         -557.83138
   1770       2.00000         -20.499926         -557.83138
   1771       2.00000         -20.499926         -557.83138
   1772       2.00000         -20.499926         -557.83137
   1773       2.00000         -20.499926         -557.83136
   1774       2.00000         -20.499926         -557.83136
   1775       2.00000         -20.499925         -557.83134
   1776       2.00000         -20.499925         -557.83134
   1777       2.00000         -20.499924         -557.83131
   1778       2.00000         -20.499924         -557.83131
   1779       2.00000         -20.499921         -557.83124
   1780       2.00000         -20.499921         -557.83124
   1781       2.00000         -20.499921         -557.83124
   1782       2.00000         -20.499921         -557.83124
   1783       2.00000         -20.499921         -557.83123
   1784       2.00000         -20.499921         -557.83123
   1785       2.00000         -20.499921         -557.83122
   1786       2.00000         -20.499921         -557.83122
   1787       2.00000         -20.499921         -557.83122
   1788       2.00000         -20.499921         -557.83122
   1789       2.00000         -20.499921         -557.83122
   1790       2.00000         -20.499921         -557.83122
   1791       2.00000         -20.499919         -557.83118
   1792       2.00000         -20.499919         -557.83118
   1793       2.00000         -20.499919         -557.83117
   1794       2.00000         -20.499919         -557.83117
   1795       2.00000         -20.499917         -557.83112
   1796       2.00000         -20.499917         -557.83112
   1797       2.00000         -20.499916         -557.83111
   1798       2.00000         -20.499916         -557.83111
   1799       2.00000         -20.499916         -557.83110
   1800       2.00000         -20.499916         -557.83110
   1801       2.00000         -20.499915         -557.83108
   1802       2.00000         -20.499915         -557.83108
   1803       2.00000         -20.499915         -557.83106
   1804       2.00000         -20.499915         -557.83106
   1805       2.00000         -20.499913         -557.83102
   1806       2.00000         -20.499913         -557.83102
   1807       2.00000         -20.499912         -557.83099
   1808       2.00000         -20.499912         -557.83099
   1809       2.00000         -20.499912         -557.83099
   1810       2.00000         -20.499912         -557.83099
   1811       2.00000         -20.499912         -557.83098
   1812       2.00000         -20.499912         -557.83098
   1813       2.00000         -20.499912         -557.83098
   1814       2.00000         -20.499912         -557.83098
   1815       2.00000         -20.499911         -557.83097
   1816       2.00000         -20.499911         -557.83097
   1817       2.00000         -20.499909         -557.83091
   1818       2.00000         -20.499909         -557.83091
   1819       2.00000         -20.499909         -557.83091
   1820       2.00000         -20.499909         -557.83089
   1821       2.00000         -20.499909         -557.83089
   1822       2.00000         -20.499908         -557.83088
   1823       2.00000         -20.499908         -557.83088
   1824       2.00000         -20.499908         -557.83087
   1825       2.00000         -20.499908         -557.83087
   1826       2.00000         -20.499908         -557.83087
   1827       2.00000         -20.499908         -557.83087
   1828       2.00000         -20.499908         -557.83087
   1829       2.00000         -20.499908         -557.83087
   1830       2.00000         -20.499908         -557.83087
   1831       2.00000         -20.499908         -557.83087
   1832       2.00000         -20.499907         -557.83085
   1833       2.00000         -20.499907         -557.83085
   1834       2.00000         -20.499907         -557.83085
   1835       2.00000         -20.499907         -557.83085
   1836       2.00000         -20.499907         -557.83085
   1837       2.00000         -20.499907         -557.83085
   1838       2.00000         -20.499906         -557.83084
   1839       2.00000         -20.499906         -557.83084
   1840       2.00000         -20.499905         -557.83079
   1841       2.00000         -20.499905         -557.83079
   1842       2.00000         -20.499905         -557.83078
   1843       2.00000         -20.499905         -557.83078
   1844       2.00000         -20.499904         -557.83078
   1845       2.00000         -20.499904         -557.83078
   1846       2.00000         -20.499904         -557.83077
   1847       2.00000         -20.499904         -557.83077
   1848       2.00000         -20.499904         -557.83076
   1849       2.00000         -20.499904         -557.83076
   1850       2.00000         -20.499904         -557.83076
   1851       2.00000         -20.499904         -557.83076
   1852       2.00000         -20.499903         -557.83074
   1853       2.00000         -20.499903         -557.83074
   1854       2.00000         -20.499903         -557.83074
   1855       2.00000         -20.499903         -557.83074
   1856       2.00000         -20.499903         -557.83073
   1857       2.00000         -20.499903         -557.83073
   1858       2.00000         -20.499902         -557.83072
   1859       2.00000         -20.499902         -557.83072
   1860       2.00000         -20.499902         -557.83072
   1861       2.00000         -20.499902         -557.83072
   1862       2.00000         -20.499902         -557.83071
   1863       2.00000         -20.499902         -557.83071
   1864       2.00000         -20.499902         -557.83071
   1865       2.00000         -20.499902         -557.83071
   1866       2.00000         -20.499902         -557.83071
   1867       2.00000         -20.499902         -557.83071
   1868       2.00000         -20.499902         -557.83071
   1869       2.00000         -20.499902         -557.83071
   1870       2.00000         -20.499901         -557.83069
   1871       2.00000         -20.499901         -557.83069
   1872       2.00000         -20.499901         -557.83069
   1873       2.00000         -20.499901         -557.83069
   1874       2.00000         -20.499901         -557.83068
   1875       2.00000         -20.499901         -557.83068
   1876       2.00000         -20.499900         -557.83067
   1877       2.00000         -20.499900         -557.83067
   1878       2.00000         -20.499900         -557.83066
   1879       2.00000         -20.499900         -557.83066
   1880       2.00000         -20.499900         -557.83066
   1881       2.00000         -20.499900         -557.83066
   1882       2.00000         -20.499899         -557.83064
   1883       2.00000         -20.499899         -557.83064
   1884       2.00000         -20.499899         -557.83063
   1885       2.00000         -20.499899         -557.83063
   1886       2.00000         -20.499899         -557.83063
   1887       2.00000         -20.499899         -557.83063
   1888       2.00000         -20.499899         -557.83063
   1889       2.00000         -20.499899         -557.83063
   1890       2.00000         -20.499897         -557.83058
   1891       2.00000         -20.499897         -557.83058
   1892       2.00000         -20.499897         -557.83058
   1893       2.00000         -20.499897         -557.83058
   1894       2.00000         -20.499897         -557.83057
   1895       2.00000         -20.499897         -557.83057
   1896       2.00000         -20.499896         -557.83055
   1897       2.00000         -20.499896         -557.83055
   1898       2.00000         -20.499895         -557.83053
   1899       2.00000         -20.499895         -557.83053
   1900       2.00000         -20.499895         -557.83052
   1901       2.00000         -20.499895         -557.83052
   1902       2.00000         -20.499891         -557.83042
   1903       2.00000         -20.499891         -557.83042
   1904       2.00000         -20.499888         -557.83034
   1905       2.00000         -20.499888         -557.83034
   1906       2.00000         -20.499887         -557.83031
   1907       2.00000         -20.499887         -557.83031
   1908       2.00000         -20.499886         -557.83027
   1909       2.00000         -20.499886         -557.83027
   1910       2.00000         -20.499884         -557.83023
   1911       2.00000         -20.499884         -557.83023
   1912       2.00000         -20.499883         -557.83019
   1913       2.00000         -20.499883         -557.83019
   1914       2.00000         -20.499879         -557.83008
   1915       2.00000         -20.499879         -557.83008
   1916       2.00000         -20.499877         -557.83004
   1917       2.00000         -20.499877         -557.83004
   1918       2.00000         -20.499875         -557.82997
   1919       2.00000         -20.499875         -557.82997
   1920       2.00000         -20.499873         -557.82994
   1921       2.00000         -20.499873         -557.82994
   1922       2.00000         -20.499872         -557.82990
   1923       2.00000         -20.499872         -557.82990
   1924       2.00000         -20.499870         -557.82984
   1925       2.00000         -20.499870         -557.82984
   1926       2.00000         -20.498546         -557.79382
   1927       2.00000         -20.498546         -557.79382
   1928       2.00000         -20.498545         -557.79378
   1929       2.00000         -20.498544         -557.79378
   1930       2.00000         -20.498529         -557.79335
   1931       2.00000         -20.498529         -557.79335
   1932       2.00000         -20.498529         -557.79334
   1933       2.00000         -20.498529         -557.79334
   1934       2.00000         -20.498493         -557.79237
   1935       2.00000         -20.498493         -557.79237
   1936       2.00000         -20.498470         -557.79176
   1937       2.00000         -20.498470         -557.79176
   1938       2.00000         -20.498454         -557.79131
   1939       2.00000         -20.498452         -557.79126
   1940       2.00000         -20.498426         -557.79055
   1941       2.00000         -20.498308         -557.78734
   1942       2.00000         -20.498308         -557.78734
   1943       2.00000         -20.498306         -557.78729
   1944       2.00000         -20.498306         -557.78729
   1945       2.00000         -20.498290         -557.78685
   1946       2.00000         -20.498290         -557.78685
   1947       2.00000         -20.498288         -557.78679
   1948       2.00000         -20.498288         -557.78679
   1949       2.00000         -20.498245         -557.78562
   1950       2.00000         -20.498245         -557.78562
   1951       2.00000         -20.498241         -557.78553
   1952       2.00000         -20.498241         -557.78553
   1953       2.00000         -20.498240         -557.78549
   1954       2.00000         -20.498240         -557.78549
   1955       2.00000         -20.498231         -557.78526
   1956       2.00000         -20.498231         -557.78526
   1957       2.00000         -20.498214         -557.78479
   1958       2.00000         -20.498214         -557.78479
   1959       2.00000         -20.498209         -557.78464
   1960       2.00000         -20.498209         -557.78463
   1961       2.00000         -20.498204         -557.78451
   1962       2.00000         -20.498204         -557.78451
   1963       2.00000         -20.498201         -557.78444
   1964       2.00000         -20.498201         -557.78444
   1965       2.00000         -20.498198         -557.78435
   1966       2.00000         -20.498198         -557.78435
   1967       2.00000         -20.498196         -557.78430
   1968       2.00000         -20.498196         -557.78430
   1969       2.00000         -20.498195         -557.78428
   1970       2.00000         -20.498195         -557.78428
   1971       2.00000         -20.498194         -557.78425
   1972       2.00000         -20.498194         -557.78425
   1973       2.00000         -20.498192         -557.78419
   1974       2.00000         -20.498192         -557.78419
   1975       2.00000         -20.498190         -557.78412
   1976       2.00000         -20.498190         -557.78412
   1977       2.00000         -20.498186         -557.78403
   1978       2.00000         -20.498186         -557.78403
   1979       2.00000         -20.498181         -557.78387
   1980       2.00000         -20.498181         -557.78387
   1981       2.00000         -20.498176         -557.78375
   1982       2.00000         -20.498176         -557.78375
   1983       2.00000         -20.498176         -557.78375
   1984       2.00000         -20.498176         -557.78375
   1985       2.00000         -20.498174         -557.78369
   1986       2.00000         -20.498174         -557.78369
   1987       2.00000         -20.498173         -557.78368
   1988       2.00000         -20.498173         -557.78367
   1989       2.00000         -20.498171         -557.78361
   1990       2.00000         -20.498171         -557.78361
   1991       2.00000         -20.498164         -557.78341
   1992       2.00000         -20.498164         -557.78341
   1993       2.00000         -20.498160         -557.78332
   1994       2.00000         -20.498160         -557.78332
   1995       2.00000         -20.498158         -557.78326
   1996       2.00000         -20.498158         -557.78326
   1997       2.00000         -20.498154         -557.78315
   1998       2.00000         -20.498154         -557.78315
   1999       2.00000         -20.498154         -557.78315
   2000       2.00000         -20.498154         -557.78315
   2001       2.00000         -20.498153         -557.78313
   2002       2.00000         -20.498153         -557.78313
   2003       2.00000         -20.498151         -557.78306
   2004       2.00000         -20.498151         -557.78306
   2005       2.00000         -20.498132         -557.78256
   2006       2.00000         -20.498132         -557.78256
   2007       2.00000         -20.498131         -557.78252
   2008       2.00000         -20.498131         -557.78252
   2009       2.00000         -20.498129         -557.78247
   2010       2.00000         -20.498129         -557.78247
   2011       2.00000         -20.498124         -557.78234
   2012       2.00000         -20.498124         -557.78234
   2013       2.00000         -20.498124         -557.78232
   2014       2.00000         -20.498124         -557.78232
   2015       2.00000         -20.498123         -557.78231
   2016       2.00000         -20.498123         -557.78231
   2017       2.00000         -20.498123         -557.78230
   2018       2.00000         -20.498123         -557.78230
   2019       2.00000         -20.498121         -557.78226
   2020       2.00000         -20.498121         -557.78226
   2021       2.00000         -20.498121         -557.78226
   2022       2.00000         -20.498121         -557.78225
   2023       2.00000         -20.498121         -557.78225
   2024       2.00000         -20.498119         -557.78221
   2025       2.00000         -20.498119         -557.78221
   2026       2.00000         -20.498118         -557.78217
   2027       2.00000         -20.498118         -557.78217
   2028       2.00000         -20.498118         -557.78217
   2029       2.00000         -20.498114         -557.78207
   2030       2.00000         -20.498114         -557.78207
   2031       2.00000         -20.498114         -557.78207
   2032       2.00000         -20.498114         -557.78207
   2033       2.00000         -20.498114         -557.78205
   2034       2.00000         -20.498114         -557.78205
   2035       2.00000         -20.498113         -557.78203
   2036       2.00000         -20.498113         -557.78203
   2037       2.00000         -20.498113         -557.78203
   2038       2.00000         -20.498113         -557.78203
   2039       2.00000         -20.498113         -557.78203
   2040       2.00000         -20.498113         -557.78203
   2041       2.00000         -20.498109         -557.78192
   2042       2.00000         -20.498109         -557.78192
   2043       2.00000         -20.498108         -557.78189
   2044       2.00000         -20.498108         -557.78189
   2045       2.00000         -20.498106         -557.78183
   2046       2.00000         -20.498106         -557.78183
   2047       2.00000         -20.498105         -557.78181
   2048       2.00000         -20.498105         -557.78181
   2049       2.00000         -20.498105         -557.78181
   2050       2.00000         -20.498105         -557.78181
   2051       2.00000         -20.498105         -557.78181
   2052       2.00000         -20.498105         -557.78181
   2053       2.00000         -20.498104         -557.78180
   2054       2.00000         -20.498104         -557.78180
   2055       2.00000         -20.498104         -557.78179
   2056       2.00000         -20.498104         -557.78179
   2057       2.00000         -20.498103         -557.78177
   2058       2.00000         -20.498103         -557.78177
   2059       2.00000         -20.498103         -557.78175
   2060       2.00000         -20.498103         -557.78175
   2061       2.00000         -20.498102         -557.78174
   2062       2.00000         -20.498102         -557.78174
   2063       2.00000         -20.498101         -557.78170
   2064       2.00000         -20.498101         -557.78170
   2065       2.00000         -20.498100         -557.78167
   2066       2.00000         -20.498100         -557.78167
   2067       2.00000         -20.498099         -557.78164
   2068       2.00000         -20.498099         -557.78164
   2069       2.00000         -20.498096         -557.78158
   2070       2.00000         -20.498096         -557.78156
   2071       2.00000         -20.498094         -557.78153
   2072       2.00000         -20.498094         -557.78153
   2073       2.00000         -20.498094         -557.78153
   2074       2.00000         -20.498094         -557.78153
   2075       2.00000         -20.498094         -557.78152
   2076       2.00000         -20.498094         -557.78152
   2077       2.00000         -20.498093         -557.78150
   2078       2.00000         -20.498093         -557.78150
   2079       2.00000         -20.498092         -557.78147
   2080       2.00000         -20.498092         -557.78146
   2081       2.00000         -20.498085         -557.78126
   2082       2.00000         -20.498085         -557.78126
   2083       2.00000         -20.498082         -557.78119
   2084       2.00000         -20.498082         -557.78119
   2085       2.00000         -20.498061         -557.78061
   2086       2.00000         -20.498061         -557.78061
   2087       2.00000         -20.498055         -557.78046
   2088       2.00000         -20.498055         -557.78046
   2089       2.00000         -20.498054         -557.78043
   2090       2.00000         -20.498054         -557.78043
   2091       2.00000         -20.498050         -557.78032
   2092       2.00000         -20.498050         -557.78032
   2093       2.00000         -20.498048         -557.78028
   2094       2.00000         -20.498047         -557.78024
   2095       2.00000         -20.498047         -557.78024
   2096       2.00000         -20.498047         -557.78023
   2097       2.00000         -20.498047         -557.78023
   2098       2.00000         -20.498045         -557.78019
   2099       2.00000         -20.498045         -557.78019
   2100       2.00000         -20.498041         -557.78007
   2101       2.00000         -20.498041         -557.78007
   2102       2.00000         -20.498038         -557.77998
   2103       2.00000         -20.498038         -557.77998
   2104       2.00000         -20.498037         -557.77997
   2105       2.00000         -20.498037         -557.77997
   2106       2.00000         -20.498037         -557.77997
   2107       2.00000         -20.498037         -557.77997
   2108       2.00000         -20.498035         -557.77990
   2109       2.00000         -20.498035         -557.77990
   2110       2.00000         -20.498032         -557.77984
   2111       2.00000         -20.498032         -557.77984
   2112       2.00000         -20.498027         -557.77971
   2113       2.00000         -20.498027         -557.77971
   2114       2.00000         -20.498027         -557.77969
   2115       2.00000         -20.498027         -557.77969
   2116       2.00000         -20.498026         -557.77968
   2117       2.00000         -20.498024         -557.77961
   2118       2.00000         -20.497407         -557.76281
   2119       2.00000         -20.497407         -557.76281
   2120       2.00000         -20.497407         -557.76281
   2121       2.00000         -20.497407         -557.76281
   2122       2.00000         -20.497407         -557.76281
   2123       2.00000         -20.497407         -557.76281
   2124       2.00000         -20.497407         -557.76281
   2125       2.00000         -20.497407         -557.76281
   2126       2.00000         -20.497407         -557.76281
   2127       2.00000         -20.497407         -557.76281
   2128       2.00000         -20.497407         -557.76281
   2129       2.00000         -20.497407         -557.76281
   2130       2.00000         -20.497407         -557.76281
   2131       2.00000         -20.497407         -557.76281
   2132       2.00000         -20.497407         -557.76281
   2133       2.00000         -20.497407         -557.76281
   2134       2.00000         -20.497407         -557.76281
   2135       2.00000         -20.497407         -557.76281
   2136       2.00000         -20.497407         -557.76281
   2137       2.00000         -20.497407         -557.76281
   2138       2.00000         -20.497407         -557.76281
   2139       2.00000         -20.497407         -557.76281
   2140       2.00000         -20.497407         -557.76281
   2141       2.00000         -20.497407         -557.76281
   2142       2.00000         -20.497407         -557.76281
   2143       2.00000         -20.497407         -557.76281
   2144       2.00000         -20.497407         -557.76281
   2145       2.00000         -20.497407         -557.76281
   2146       2.00000         -20.497407         -557.76281
   2147       2.00000         -20.497407         -557.76281
   2148       2.00000         -20.497407         -557.76281
   2149       2.00000         -20.497407         -557.76281
   2150       2.00000         -20.497407         -557.76281
   2151       2.00000         -20.497407         -557.76281
   2152       2.00000         -20.497407         -557.76281
   2153       2.00000         -20.497407         -557.76281
   2154       2.00000         -20.497407         -557.76281
   2155       2.00000         -20.497407         -557.76281
   2156       2.00000         -20.497407         -557.76281
   2157       2.00000         -20.497407         -557.76281
   2158       2.00000         -20.497407         -557.76281
   2159       2.00000         -20.497407         -557.76281
   2160       2.00000         -20.497407         -557.76281
   2161       2.00000         -20.497407         -557.76281
   2162       2.00000         -20.497407         -557.76281
   2163       2.00000         -20.497407         -557.76281
   2164       2.00000         -20.497407         -557.76281
   2165       2.00000         -20.497407         -557.76281
   2166       2.00000         -20.497407         -557.76281
   2167       2.00000         -20.497407         -557.76281
   2168       2.00000         -20.497407         -557.76281
   2169       2.00000         -20.497407         -557.76281
   2170       2.00000         -20.497407         -557.76281
   2171       2.00000         -20.497407         -557.76281
   2172       2.00000         -20.497407         -557.76281
   2173       2.00000         -20.497407         -557.76281
   2174       2.00000         -20.497407         -557.76281
   2175       2.00000         -20.497407         -557.76281
   2176       2.00000         -20.497407         -557.76281
   2177       2.00000         -20.497407         -557.76281
   2178       2.00000         -20.497407         -557.76281
   2179       2.00000         -20.497407         -557.76281
   2180       2.00000         -20.497407         -557.76281
   2181       2.00000         -20.497407         -557.76281
   2182       2.00000         -20.497407         -557.76281
   2183       2.00000         -20.497407         -557.76281
   2184       2.00000         -20.497407         -557.76281
   2185       2.00000         -20.497407         -557.76281
   2186       2.00000         -20.497407         -557.76281
   2187       2.00000         -20.497407         -557.76281
   2188       2.00000         -20.497407         -557.76281
   2189       2.00000         -20.497407         -557.76281
   2190       2.00000         -20.497407         -557.76281
   2191       2.00000         -20.497407         -557.76281
   2192       2.00000         -20.497407         -557.76281
   2193       2.00000         -20.497407         -557.76281
   2194       2.00000         -20.497407         -557.76281
   2195       2.00000         -20.497407         -557.76281
   2196       2.00000         -20.497407         -557.76281
   2197       2.00000         -20.497407         -557.76281
   2198       2.00000         -20.497407         -557.76281
   2199       2.00000         -20.497407         -557.76281
   2200       2.00000         -20.497407         -557.76281
   2201       2.00000         -20.497407         -557.76281
   2202       2.00000         -20.497407         -557.76281
   2203       2.00000         -20.497407         -557.76281
   2204       2.00000         -20.497407         -557.76281
   2205       2.00000         -20.497407         -557.76281
   2206       2.00000         -20.497407         -557.76281
   2207       2.00000         -20.497407         -557.76281
   2208       2.00000         -20.497407         -557.76281
   2209       2.00000         -20.497407         -557.76281
   2210       2.00000         -20.497407         -557.76281
   2211       2.00000         -20.497407         -557.76281
   2212       2.00000         -20.497407         -557.76281
   2213       2.00000         -20.497407         -557.76281
   2214       2.00000         -20.497407         -557.76281
   2215       2.00000         -20.497407         -557.76281
   2216       2.00000         -20.497407         -557.76281
   2217       2.00000         -20.497407         -557.76281
   2218       2.00000         -20.497407         -557.76281
   2219       2.00000         -20.497407         -557.76281
   2220       2.00000         -20.497407         -557.76281
   2221       2.00000         -20.497407         -557.76281
   2222       2.00000         -20.497407         -557.76281
   2223       2.00000         -20.497407         -557.76281
   2224       2.00000         -20.497407         -557.76281
   2225       2.00000         -20.497407         -557.76281
   2226       2.00000         -20.497407         -557.76281
   2227       2.00000         -20.497407         -557.76281
   2228       2.00000         -20.497407         -557.76281
   2229       2.00000         -20.497407         -557.76281
   2230       2.00000         -20.497407         -557.76281
   2231       2.00000         -20.497407         -557.76281
   2232       2.00000         -20.497407         -557.76281
   2233       2.00000         -20.497407         -557.76281
   2234       2.00000         -20.497407         -557.76281
   2235       2.00000         -20.497407         -557.76281
   2236       2.00000         -20.497407         -557.76281
   2237       2.00000         -20.497407         -557.76281
   2238       2.00000         -20.497406         -557.76281
   2239       2.00000         -20.497406         -557.76281
   2240       2.00000         -20.497406         -557.76281
   2241       2.00000         -20.497406         -557.76281
   2242       2.00000         -20.497406         -557.76281
   2243       2.00000         -20.497406         -557.76281
   2244       2.00000         -20.497406         -557.76281
   2245       2.00000         -20.497406         -557.76281
   2246       2.00000         -20.497333         -557.76081
   2247       2.00000         -20.497333         -557.76081
   2248       2.00000         -20.497333         -557.76081
   2249       2.00000         -20.497333         -557.76081
   2250       2.00000         -20.497333         -557.76081
   2251       2.00000         -20.497333         -557.76081
   2252       2.00000         -20.497333         -557.76081
   2253       2.00000         -20.497333         -557.76081
   2254       2.00000         -20.497333         -557.76081
   2255       2.00000         -20.497333         -557.76081
   2256       2.00000         -20.497333         -557.76081
   2257       2.00000         -20.497333         -557.76081
   2258       2.00000         -20.497333         -557.76081
   2259       2.00000         -20.497333         -557.76081
   2260       2.00000         -20.497333         -557.76081
   2261       2.00000         -20.497333         -557.76081
   2262       2.00000         -20.497333         -557.76081
   2263       2.00000         -20.497333         -557.76081
   2264       2.00000         -20.497333         -557.76081
   2265       2.00000         -20.497333         -557.76081
   2266       2.00000         -20.497333         -557.76081
   2267       2.00000         -20.497333         -557.76081
   2268       2.00000         -20.497333         -557.76081
   2269       2.00000         -20.497333         -557.76081
   2270       2.00000         -20.497333         -557.76081
   2271       2.00000         -20.497333         -557.76081
   2272       2.00000         -20.497333         -557.76081
   2273       2.00000         -20.497333         -557.76081
   2274       2.00000         -20.497333         -557.76081
   2275       2.00000         -20.497333         -557.76081
   2276       2.00000         -20.497333         -557.76081
   2277       2.00000         -20.497333         -557.76081
   2278       2.00000         -20.497333         -557.76081
   2279       2.00000         -20.497333         -557.76081
   2280       2.00000         -20.497333         -557.76081
   2281       2.00000         -20.497333         -557.76081
   2282       2.00000         -20.497333         -557.76081
   2283       2.00000         -20.497333         -557.76081
   2284       2.00000         -20.497333         -557.76081
   2285       2.00000         -20.497333         -557.76081
   2286       2.00000         -20.497333         -557.76081
   2287       2.00000         -20.497333         -557.76081
   2288       2.00000         -20.497333         -557.76081
   2289       2.00000         -20.497333         -557.76081
   2290       2.00000         -20.497333         -557.76081
   2291       2.00000         -20.497333         -557.76081
   2292       2.00000         -20.497333         -557.76081
   2293       2.00000         -20.497333         -557.76081
   2294       2.00000         -20.497333         -557.76081
   2295       2.00000         -20.497333         -557.76081
   2296       2.00000         -20.497333         -557.76081
   2297       2.00000         -20.497333         -557.76081
   2298       2.00000         -20.497333         -557.76081
   2299       2.00000         -20.497333         -557.76081
   2300       2.00000         -20.497333         -557.76081
   2301       2.00000         -20.497333         -557.76081
   2302       2.00000         -20.497333         -557.76081
   2303       2.00000         -20.497333         -557.76081
   2304       2.00000         -20.497333         -557.76081
   2305       2.00000         -20.497333         -557.76081
   2306       2.00000         -20.497333         -557.76081
   2307       2.00000         -20.497333         -557.76081
   2308       2.00000         -20.497333         -557.76081
   2309       2.00000         -20.497333         -557.76081
   2310       2.00000         -14.241780         -387.53856
   2311       2.00000         -14.241780         -387.53856
   2312       2.00000         -14.241661         -387.53532
   2313       2.00000         -14.241661         -387.53531
   2314       2.00000         -14.240832         -387.51274
   2315       2.00000         -14.240831         -387.51273
   2316       2.00000         -14.239572         -387.47846
   2317       2.00000         -14.239571         -387.47844
   2318       2.00000         -13.184018         -358.75537
   2319       2.00000         -13.184018         -358.75537
   2320       2.00000         -13.184013         -358.75525
   2321       2.00000         -13.184013         -358.75525
   2322       2.00000         -13.184007         -358.75510
   2323       2.00000         -13.184007         -358.75510
   2324       2.00000         -13.184006         -358.75507
   2325       2.00000         -13.184006         -358.75507
   2326       2.00000         -13.184002         -358.75495
   2327       2.00000         -13.184002         -358.75495
   2328       2.00000         -13.183999         -358.75487
   2329       2.00000         -13.183999         -358.75487
   2330       2.00000         -13.183997         -358.75481
   2331       2.00000         -13.183997         -358.75481
   2332       2.00000         -13.183996         -358.75478
   2333       2.00000         -13.183996         -358.75478
   2334       2.00000         -13.183988         -358.75457
   2335       2.00000         -13.183988         -358.75457
   2336       2.00000         -13.183985         -358.75449
   2337       2.00000         -13.183985         -358.75449
   2338       2.00000         -13.183879         -358.75160
   2339       2.00000         -13.183879         -358.75160
   2340       2.00000         -13.183876         -358.75152
   2341       2.00000         -13.183876         -358.75152
   2342       2.00000         -13.183875         -358.75149
   2343       2.00000         -13.183875         -358.75149
   2344       2.00000         -13.183873         -358.75145
   2345       2.00000         -13.183873         -358.75145
   2346       2.00000         -13.183871         -358.75139
   2347       2.00000         -13.183871         -358.75139
   2348       2.00000         -13.183869         -358.75133
   2349       2.00000         -13.183869         -358.75133
   2350       2.00000         -13.183865         -358.75122
   2351       2.00000         -13.183865         -358.75122
   2352       2.00000         -13.183863         -358.75118
   2353       2.00000         -13.183863         -358.75118
   2354       2.00000         -13.183860         -358.75107
   2355       2.00000         -13.183860         -358.75107
   2356       2.00000         -13.183858         -358.75103
   2357       2.00000         -13.183858         -358.75103
   2358       2.00000         -13.183811         -358.74976
   2359       2.00000         -13.183811         -358.74976
   2360       2.00000         -13.183809         -358.74969
   2361       2.00000         -13.183809         -358.74969
   2362       2.00000         -13.183805         -358.74958
   2363       2.00000         -13.183805         -358.74958
   2364       2.00000         -13.183800         -358.74946
   2365       2.00000         -13.183800         -358.74946
   2366       2.00000         -13.183799         -358.74944
   2367       2.00000         -13.183799         -358.74944
   2368       2.00000         -13.183798         -358.74941
   2369       2.00000         -13.183798         -358.74941
   2370       2.00000         -13.183798         -358.74941
   2371       2.00000         -13.183798         -358.74941
   2372       2.00000         -13.183796         -358.74933
   2373       2.00000         -13.183796         -358.74933
   2374       2.00000         -13.183789         -358.74916
   2375       2.00000         -13.183789         -358.74916
   2376       2.00000         -13.183787         -358.74910
   2377       2.00000         -13.183787         -358.74910
   2378       2.00000         -13.183784         -358.74902
   2379       2.00000         -13.183784         -358.74902
   2380       2.00000         -13.183782         -358.74895
   2381       2.00000         -13.183782         -358.74895
   2382       2.00000         -13.183780         -358.74891
   2383       2.00000         -13.183780         -358.74891
   2384       2.00000         -13.183779         -358.74887
   2385       2.00000         -13.183779         -358.74887
   2386       2.00000         -13.183778         -358.74885
   2387       2.00000         -13.183778         -358.74885
   2388       2.00000         -13.183775         -358.74876
   2389       2.00000         -13.183775         -358.74876
   2390       2.00000         -13.183773         -358.74872
   2391       2.00000         -13.183773         -358.74872
   2392       2.00000         -13.183771         -358.74866
   2393       2.00000         -13.183771         -358.74866
   2394       2.00000         -13.183766         -358.74853
   2395       2.00000         -13.183766         -358.74853
   2396       2.00000         -13.183764         -358.74848
   2397       2.00000         -13.183764         -358.74848
   2398       2.00000         -13.183761         -358.74840
   2399       2.00000         -13.183761         -358.74840
   2400       2.00000         -13.183759         -358.74833
   2401       2.00000         -13.183759         -358.74833
   2402       2.00000         -13.183759         -358.74833
   2403       2.00000         -13.183759         -358.74833
   2404       2.00000         -13.183759         -358.74832
   2405       2.00000         -13.183759         -358.74832
   2406       2.00000         -13.183757         -358.74828
   2407       2.00000         -13.183757         -358.74828
   2408       2.00000         -13.183757         -358.74828
   2409       2.00000         -13.183757         -358.74828
   2410       2.00000         -13.183757         -358.74827
   2411       2.00000         -13.183757         -358.74827
   2412       2.00000         -13.183755         -358.74823
   2413       2.00000         -13.183755         -358.74823
   2414       2.00000         -13.183754         -358.74821
   2415       2.00000         -13.183754         -358.74821
   2416       2.00000         -13.183754         -358.74819
   2417       2.00000         -13.183754         -358.74819
   2418       2.00000         -13.183752         -358.74813
   2419       2.00000         -13.183752         -358.74813
   2420       2.00000         -13.183751         -358.74812
   2421       2.00000         -13.183751         -358.74812
   2422       2.00000         -13.183750         -358.74809
   2423       2.00000         -13.183750         -358.74809
   2424       2.00000         -13.183750         -358.74809
   2425       2.00000         -13.183750         -358.74809
   2426       2.00000         -13.183749         -358.74807
   2427       2.00000         -13.183749         -358.74807
   2428       2.00000         -13.183749         -358.74807
   2429       2.00000         -13.183749         -358.74807
   2430       2.00000         -13.183749         -358.74807
   2431       2.00000         -13.183749         -358.74807
   2432       2.00000         -13.183748         -358.74804
   2433       2.00000         -13.183748         -358.74804
   2434       2.00000         -13.183747         -358.74802
   2435       2.00000         -13.183747         -358.74802
   2436       2.00000         -13.183747         -358.74800
   2437       2.00000         -13.183747         -358.74800
   2438       2.00000         -13.183746         -358.74798
   2439       2.00000         -13.183746         -358.74798
   2440       2.00000         -13.183746         -358.74797
   2441       2.00000         -13.183746         -358.74797
   2442       2.00000         -13.183744         -358.74794
   2443       2.00000         -13.183744         -358.74794
   2444       2.00000         -13.183744         -358.74792
   2445       2.00000         -13.183744         -358.74792
   2446       2.00000         -13.183743         -358.74789
   2447       2.00000         -13.183743         -358.74789
   2448       2.00000         -13.183742         -358.74787
   2449       2.00000         -13.183742         -358.74787
   2450       2.00000         -13.183742         -358.74786
   2451       2.00000         -13.183742         -358.74786
   2452       2.00000         -13.183742         -358.74786
   2453       2.00000         -13.183742         -358.74786
   2454       2.00000         -13.183740         -358.74782
   2455       2.00000         -13.183740         -358.74782
   2456       2.00000         -13.183740         -358.74781
   2457       2.00000         -13.183740         -358.74781
   2458       2.00000         -13.183739         -358.74780
   2459       2.00000         -13.183739         -358.74780
   2460       2.00000         -13.183739         -358.74779
   2461       2.00000         -13.183739         -358.74779
   2462       2.00000         -13.183739         -358.74779
   2463       2.00000         -13.183739         -358.74779
   2464       2.00000         -13.183738         -358.74778
   2465       2.00000         -13.183738         -358.74778
   2466       2.00000         -13.183738         -358.74776
   2467       2.00000         -13.183738         -358.74776
   2468       2.00000         -13.183737         -358.74775
   2469       2.00000         -13.183737         -358.74775
   2470       2.00000         -13.183737         -358.74774
   2471       2.00000         -13.183737         -358.74774
   2472       2.00000         -13.183736         -358.74772
   2473       2.00000         -13.183736         -358.74772
   2474       2.00000         -13.183736         -358.74770
   2475       2.00000         -13.183736         -358.74770
   2476       2.00000         -13.183735         -358.74769
   2477       2.00000         -13.183735         -358.74769
   2478       2.00000         -13.183735         -358.74769
   2479       2.00000         -13.183735         -358.74769
   2480       2.00000         -13.183734         -358.74766
   2481       2.00000         -13.183734         -358.74766
   2482       2.00000         -13.183733         -358.74763
   2483       2.00000         -13.183733         -358.74763
   2484       2.00000         -13.183732         -358.74760
   2485       2.00000         -13.183732         -358.74760
   2486       2.00000         -13.183731         -358.74758
   2487       2.00000         -13.183731         -358.74758
   2488       2.00000         -13.183730         -358.74755
   2489       2.00000         -13.183730         -358.74755
   2490       2.00000         -13.183730         -358.74754
   2491       2.00000         -13.183730         -358.74754
   2492       2.00000         -13.183729         -358.74752
   2493       2.00000         -13.183729         -358.74752
   2494       2.00000         -13.183728         -358.74750
   2495       2.00000         -13.183728         -358.74750
   2496       2.00000         -13.183728         -358.74749
   2497       2.00000         -13.183728         -358.74749
   2498       2.00000         -13.183727         -358.74747
   2499       2.00000         -13.183727         -358.74747
   2500       2.00000         -13.183727         -358.74745
   2501       2.00000         -13.183727         -358.74745
   2502       2.00000         -13.183726         -358.74745
   2503       2.00000         -13.183726         -358.74745
   2504       2.00000         -13.183726         -358.74745
   2505       2.00000         -13.183726         -358.74745
   2506       2.00000         -13.183726         -358.74744
   2507       2.00000         -13.183726         -358.74744
   2508       2.00000         -13.183725         -358.74742
   2509       2.00000         -13.183725         -358.74742
   2510       2.00000         -13.183725         -358.74742
   2511       2.00000         -13.183725         -358.74742
   2512       2.00000         -13.183725         -358.74741
   2513       2.00000         -13.183725         -358.74741
   2514       2.00000         -13.183725         -358.74741
   2515       2.00000         -13.183725         -358.74741
   2516       2.00000         -13.183724         -358.74739
   2517       2.00000         -13.183724         -358.74739
   2518       2.00000         -13.183724         -358.74738
   2519       2.00000         -13.183724         -358.74738
   2520       2.00000         -13.183723         -358.74737
   2521       2.00000         -13.183723         -358.74737
   2522       2.00000         -13.183723         -358.74737
   2523       2.00000         -13.183723         -358.74737
   2524       2.00000         -13.183723         -358.74737
   2525       2.00000         -13.183723         -358.74737
   2526       2.00000         -13.183723         -358.74735
   2527       2.00000         -13.183723         -358.74735
   2528       2.00000         -13.183723         -358.74735
   2529       2.00000         -13.183723         -358.74735
   2530       2.00000         -13.183723         -358.74735
   2531       2.00000         -13.183723         -358.74735
   2532       2.00000         -13.183722         -358.74733
   2533       2.00000         -13.183722         -358.74733
   2534       2.00000         -13.183722         -358.74732
   2535       2.00000         -13.183722         -358.74732
   2536       2.00000         -13.183722         -358.74732
   2537       2.00000         -13.183722         -358.74732
   2538       2.00000         -13.183721         -358.74731
   2539       2.00000         -13.183721         -358.74731
   2540       2.00000         -13.183721         -358.74731
   2541       2.00000         -13.183721         -358.74731
   2542       2.00000         -13.183721         -358.74731
   2543       2.00000         -13.183721         -358.74731
   2544       2.00000         -13.183721         -358.74730
   2545       2.00000         -13.183721         -358.74730
   2546       2.00000         -13.183721         -358.74729
   2547       2.00000         -13.183721         -358.74729
   2548       2.00000         -13.183721         -358.74729
   2549       2.00000         -13.183721         -358.74729
   2550       2.00000         -13.183720         -358.74729
   2551       2.00000         -13.183720         -358.74729
   2552       2.00000         -13.183720         -358.74728
   2553       2.00000         -13.183720         -358.74728
   2554       2.00000         -13.183720         -358.74727
   2555       2.00000         -13.183720         -358.74727
   2556       2.00000         -13.183719         -358.74725
   2557       2.00000         -13.183719         -358.74725
   2558       2.00000         -13.183719         -358.74724
   2559       2.00000         -13.183719         -358.74724
   2560       2.00000         -13.183719         -358.74724
   2561       2.00000         -13.183719         -358.74724
   2562       2.00000         -13.183719         -358.74724
   2563       2.00000         -13.183719         -358.74724
   2564       2.00000         -13.183718         -358.74723
   2565       2.00000         -13.183718         -358.74723
   2566       2.00000         -13.183718         -358.74723
   2567       2.00000         -13.183718         -358.74723
   2568       2.00000         -13.183718         -358.74722
   2569       2.00000         -13.183718         -358.74722
   2570       2.00000         -13.183718         -358.74721
   2571       2.00000         -13.183718         -358.74721
   2572       2.00000         -13.183717         -358.74720
   2573       2.00000         -13.183717         -358.74720
   2574       2.00000         -13.183716         -358.74718
   2575       2.00000         -13.183716         -358.74718
   2576       2.00000         -13.183716         -358.74717
   2577       2.00000         -13.183716         -358.74717
   2578       2.00000         -13.183716         -358.74717
   2579       2.00000         -13.183716         -358.74717
   2580       2.00000         -13.183716         -358.74716
   2581       2.00000         -13.183716         -358.74716
   2582       2.00000         -13.183716         -358.74715
   2583       2.00000         -13.183716         -358.74715
   2584       2.00000         -13.183716         -358.74715
   2585       2.00000         -13.183716         -358.74715
   2586       2.00000         -13.183715         -358.74715
   2587       2.00000         -13.183715         -358.74715
   2588       2.00000         -13.183714         -358.74712
   2589       2.00000         -13.183714         -358.74712
   2590       2.00000         -13.183714         -358.74710
   2591       2.00000         -13.183714         -358.74710
   2592       2.00000         -13.183714         -358.74710
   2593       2.00000         -13.183714         -358.74710
   2594       2.00000         -13.183714         -358.74710
   2595       2.00000         -13.183714         -358.74710
   2596       2.00000         -13.183714         -358.74710
   2597       2.00000         -13.183714         -358.74710
   2598       2.00000         -13.183713         -358.74710
   2599       2.00000         -13.183713         -358.74710
   2600       2.00000         -13.183713         -358.74709
   2601       2.00000         -13.183713         -358.74709
   2602       2.00000         -13.183713         -358.74709
   2603       2.00000         -13.183713         -358.74709
   2604       2.00000         -13.183713         -358.74709
   2605       2.00000         -13.183713         -358.74709
   2606       2.00000         -13.183712         -358.74707
   2607       2.00000         -13.183712         -358.74707
   2608       2.00000         -13.183712         -358.74705
   2609       2.00000         -13.183712         -358.74705
   2610       2.00000         -13.183711         -358.74704
   2611       2.00000         -13.183711         -358.74704
   2612       2.00000         -13.183711         -358.74704
   2613       2.00000         -13.183711         -358.74704
   2614       2.00000         -13.183711         -358.74704
   2615       2.00000         -13.183711         -358.74704
   2616       2.00000         -13.183711         -358.74703
   2617       2.00000         -13.183711         -358.74703
   2618       2.00000         -13.183710         -358.74701
   2619       2.00000         -13.183710         -358.74701
   2620       2.00000         -13.183709         -358.74698
   2621       2.00000         -13.183709         -358.74698
   2622       2.00000         -13.183709         -358.74697
   2623       2.00000         -13.183709         -358.74697
   2624       2.00000         -13.183706         -358.74691
   2625       2.00000         -13.183706         -358.74690
   2626       2.00000         -13.183705         -358.74686
   2627       2.00000         -13.183705         -358.74686
   2628       2.00000         -13.183665         -358.74578
   2629       2.00000         -13.183665         -358.74578
   2630       2.00000         -13.183664         -358.74574
   2631       2.00000         -13.183664         -358.74574
   2632       2.00000         -13.183658         -358.74558
   2633       2.00000         -13.183658         -358.74558
   2634       2.00000         -13.183654         -358.74548
   2635       2.00000         -13.183654         -358.74548
   2636       2.00000         -13.183653         -358.74546
   2637       2.00000         -13.183653         -358.74545
   2638       2.00000         -13.183134         -358.73134
   2639       2.00000         -13.183134         -358.73133
   2640       2.00000         -13.183131         -358.73125
   2641       2.00000         -13.183130         -358.73123
   2642       2.00000         -13.183128         -358.73116
   2643       2.00000         -13.183058         -358.72927
   2644       2.00000         -13.183058         -358.72927
   2645       2.00000         -13.183057         -358.72924
   2646       2.00000         -13.183057         -358.72924
   2647       2.00000         -13.183057         -358.72923
   2648       2.00000         -13.183056         -358.72921
   2649       2.00000         -13.183054         -358.72914
   2650       2.00000         -13.183054         -358.72914
   2651       2.00000         -13.183054         -358.72914
   2652       2.00000         -13.183053         -358.72912
   2653       2.00000         -13.183052         -358.72910
   2654       2.00000         -13.183052         -358.72910
   2655       2.00000         -13.183051         -358.72907
   2656       2.00000         -13.183051         -358.72907
   2657       2.00000         -13.183051         -358.72906
   2658       2.00000         -13.183051         -358.72906
   2659       2.00000         -13.183051         -358.72906
   2660       2.00000         -13.183051         -358.72906
   2661       2.00000         -13.183050         -358.72905
   2662       2.00000         -13.183050         -358.72905
   2663       2.00000         -13.183050         -358.72904
   2664       2.00000         -13.183050         -358.72904
   2665       2.00000         -13.183050         -358.72904
   2666       2.00000         -13.183050         -358.72904
   2667       2.00000         -13.183050         -358.72904
   2668       2.00000         -13.183050         -358.72903
   2669       2.00000         -13.183050         -358.72903
   2670       2.00000         -13.183049         -358.72903
   2671       2.00000         -13.183049         -358.72903
   2672       2.00000         -13.183049         -358.72902
   2673       2.00000         -13.183049         -358.72902
   2674       2.00000         -13.183048         -358.72900
   2675       2.00000         -13.183048         -358.72900
   2676       2.00000         -13.183048         -358.72899
   2677       2.00000         -13.183048         -358.72899
   2678       2.00000         -13.183048         -358.72898
   2679       2.00000         -13.183048         -358.72898
   2680       2.00000         -13.183047         -358.72897
   2681       2.00000         -13.183047         -358.72897
   2682       2.00000         -13.183047         -358.72897
   2683       2.00000         -13.183047         -358.72897
   2684       2.00000         -13.183046         -358.72894
   2685       2.00000         -13.183046         -358.72894
   2686       2.00000         -13.183046         -358.72893
   2687       2.00000         -13.183046         -358.72893
   2688       2.00000         -13.183046         -358.72893
   2689       2.00000         -13.183046         -358.72893
   2690       2.00000         -13.183045         -358.72891
   2691       2.00000         -13.183045         -358.72891
   2692       2.00000         -13.183045         -358.72890
   2693       2.00000         -13.183045         -358.72890
   2694       2.00000         -13.183044         -358.72888
   2695       2.00000         -13.183044         -358.72888
   2696       2.00000         -13.183044         -358.72887
   2697       2.00000         -13.183044         -358.72887
   2698       2.00000         -13.183043         -358.72886
   2699       2.00000         -13.183043         -358.72886
   2700       2.00000         -13.183043         -358.72886
   2701       2.00000         -13.183043         -358.72885
   2702       2.00000         -13.183043         -358.72885
   2703       2.00000         -13.183043         -358.72885
   2704       2.00000         -13.183042         -358.72884
   2705       2.00000         -13.183042         -358.72884
   2706       2.00000         -13.183042         -358.72884
   2707       2.00000         -13.183042         -358.72884
   2708       2.00000         -13.183042         -358.72883
   2709       2.00000         -13.183042         -358.72883
   2710       2.00000         -13.183042         -358.72883
   2711       2.00000         -13.183042         -358.72883
   2712       2.00000         -13.183041         -358.72881
   2713       2.00000         -13.183041         -358.72881
   2714       2.00000         -13.183041         -358.72880
   2715       2.00000         -13.183041         -358.72880
   2716       2.00000         -13.183040         -358.72878
   2717       2.00000         -13.183040         -358.72876
   2718       2.00000         -13.183040         -358.72876
   2719       2.00000         -13.183039         -358.72875
   2720       2.00000         -13.183039         -358.72875
   2721       2.00000         -13.183039         -358.72875
   2722       2.00000         -13.183039         -358.72874
   2723       2.00000         -13.183039         -358.72874
   2724       2.00000         -13.183039         -358.72874
   2725       2.00000         -13.183039         -358.72874
   2726       2.00000         -13.183038         -358.72871
   2727       2.00000         -13.183038         -358.72871
   2728       2.00000         -13.183038         -358.72871
   2729       2.00000         -13.183038         -358.72871
   2730       2.00000         -13.183037         -358.72870
   2731       2.00000         -13.183037         -358.72870
   2732       2.00000         -13.183037         -358.72868
   2733       2.00000         -13.183037         -358.72868
   2734       2.00000         -13.183037         -358.72868
   2735       2.00000         -13.183036         -358.72866
   2736       2.00000         -13.183036         -358.72866
   2737       2.00000         -13.183035         -358.72863
   2738       2.00000         -13.183035         -358.72863
   2739       2.00000         -13.183035         -358.72862
   2740       2.00000         -13.183035         -358.72862
   2741       2.00000         -13.183034         -358.72861
   2742       2.00000         -13.183034         -358.72861
   2743       2.00000         -13.183034         -358.72861
   2744       2.00000         -13.183034         -358.72861
   2745       2.00000         -13.183034         -358.72860
   2746       2.00000         -13.183034         -358.72860
   2747       2.00000         -13.183034         -358.72860
   2748       2.00000         -13.183034         -358.72860
   2749       2.00000         -13.183034         -358.72860
   2750       2.00000         -13.183034         -358.72860
   2751       2.00000         -13.183033         -358.72857
   2752       2.00000         -13.183033         -358.72857
   2753       2.00000         -13.183032         -358.72856
   2754       2.00000         -13.183032         -358.72856
   2755       2.00000         -13.183031         -358.72853
   2756       2.00000         -13.183031         -358.72853
   2757       2.00000         -13.183031         -358.72852
   2758       2.00000         -13.183031         -358.72852
   2759       2.00000         -13.183031         -358.72852
   2760       2.00000         -13.183031         -358.72852
   2761       2.00000         -13.183031         -358.72851
   2762       2.00000         -13.183031         -358.72851
   2763       2.00000         -13.183030         -358.72850
   2764       2.00000         -13.183030         -358.72850
   2765       2.00000         -13.183030         -358.72849
   2766       2.00000         -13.183030         -358.72849
   2767       2.00000         -13.183030         -358.72849
   2768       2.00000         -13.183030         -358.72849
   2769       2.00000         -13.183029         -358.72846
   2770       2.00000         -13.183029         -358.72846
   2771       2.00000         -13.183029         -358.72846
   2772       2.00000         -13.183029         -358.72846
   2773       2.00000         -13.183029         -358.72846
   2774       2.00000         -13.183029         -358.72846
   2775       2.00000         -13.183028         -358.72844
   2776       2.00000         -13.183028         -358.72844
   2777       2.00000         -13.183027         -358.72842
   2778       2.00000         -13.183027         -358.72842
   2779       2.00000         -13.183027         -358.72842
   2780       2.00000         -13.183027         -358.72842
   2781       2.00000         -13.183026         -358.72840
   2782       2.00000         -13.183026         -358.72840
   2783       2.00000         -13.183026         -358.72839
   2784       2.00000         -13.183026         -358.72839
   2785       2.00000         -13.183026         -358.72838
   2786       2.00000         -13.183026         -358.72838
   2787       2.00000         -13.183026         -358.72838
   2788       2.00000         -13.183026         -358.72838
   2789       2.00000         -13.183026         -358.72838
   2790       2.00000         -13.183026         -358.72838
   2791       2.00000         -13.183025         -358.72837
   2792       2.00000         -13.183025         -358.72837
   2793       2.00000         -13.183025         -358.72837
   2794       2.00000         -13.183025         -358.72837
   2795       2.00000         -13.183025         -358.72836
   2796       2.00000         -13.183025         -358.72836
   2797       2.00000         -13.183025         -358.72836
   2798       2.00000         -13.183025         -358.72836
   2799       2.00000         -13.183025         -358.72836
   2800       2.00000         -13.183025         -358.72836
   2801       2.00000         -13.183025         -358.72835
   2802       2.00000         -13.183025         -358.72835
   2803       2.00000         -13.183024         -358.72834
   2804       2.00000         -13.183024         -358.72834
   2805       2.00000         -13.183024         -358.72833
   2806       2.00000         -13.183024         -358.72833
   2807       2.00000         -13.183024         -358.72833
   2808       2.00000         -13.183024         -358.72833
   2809       2.00000         -13.183024         -358.72833
   2810       2.00000         -13.183024         -358.72833
   2811       2.00000         -13.183023         -358.72832
   2812       2.00000         -13.183023         -358.72832
   2813       2.00000         -13.183023         -358.72831
   2814       2.00000         -13.183023         -358.72831
   2815       2.00000         -13.183023         -358.72831
   2816       2.00000         -13.183023         -358.72831
   2817       2.00000         -13.183023         -358.72831
   2818       2.00000         -13.183022         -358.72829
   2819       2.00000         -13.183022         -358.72829
   2820       2.00000         -13.183022         -358.72829
   2821       2.00000         -13.183022         -358.72828
   2822       2.00000         -13.183022         -358.72828
   2823       2.00000         -13.183022         -358.72828
   2824       2.00000         -13.183022         -358.72828
   2825       2.00000         -13.183022         -358.72828
   2826       2.00000         -13.183022         -358.72828
   2827       2.00000         -13.183022         -358.72828
   2828       2.00000         -13.183022         -358.72828
   2829       2.00000         -13.183022         -358.72827
   2830       2.00000         -13.183022         -358.72827
   2831       2.00000         -13.183022         -358.72827
   2832       2.00000         -13.183022         -358.72827
   2833       2.00000         -13.183021         -358.72826
   2834       2.00000         -13.183021         -358.72826
   2835       2.00000         -13.183021         -358.72826
   2836       2.00000         -13.183021         -358.72826
   2837       2.00000         -13.183021         -358.72826
   2838       2.00000         -13.183021         -358.72826
   2839       2.00000         -13.183021         -358.72825
   2840       2.00000         -13.183021         -358.72825
   2841       2.00000         -13.183021         -358.72825
   2842       2.00000         -13.183021         -358.72825
   2843       2.00000         -13.183021         -358.72825
   2844       2.00000         -13.183021         -358.72825
   2845       2.00000         -13.183021         -358.72825
   2846       2.00000         -13.183021         -358.72825
   2847       2.00000         -13.183021         -358.72824
   2848       2.00000         -13.183021         -358.72824
   2849       2.00000         -13.183021         -358.72824
   2850       2.00000         -13.183021         -358.72824
   2851       2.00000         -13.183020         -358.72823
   2852       2.00000         -13.183020         -358.72823
   2853       2.00000         -13.183020         -358.72822
   2854       2.00000         -13.183020         -358.72822
   2855       2.00000         -13.183019         -358.72821
   2856       2.00000         -13.183019         -358.72820
   2857       2.00000         -13.183019         -358.72820
   2858       2.00000         -13.183019         -358.72819
   2859       2.00000         -13.183019         -358.72819
   2860       2.00000         -13.183019         -358.72819
   2861       2.00000         -13.183019         -358.72819
   2862       2.00000         -13.183019         -358.72819
   2863       2.00000         -13.183019         -358.72819
   2864       2.00000         -13.183019         -358.72819
   2865       2.00000         -13.183019         -358.72819
   2866       2.00000         -13.183019         -358.72819
   2867       2.00000         -13.183019         -358.72819
   2868       2.00000         -13.183019         -358.72819
   2869       2.00000         -13.183019         -358.72819
   2870       2.00000         -13.183018         -358.72818
   2871       2.00000         -13.183018         -358.72818
   2872       2.00000         -13.183018         -358.72818
   2873       2.00000         -13.183018         -358.72818
   2874       2.00000         -13.183018         -358.72817
   2875       2.00000         -13.183018         -358.72817
   2876       2.00000         -13.183018         -358.72817
   2877       2.00000         -13.183018         -358.72817
   2878       2.00000         -13.183018         -358.72817
   2879       2.00000         -13.183018         -358.72817
   2880       2.00000         -13.183018         -358.72817
   2881       2.00000         -13.183018         -358.72817
   2882       2.00000         -13.183017         -358.72816
   2883       2.00000         -13.183017         -358.72816
   2884       2.00000         -13.183017         -358.72816
   2885       2.00000         -13.183017         -358.72816
   2886       2.00000         -13.183017         -358.72815
   2887       2.00000         -13.183017         -358.72815
   2888       2.00000         -13.183017         -358.72814
   2889       2.00000         -13.183017         -358.72814
   2890       2.00000         -13.183017         -358.72814
   2891       2.00000         -13.183017         -358.72814
   2892       2.00000         -13.183016         -358.72812
   2893       2.00000         -13.183016         -358.72812
   2894       2.00000         -13.183016         -358.72811
   2895       2.00000         -13.183016         -358.72811
   2896       2.00000         -13.183015         -358.72810
   2897       2.00000         -13.183015         -358.72810
   2898       2.00000         -13.183015         -358.72810
   2899       2.00000         -13.183015         -358.72810
   2900       2.00000         -13.183015         -358.72809
   2901       2.00000         -13.183015         -358.72809
   2902       2.00000         -13.183015         -358.72809
   2903       2.00000         -13.183015         -358.72809
   2904       2.00000         -13.183015         -358.72808
   2905       2.00000         -13.183015         -358.72808
   2906       2.00000         -13.183014         -358.72807
   2907       2.00000         -13.183014         -358.72807
   2908       2.00000         -13.183014         -358.72807
   2909       2.00000         -13.183014         -358.72807
   2910       2.00000         -13.183014         -358.72806
   2911       2.00000         -13.183014         -358.72806
   2912       2.00000         -13.183012         -358.72802
   2913       2.00000         -13.183012         -358.72802
   2914       2.00000         -13.183011         -358.72799
   2915       2.00000         -13.183011         -358.72799
   2916       2.00000         -13.183011         -358.72798
   2917       2.00000         -13.183011         -358.72798
   2918       2.00000         -13.183009         -358.72792
   2919       2.00000         -13.183009         -358.72792
   2920       2.00000         -13.183008         -358.72790
   2921       2.00000         -13.183008         -358.72790
   2922       2.00000         -13.183006         -358.72785
   2923       2.00000         -13.183006         -358.72785
   2924       2.00000         -13.183005         -358.72782
   2925       2.00000         -13.183005         -358.72782
   2926       2.00000         -13.183005         -358.72782
   2927       2.00000         -13.183005         -358.72782
   2928       2.00000         -13.183004         -358.72780
   2929       2.00000         -13.183004         -358.72780
   2930       2.00000         -13.183002         -358.72775
   2931       2.00000         -13.183002         -358.72775
   2932       2.00000         -13.183002         -358.72773
   2933       2.00000         -13.183002         -358.72773
   2934       2.00000         -13.183002         -358.72773
   2935       2.00000         -13.183002         -358.72773
   2936       2.00000         -13.182999         -358.72765
   2937       2.00000         -13.182999         -358.72765
   2938       2.00000         -13.182997         -358.72759
   2939       2.00000         -13.182997         -358.72759
   2940       2.00000         -13.182995         -358.72755
   2941       2.00000         -13.182995         -358.72755
   2942       2.00000         -13.182995         -358.72755
   2943       2.00000         -13.182995         -358.72755
   2944       2.00000         -13.182994         -358.72751
   2945       2.00000         -13.182994         -358.72751
   2946       2.00000         -13.182992         -358.72748
   2947       2.00000         -13.182992         -358.72748
   2948       2.00000         -13.182992         -358.72745
   2949       2.00000         -13.182992         -358.72745
   2950       2.00000         -13.182991         -358.72742
   2951       2.00000         -13.182991         -358.72742
   2952       2.00000         -13.182990         -358.72740
   2953       2.00000         -13.182990         -358.72740
   2954       2.00000         -13.182989         -358.72738
   2955       2.00000         -13.182989         -358.72738
   2956       2.00000         -13.182987         -358.72733
   2957       2.00000         -13.182987         -358.72733
   2958       2.00000         -13.181684         -358.69186
   2959       2.00000         -13.181684         -358.69186
   2960       2.00000         -13.181680         -358.69175
   2961       2.00000         -13.181680         -358.69175
   2962       2.00000         -13.181668         -358.69144
   2963       2.00000         -13.181668         -358.69143
   2964       2.00000         -13.181664         -358.69133
   2965       2.00000         -13.181664         -358.69133
   2966       2.00000         -13.181649         -358.69091
   2967       2.00000         -13.181649         -358.69091
   2968       2.00000         -13.181648         -358.69088
   2969       2.00000         -13.181648         -358.69088
   2970       2.00000         -13.181636         -358.69056
   2971       2.00000         -13.181636         -358.69055
   2972       2.00000         -13.181629         -358.69037
   2973       2.00000         -13.181629         -358.69037
   2974       2.00000         -13.181629         -358.69037
   2975       2.00000         -13.181629         -358.69036
   2976       2.00000         -13.181615         -358.68999
   2977       2.00000         -13.181615         -358.68999
   2978       2.00000         -13.181589         -358.68930
   2979       2.00000         -13.181585         -358.68916
   2980       2.00000         -13.181570         -358.68876
   2981       2.00000         -13.181569         -358.68873
   2982       2.00000         -13.181564         -358.68861
   2983       2.00000         -13.181448         -358.68545
   2984       2.00000         -13.181448         -358.68545
   2985       2.00000         -13.181444         -358.68534
   2986       2.00000         -13.181444         -358.68534
   2987       2.00000         -13.181430         -358.68495
   2988       2.00000         -13.181430         -358.68495
   2989       2.00000         -13.181425         -358.68484
   2990       2.00000         -13.181425         -358.68484
   2991       2.00000         -13.181407         -358.68433
   2992       2.00000         -13.181407         -358.68433
   2993       2.00000         -13.181406         -358.68430
   2994       2.00000         -13.181406         -358.68430
   2995       2.00000         -13.181392         -358.68392
   2996       2.00000         -13.181392         -358.68392
   2997       2.00000         -13.181391         -358.68391
   2998       2.00000         -13.181391         -358.68391
   2999       2.00000         -13.181390         -358.68388
   3000       2.00000         -13.181390         -358.68388
   3001       2.00000         -13.181383         -358.68369
   3002       2.00000         -13.181383         -358.68369
   3003       2.00000         -13.181379         -358.68357
   3004       2.00000         -13.181379         -358.68357
   3005       2.00000         -13.181377         -358.68352
   3006       2.00000         -13.181377         -358.68352
   3007       2.00000         -13.181348         -358.68273
   3008       2.00000         -13.181348         -358.68273
   3009       2.00000         -13.181344         -358.68263
   3010       2.00000         -13.181344         -358.68263
   3011       2.00000         -13.181340         -358.68252
   3012       2.00000         -13.181340         -358.68252
   3013       2.00000         -13.181340         -358.68250
   3014       2.00000         -13.181340         -358.68250
   3015       2.00000         -13.181338         -358.68247
   3016       2.00000         -13.181338         -358.68247
   3017       2.00000         -13.181338         -358.68244
   3018       2.00000         -13.181337         -358.68244
   3019       2.00000         -13.181336         -358.68241
   3020       2.00000         -13.181336         -358.68241
   3021       2.00000         -13.181336         -358.68241
   3022       2.00000         -13.181336         -358.68240
   3023       2.00000         -13.181336         -358.68240
   3024       2.00000         -13.181336         -358.68240
   3025       2.00000         -13.181334         -358.68234
   3026       2.00000         -13.181334         -358.68234
   3027       2.00000         -13.181332         -358.68228
   3028       2.00000         -13.181332         -358.68228
   3029       2.00000         -13.181331         -358.68227
   3030       2.00000         -13.181331         -358.68227
   3031       2.00000         -13.181330         -358.68223
   3032       2.00000         -13.181330         -358.68223
   3033       2.00000         -13.181329         -358.68222
   3034       2.00000         -13.181329         -358.68222
   3035       2.00000         -13.181327         -358.68215
   3036       2.00000         -13.181327         -358.68215
   3037       2.00000         -13.181325         -358.68210
   3038       2.00000         -13.181325         -358.68210
   3039       2.00000         -13.181323         -358.68204
   3040       2.00000         -13.181323         -358.68204
   3041       2.00000         -13.181322         -358.68202
   3042       2.00000         -13.181322         -358.68202
   3043       2.00000         -13.181319         -358.68193
   3044       2.00000         -13.181319         -358.68193
   3045       2.00000         -13.181318         -358.68192
   3046       2.00000         -13.181318         -358.68192
   3047       2.00000         -13.181317         -358.68190
   3048       2.00000         -13.181317         -358.68190
   3049       2.00000         -13.181314         -358.68181
   3050       2.00000         -13.181314         -358.68181
   3051       2.00000         -13.181313         -358.68177
   3052       2.00000         -13.181313         -358.68177
   3053       2.00000         -13.181309         -358.68165
   3054       2.00000         -13.181309         -358.68165
   3055       2.00000         -13.181308         -358.68163
   3056       2.00000         -13.181308         -358.68163
   3057       2.00000         -13.181301         -358.68146
   3058       2.00000         -13.181301         -358.68146
   3059       2.00000         -13.181299         -358.68141
   3060       2.00000         -13.181299         -358.68141
   3061       2.00000         -13.181298         -358.68136
   3062       2.00000         -13.181298         -358.68136
   3063       2.00000         -13.181297         -358.68135
   3064       2.00000         -13.181297         -358.68135
   3065       2.00000         -13.181295         -358.68129
   3066       2.00000         -13.181295         -358.68129
   3067       2.00000         -13.181295         -358.68129
   3068       2.00000         -13.181295         -358.68129
   3069       2.00000         -13.181294         -358.68126
   3070       2.00000         -13.181294         -358.68126
   3071       2.00000         -13.181293         -358.68124
   3072       2.00000         -13.181293         -358.68124
   3073       2.00000         -13.181291         -358.68118
   3074       2.00000         -13.181291         -358.68118
   3075       2.00000         -13.181287         -358.68107
   3076       2.00000         -13.181287         -358.68107
   3077       2.00000         -13.181285         -358.68101
   3078       2.00000         -13.181285         -358.68101
   3079       2.00000         -13.181278         -358.68084
   3080       2.00000         -13.181278         -358.68084
   3081       2.00000         -13.181276         -358.68076
   3082       2.00000         -13.181276         -358.68076
   3083       2.00000         -13.181275         -358.68075
   3084       2.00000         -13.181275         -358.68075
   3085       2.00000         -13.181273         -358.68069
   3086       2.00000         -13.181273         -358.68069
   3087       2.00000         -13.181271         -358.68064
   3088       2.00000         -13.181271         -358.68064
   3089       2.00000         -13.181271         -358.68062
   3090       2.00000         -13.181271         -358.68062
   3091       2.00000         -13.181270         -358.68061
   3092       2.00000         -13.181270         -358.68061
   3093       2.00000         -13.181270         -358.68060
   3094       2.00000         -13.181270         -358.68060
   3095       2.00000         -13.181269         -358.68058
   3096       2.00000         -13.181269         -358.68058
   3097       2.00000         -13.181267         -358.68053
   3098       2.00000         -13.181267         -358.68053
   3099       2.00000         -13.181267         -358.68052
   3100       2.00000         -13.181267         -358.68052
   3101       2.00000         -13.181266         -358.68050
   3102       2.00000         -13.181266         -358.68050
   3103       2.00000         -13.181265         -358.68047
   3104       2.00000         -13.181265         -358.68047
   3105       2.00000         -13.181264         -358.68043
   3106       2.00000         -13.181263         -358.68042
   3107       2.00000         -13.181263         -358.68042
   3108       2.00000         -13.181262         -358.68040
   3109       2.00000         -13.181262         -358.68040
   3110       2.00000         -13.181262         -358.68038
   3111       2.00000         -13.181262         -358.68038
   3112       2.00000         -13.181259         -358.68031
   3113       2.00000         -13.181258         -358.68028
   3114       2.00000         -13.181258         -358.68028
   3115       2.00000         -13.181257         -358.68026
   3116       2.00000         -13.181257         -358.68026
   3117       2.00000         -13.181257         -358.68025
   3118       2.00000         -13.181257         -358.68025
   3119       2.00000         -13.181256         -358.68024
   3120       2.00000         -13.181256         -358.68024
   3121       2.00000         -13.181253         -358.68015
   3122       2.00000         -13.181253         -358.68015
   3123       2.00000         -13.181253         -358.68014
   3124       2.00000         -13.181253         -358.68014
   3125       2.00000         -13.181253         -358.68014
   3126       2.00000         -13.181253         -358.68014
   3127       2.00000         -13.181252         -358.68012
   3128       2.00000         -13.181252         -358.68012
   3129       2.00000         -13.181252         -358.68011
   3130       2.00000         -13.181252         -358.68011
   3131       2.00000         -13.181251         -358.68010
   3132       2.00000         -13.181251         -358.68010
   3133       2.00000         -13.181251         -358.68008
   3134       2.00000         -13.181251         -358.68008
   3135       2.00000         -13.181249         -358.68005
   3136       2.00000         -13.181249         -358.68005
   3137       2.00000         -13.181249         -358.68004
   3138       2.00000         -13.181249         -358.68004
   3139       2.00000         -13.181249         -358.68004
   3140       2.00000         -13.181249         -358.68004
   3141       2.00000         -13.181249         -358.68003
   3142       2.00000         -13.181249         -358.68003
   3143       2.00000         -13.181248         -358.68001
   3144       2.00000         -13.181248         -358.68001
   3145       2.00000         -13.181248         -358.68001
   3146       2.00000         -13.181248         -358.68001
   3147       2.00000         -13.181248         -358.67999
   3148       2.00000         -13.181248         -358.67999
   3149       2.00000         -13.181246         -358.67997
   3150       2.00000         -13.181246         -358.67996
   3151       2.00000         -13.181244         -358.67991
   3152       2.00000         -13.181244         -358.67991
   3153       2.00000         -13.181244         -358.67989
   3154       2.00000         -13.181244         -358.67989
   3155       2.00000         -13.181244         -358.67989
   3156       2.00000         -13.181244         -358.67989
   3157       2.00000         -13.181243         -358.67986
   3158       2.00000         -13.181243         -358.67986
   3159       2.00000         -13.181242         -358.67985
   3160       2.00000         -13.181242         -358.67985
   3161       2.00000         -13.181240         -358.67979
   3162       2.00000         -13.181238         -358.67975
   3163       2.00000         -13.181238         -358.67975
   3164       2.00000         -13.181238         -358.67973
   3165       2.00000         -13.181238         -358.67973
   3166       2.00000         -13.181237         -358.67972
   3167       2.00000         -13.181237         -358.67972
   3168       2.00000         -13.181236         -358.67968
   3169       2.00000         -13.181236         -358.67967
   3170       2.00000         -13.181234         -358.67963
   3171       2.00000         -13.181234         -358.67963
   3172       2.00000         -13.181234         -358.67962
   3173       2.00000         -13.181234         -358.67962
   3174       2.00000         -13.181233         -358.67960
   3175       2.00000         -13.181233         -358.67960
   3176       2.00000         -13.181233         -358.67959
   3177       2.00000         -13.181233         -358.67959
   3178       2.00000         -13.181232         -358.67956
   3179       2.00000         -13.181228         -358.67947
   3180       2.00000         -13.181228         -358.67947
   3181       2.00000         -13.181227         -358.67944
   3182       2.00000         -13.181227         -358.67944
   3183       2.00000         -13.181222         -358.67929
   3184       2.00000         -13.181222         -358.67929
   3185       2.00000         -13.181221         -358.67927
   3186       2.00000         -13.181221         -358.67927
   3187       2.00000         -13.181221         -358.67926
   3188       2.00000         -13.181221         -358.67926
   3189       2.00000         -13.181219         -358.67922
   3190       2.00000         -13.181219         -358.67922
   3191       2.00000         -13.181217         -358.67915
   3192       2.00000         -13.181217         -358.67915
   3193       2.00000         -13.181217         -358.67915
   3194       2.00000         -13.181216         -358.67913
   3195       2.00000         -13.181216         -358.67913
   3196       2.00000         -13.181215         -358.67910
   3197       2.00000         -13.181213         -358.67905
   3198       2.00000         -13.181213         -358.67905
   3199       2.00000         -13.181212         -358.67903
   3200       2.00000         -13.181212         -358.67903
   3201       2.00000         -13.181212         -358.67902
   3202       2.00000         -13.181212         -358.67902
   3203       2.00000         -13.181212         -358.67902
   3204       2.00000         -13.181212         -358.67902
   3205       2.00000         -13.181212         -358.67902
   3206       2.00000         -13.181212         -358.67902
   3207       2.00000         -13.181211         -358.67901
   3208       2.00000         -13.181211         -358.67901
   3209       2.00000         -13.181211         -358.67899
   3210       2.00000         -13.181211         -358.67899
   3211       2.00000         -13.181207         -358.67889
   3212       2.00000         -13.181207         -358.67889
   3213       2.00000         -13.181206         -358.67887
   3214       2.00000         -13.181206         -358.67887
   3215       2.00000         -13.181205         -358.67884
   3216       2.00000         -13.181205         -358.67884
   3217       2.00000         -13.181204         -358.67881
   3218       2.00000         -13.181204         -358.67881
   3219       2.00000         -13.181204         -358.67880
   3220       2.00000         -13.181204         -358.67880
   3221       2.00000         -13.181203         -358.67878
   3222       2.00000         -13.181203         -358.67878
   3223       2.00000         -13.181203         -358.67878
   3224       2.00000         -13.181203         -358.67878
   3225       2.00000         -13.181203         -358.67878
   3226       2.00000         -13.181203         -358.67878
   3227       2.00000         -13.181203         -358.67877
   3228       2.00000         -13.181203         -358.67877
   3229       2.00000         -13.181202         -358.67877
   3230       2.00000         -13.181202         -358.67877
   3231       2.00000         -13.181201         -358.67872
   3232       2.00000         -13.181201         -358.67872
   3233       2.00000         -13.181200         -358.67871
   3234       2.00000         -13.181200         -358.67871
   3235       2.00000         -13.181200         -358.67871
   3236       2.00000         -13.181200         -358.67871
   3237       2.00000         -13.181199         -358.67868
   3238       2.00000         -13.181198         -358.67865
   3239       2.00000         -13.181198         -358.67865
   3240       2.00000         -13.181197         -358.67863
   3241       2.00000         -13.181197         -358.67863
   3242       2.00000         -13.181197         -358.67861
   3243       2.00000         -13.181197         -358.67861
   3244       2.00000         -13.181196         -358.67860
   3245       2.00000         -13.181196         -358.67860
   3246       2.00000         -13.181195         -358.67857
   3247       2.00000         -13.181195         -358.67857
   3248       2.00000         -13.181193         -358.67852
   3249       2.00000         -13.181193         -358.67851
   3250       2.00000         -13.181193         -358.67851
   3251       2.00000         -13.181193         -358.67850
   3252       2.00000         -13.181193         -358.67850
   3253       2.00000         -13.181193         -358.67850
   3254       2.00000         -13.181192         -358.67849
   3255       2.00000         -13.181192         -358.67849
   3256       2.00000         -13.181192         -358.67849
   3257       2.00000         -13.181192         -358.67849
   3258       2.00000         -13.181191         -358.67845
   3259       2.00000         -13.181191         -358.67845
   3260       2.00000         -13.181190         -358.67843
   3261       2.00000         -13.181190         -358.67843
   3262       2.00000         -13.181187         -358.67836
   3263       2.00000         -13.181187         -358.67836
   3264       2.00000         -13.181187         -358.67835
   3265       2.00000         -13.181187         -358.67835
   3266       2.00000         -13.181187         -358.67835
   3267       2.00000         -13.181187         -358.67835
   3268       2.00000         -13.181185         -358.67828
   3269       2.00000         -13.181185         -358.67828
   3270       2.00000         -13.181182         -358.67821
   3271       2.00000         -13.181182         -358.67821
   3272       2.00000         -13.181177         -358.67808
   3273       2.00000         -13.181177         -358.67808
   3274       2.00000         -13.181177         -358.67807
   3275       2.00000         -13.181177         -358.67807
   3276       2.00000         -13.181177         -358.67807
   3277       2.00000         -13.181174         -358.67800
   3278       2.00000         -13.180556         -358.66117
   3279       2.00000         -13.180556         -358.66117
   3280       2.00000         -13.180556         -358.66117
   3281       2.00000         -13.180556         -358.66117
   3282       2.00000         -13.180556         -358.66117
   3283       2.00000         -13.180556         -358.66117
   3284       2.00000         -13.180556         -358.66117
   3285       2.00000         -13.180556         -358.66117
   3286       2.00000         -13.180556         -358.66117
   3287       2.00000         -13.180556         -358.66117
   3288       2.00000         -13.180556         -358.66117
   3289       2.00000         -13.180556         -358.66117
   3290       2.00000         -13.180556         -358.66117
   3291       2.00000         -13.180556         -358.66117
   3292       2.00000         -13.180556         -358.66117
   3293       2.00000         -13.180556         -358.66117
   3294       2.00000         -13.180556         -358.66117
   3295       2.00000         -13.180556         -358.66117
   3296       2.00000         -13.180556         -358.66117
   3297       2.00000         -13.180556         -358.66117
   3298       2.00000         -13.180556         -358.66117
   3299       2.00000         -13.180556         -358.66117
   3300       2.00000         -13.180556         -358.66117
   3301       2.00000         -13.180556         -358.66117
   3302       2.00000         -13.180556         -358.66117
   3303       2.00000         -13.180556         -358.66117
   3304       2.00000         -13.180556         -358.66117
   3305       2.00000         -13.180556         -358.66117
   3306       2.00000         -13.180556         -358.66117
   3307       2.00000         -13.180556         -358.66117
   3308       2.00000         -13.180556         -358.66117
   3309       2.00000         -13.180556         -358.66117
   3310       2.00000         -13.180556         -358.66117
   3311       2.00000         -13.180556         -358.66117
   3312       2.00000         -13.180556         -358.66117
   3313       2.00000         -13.180556         -358.66117
   3314       2.00000         -13.180556         -358.66117
   3315       2.00000         -13.180556         -358.66117
   3316       2.00000         -13.180556         -358.66117
   3317       2.00000         -13.180556         -358.66117
   3318       2.00000         -13.180556         -358.66117
   3319       2.00000         -13.180556         -358.66117
   3320       2.00000         -13.180556         -358.66117
   3321       2.00000         -13.180556         -358.66117
   3322       2.00000         -13.180556         -358.66117
   3323       2.00000         -13.180556         -358.66117
   3324       2.00000         -13.180556         -358.66117
   3325       2.00000         -13.180556         -358.66117
   3326       2.00000         -13.180556         -358.66117
   3327       2.00000         -13.180556         -358.66117
   3328       2.00000         -13.180556         -358.66117
   3329       2.00000         -13.180556         -358.66117
   3330       2.00000         -13.180556         -358.66117
   3331       2.00000         -13.180556         -358.66117
   3332       2.00000         -13.180556         -358.66117
   3333       2.00000         -13.180556         -358.66117
   3334       2.00000         -13.180556         -358.66117
   3335       2.00000         -13.180556         -358.66117
   3336       2.00000         -13.180556         -358.66117
   3337       2.00000         -13.180556         -358.66117
   3338       2.00000         -13.180556         -358.66117
   3339       2.00000         -13.180556         -358.66117
   3340       2.00000         -13.180556         -358.66117
   3341       2.00000         -13.180556         -358.66117
   3342       2.00000         -13.180551         -358.66103
   3343       2.00000         -13.180551         -358.66103
   3344       2.00000         -13.180551         -358.66103
   3345       2.00000         -13.180551         -358.66103
   3346       2.00000         -13.180551         -358.66103
   3347       2.00000         -13.180551         -358.66103
   3348       2.00000         -13.180551         -358.66103
   3349       2.00000         -13.180551         -358.66103
   3350       2.00000         -13.180551         -358.66103
   3351       2.00000         -13.180551         -358.66103
   3352       2.00000         -13.180551         -358.66103
   3353       2.00000         -13.180551         -358.66103
   3354       2.00000         -13.180551         -358.66103
   3355       2.00000         -13.180551         -358.66103
   3356       2.00000         -13.180551         -358.66103
   3357       2.00000         -13.180551         -358.66103
   3358       2.00000         -13.180551         -358.66103
   3359       2.00000         -13.180551         -358.66103
   3360       2.00000         -13.180551         -358.66103
   3361       2.00000         -13.180551         -358.66103
   3362       2.00000         -13.180551         -358.66103
   3363       2.00000         -13.180551         -358.66103
   3364       2.00000         -13.180551         -358.66103
   3365       2.00000         -13.180551         -358.66103
   3366       2.00000         -13.180551         -358.66103
   3367       2.00000         -13.180551         -358.66103
   3368       2.00000         -13.180551         -358.66103
   3369       2.00000         -13.180551         -358.66103
   3370       2.00000         -13.180551         -358.66103
   3371       2.00000         -13.180551         -358.66103
   3372       2.00000         -13.180551         -358.66103
   3373       2.00000         -13.180551         -358.66103
   3374       2.00000         -13.180551         -358.66103
   3375       2.00000         -13.180551         -358.66103
   3376       2.00000         -13.180551         -358.66103
   3377       2.00000         -13.180551         -358.66103
   3378       2.00000         -13.180551         -358.66103
   3379       2.00000         -13.180551         -358.66103
   3380       2.00000         -13.180551         -358.66103
   3381       2.00000         -13.180551         -358.66103
   3382       2.00000         -13.180551         -358.66103
   3383       2.00000         -13.180551         -358.66103
   3384       2.00000         -13.180551         -358.66103
   3385       2.00000         -13.180551         -358.66103
   3386       2.00000         -13.180551         -358.66103
   3387       2.00000         -13.180551         -358.66103
   3388       2.00000         -13.180551         -358.66103
   3389       2.00000         -13.180551         -358.66103
   3390       2.00000         -13.180551         -358.66103
   3391       2.00000         -13.180551         -358.66103
   3392       2.00000         -13.180551         -358.66103
   3393       2.00000         -13.180551         -358.66103
   3394       2.00000         -13.180551         -358.66103
   3395       2.00000         -13.180551         -358.66103
   3396       2.00000         -13.180551         -358.66103
   3397       2.00000         -13.180551         -358.66103
   3398       2.00000         -13.180551         -358.66103
   3399       2.00000         -13.180551         -358.66103
   3400       2.00000         -13.180551         -358.66103
   3401       2.00000         -13.180551         -358.66103
   3402       2.00000         -13.180551         -358.66103
   3403       2.00000         -13.180551         -358.66103
   3404       2.00000         -13.180551         -358.66103
   3405       2.00000         -13.180551         -358.66103
   3406       2.00000         -13.180506         -358.65981
   3407       2.00000         -13.180506         -358.65981
   3408       2.00000         -13.180506         -358.65981
   3409       2.00000         -13.180506         -358.65981
   3410       2.00000         -13.180506         -358.65980
   3411       2.00000         -13.180506         -358.65980
   3412       2.00000         -13.180506         -358.65980
   3413       2.00000         -13.180506         -358.65980
   3414       2.00000         -13.180506         -358.65980
   3415       2.00000         -13.180506         -358.65980
   3416       2.00000         -13.180506         -358.65980
   3417       2.00000         -13.180506         -358.65980
   3418       2.00000         -13.180506         -358.65980
   3419       2.00000         -13.180506         -358.65980
   3420       2.00000         -13.180506         -358.65980
   3421       2.00000         -13.180506         -358.65980
   3422       2.00000         -13.180506         -358.65980
   3423       2.00000         -13.180506         -358.65980
   3424       2.00000         -13.180506         -358.65980
   3425       2.00000         -13.180506         -358.65980
   3426       2.00000         -13.180506         -358.65980
   3427       2.00000         -13.180506         -358.65980
   3428       2.00000         -13.180506         -358.65980
   3429       2.00000         -13.180506         -358.65980
   3430       2.00000         -13.180506         -358.65980
   3431       2.00000         -13.180506         -358.65980
   3432       2.00000         -13.180506         -358.65980
   3433       2.00000         -13.180506         -358.65980
   3434       2.00000         -13.180506         -358.65980
   3435       2.00000         -13.180506         -358.65980
   3436       2.00000         -13.180506         -358.65980
   3437       2.00000         -13.180506         -358.65980
   3438       2.00000         -13.180506         -358.65980
   3439       2.00000         -13.180506         -358.65980
   3440       2.00000         -13.180506         -358.65980
   3441       2.00000         -13.180506         -358.65980
   3442       2.00000         -13.180506         -358.65980
   3443       2.00000         -13.180506         -358.65980
   3444       2.00000         -13.180506         -358.65980
   3445       2.00000         -13.180506         -358.65980
   3446       2.00000         -13.180506         -358.65980
   3447       2.00000         -13.180506         -358.65980
   3448       2.00000         -13.180506         -358.65980
   3449       2.00000         -13.180506         -358.65980
   3450       2.00000         -13.180506         -358.65980
   3451       2.00000         -13.180506         -358.65980
   3452       2.00000         -13.180506         -358.65980
   3453       2.00000         -13.180506         -358.65980
   3454       2.00000         -13.180506         -358.65980
   3455       2.00000         -13.180506         -358.65980
   3456       2.00000         -13.180506         -358.65980
   3457       2.00000         -13.180506         -358.65980
   3458       2.00000         -13.180506         -358.65980
   3459       2.00000         -13.180506         -358.65980
   3460       2.00000         -13.180506         -358.65980
   3461       2.00000         -13.180506         -358.65980
   3462       2.00000         -13.180506         -358.65980
   3463       2.00000         -13.180506         -358.65980
   3464       2.00000         -13.180506         -358.65980
   3465       2.00000         -13.180506         -358.65980
   3466       2.00000         -13.180506         -358.65980
   3467       2.00000         -13.180506         -358.65980
   3468       2.00000         -13.180506         -358.65980
   3469       2.00000         -13.180506         -358.65980
   3470       2.00000         -13.180506         -358.65980
   3471       2.00000         -13.180506         -358.65980
   3472       2.00000         -13.180506         -358.65980
   3473       2.00000         -13.180506         -358.65980
   3474       2.00000         -13.180506         -358.65980
   3475       2.00000         -13.180506         -358.65980
   3476       2.00000         -13.180506         -358.65980
   3477       2.00000         -13.180506         -358.65980
   3478       2.00000         -13.180506         -358.65980
   3479       2.00000         -13.180506         -358.65980
   3480       2.00000         -13.180506         -358.65980
   3481       2.00000         -13.180506         -358.65980
   3482       2.00000         -13.180506         -358.65980
   3483       2.00000         -13.180506         -358.65980
   3484       2.00000         -13.180506         -358.65980
   3485       2.00000         -13.180506         -358.65980
   3486       2.00000         -13.180506         -358.65980
   3487       2.00000         -13.180506         -358.65980
   3488       2.00000         -13.180506         -358.65980
   3489       2.00000         -13.180506         -358.65980
   3490       2.00000         -13.180506         -358.65980
   3491       2.00000         -13.180506         -358.65980
   3492       2.00000         -13.180506         -358.65980
   3493       2.00000         -13.180506         -358.65980
   3494       2.00000         -13.180506         -358.65980
   3495       2.00000         -13.180506         -358.65980
   3496       2.00000         -13.180506         -358.65980
   3497       2.00000         -13.180506         -358.65980
   3498       2.00000         -13.180506         -358.65980
   3499       2.00000         -13.180506         -358.65980
   3500       2.00000         -13.180506         -358.65980
   3501       2.00000         -13.180506         -358.65980
   3502       2.00000         -13.180506         -358.65980
   3503       2.00000         -13.180506         -358.65980
   3504       2.00000         -13.180506         -358.65980
   3505       2.00000         -13.180506         -358.65980
   3506       2.00000         -13.180506         -358.65980
   3507       2.00000         -13.180506         -358.65980
   3508       2.00000         -13.180506         -358.65980
   3509       2.00000         -13.180506         -358.65980
   3510       2.00000         -13.180506         -358.65980
   3511       2.00000         -13.180506         -358.65980
   3512       2.00000         -13.180506         -358.65980
   3513       2.00000         -13.180506         -358.65980
   3514       2.00000         -13.180506         -358.65980
   3515       2.00000         -13.180506         -358.65980
   3516       2.00000         -13.180506         -358.65980
   3517       2.00000         -13.180506         -358.65980
   3518       2.00000         -13.180506         -358.65980
   3519       2.00000         -13.180506         -358.65980
   3520       2.00000         -13.180506         -358.65980
   3521       2.00000         -13.180506         -358.65980
   3522       2.00000         -13.180506         -358.65980
   3523       2.00000         -13.180506         -358.65980
   3524       2.00000         -13.180506         -358.65980
   3525       2.00000         -13.180506         -358.65980
   3526       2.00000         -13.180506         -358.65980
   3527       2.00000         -13.180506         -358.65980
   3528       2.00000         -13.180506         -358.65980
   3529       2.00000         -13.180506         -358.65980
   3530       2.00000         -13.180506         -358.65980
   3531       2.00000         -13.180506         -358.65980
   3532       2.00000         -13.180506         -358.65980
   3533       2.00000         -13.180506         -358.65980
   3534       2.00000         -13.180489         -358.65937
   3535       2.00000         -13.180489         -358.65937
   3536       2.00000         -13.180489         -358.65937
   3537       2.00000         -13.180489         -358.65937
   3538       2.00000         -13.180489         -358.65937
   3539       2.00000         -13.180489         -358.65937
   3540       2.00000         -13.180489         -358.65937
   3541       2.00000         -13.180489         -358.65937
   3542       2.00000         -13.180489         -358.65937
   3543       2.00000         -13.180489         -358.65937
   3544       2.00000         -13.180489         -358.65937
   3545       2.00000         -13.180489         -358.65937
   3546       2.00000         -13.180489         -358.65937
   3547       2.00000         -13.180489         -358.65937
   3548       2.00000         -13.180489         -358.65937
   3549       2.00000         -13.180489         -358.65937
   3550       2.00000         -13.180489         -358.65937
   3551       2.00000         -13.180489         -358.65937
   3552       2.00000         -13.180489         -358.65937
   3553       2.00000         -13.180489         -358.65937
   3554       2.00000         -13.180489         -358.65937
   3555       2.00000         -13.180489         -358.65937
   3556       2.00000         -13.180489         -358.65937
   3557       2.00000         -13.180489         -358.65937
   3558       2.00000         -13.180489         -358.65937
   3559       2.00000         -13.180489         -358.65937
   3560       2.00000         -13.180489         -358.65937
   3561       2.00000         -13.180489         -358.65937
   3562       2.00000         -13.180489         -358.65937
   3563       2.00000         -13.180489         -358.65937
   3564       2.00000         -13.180489         -358.65937
   3565       2.00000         -13.180489         -358.65937
   3566       2.00000         -13.180489         -358.65937
   3567       2.00000         -13.180489         -358.65937
   3568       2.00000         -13.180489         -358.65937
   3569       2.00000         -13.180489         -358.65937
   3570       2.00000         -13.180489         -358.65937
   3571       2.00000         -13.180489         -358.65937
   3572       2.00000         -13.180489         -358.65937
   3573       2.00000         -13.180489         -358.65937
   3574       2.00000         -13.180489         -358.65937
   3575       2.00000         -13.180489         -358.65937
   3576       2.00000         -13.180489         -358.65937
   3577       2.00000         -13.180489         -358.65937
   3578       2.00000         -13.180489         -358.65937
   3579       2.00000         -13.180489         -358.65937
   3580       2.00000         -13.180489         -358.65937
   3581       2.00000         -13.180489         -358.65937
   3582       2.00000         -13.180489         -358.65937
   3583       2.00000         -13.180489         -358.65937
   3584       2.00000         -13.180489         -358.65937
   3585       2.00000         -13.180489         -358.65937
   3586       2.00000         -13.180489         -358.65937
   3587       2.00000         -13.180489         -358.65937
   3588       2.00000         -13.180489         -358.65937
   3589       2.00000         -13.180489         -358.65937
   3590       2.00000         -13.180489         -358.65937
   3591       2.00000         -13.180489         -358.65937
   3592       2.00000         -13.180489         -358.65937
   3593       2.00000         -13.180489         -358.65937
   3594       2.00000         -13.180489         -358.65937
   3595       2.00000         -13.180489         -358.65937
   3596       2.00000         -13.180489         -358.65936
   3597       2.00000         -13.180489         -358.65936
   3598       2.00000         -10.161425         -276.50645
   3599       2.00000         -10.161425         -276.50645
   3600       2.00000         -10.161354         -276.50451
   3601       2.00000         -10.161354         -276.50451
   3602       2.00000         -10.161123         -276.49822
   3603       2.00000         -10.161123         -276.49822
   3604       2.00000         -10.160953         -276.49361
   3605       2.00000         -10.160953         -276.49361
   3606       2.00000         -10.160214         -276.47348
   3607       2.00000         -10.160214         -276.47348
   3608       2.00000         -10.159877         -276.46432
   3609       2.00000         -10.159877         -276.46432
   3610       2.00000         -10.159640         -276.45787
   3611       2.00000         -10.159640         -276.45787
   3612       2.00000         -10.159238         -276.44694
   3613       2.00000         -10.159238         -276.44694
   3614       2.00000         -10.157443         -276.39809
   3615       2.00000         -10.157443         -276.39809
   3616       2.00000         -10.157086         -276.38838
   3617       2.00000         -10.157086         -276.38837
   3618       2.00000         -10.156975         -276.38534
   3619       2.00000         -10.156975         -276.38534
   3620       2.00000         -10.156471         -276.37164
   3621       2.00000         -10.156471         -276.37163
   3622       2.00000         -10.142990         -276.00480
   3623       2.00000         -10.142990         -276.00479
   3624       2.00000         -10.142908         -276.00258
   3625       2.00000         -10.142908         -276.00257
   3626       2.00000         -10.142605         -275.99433
   3627       2.00000         -10.142605         -275.99432
   3628       2.00000         -10.142013         -275.97821
   3629       2.00000         -10.142013         -275.97821
   3630       2.00000          -4.757401         -129.45547
   3631       2.00000          -3.497084          -95.16051
   3632       2.00000          -3.496987          -95.15787
   3633       2.00000          -3.496971          -95.15743
   3634       2.00000          -3.496889          -95.15518
   3635       2.00000          -3.496836          -95.15376
   3636       2.00000          -3.496823          -95.15338
   3637       2.00000          -3.496815          -95.15317
   3638       2.00000          -3.496814          -95.15315
   3639       2.00000          -3.496787          -95.15241
   3640       2.00000          -3.496770          -95.15196
   3641       2.00000          -3.496756          -95.15156
   3642       2.00000          -3.496752          -95.15147
   3643       2.00000          -3.496743          -95.15121
   3644       2.00000          -3.496742          -95.15119
   3645       2.00000          -3.496718          -95.15054
   3646       2.00000          -3.496704          -95.15017
   3647       2.00000          -3.496693          -95.14987
   3648       2.00000          -3.496693          -95.14985
   3649       2.00000          -3.496676          -95.14939
   3650       2.00000          -3.496671          -95.14926
   3651       2.00000          -3.496670          -95.14924
   3652       2.00000          -3.496669          -95.14919
   3653       2.00000          -3.496662          -95.14900
   3654       2.00000          -3.496652          -95.14873
   3655       2.00000          -3.496636          -95.14831
   3656       2.00000          -3.496635          -95.14829
   3657       2.00000          -3.496627          -95.14807
   3658       2.00000          -3.496621          -95.14790
   3659       2.00000          -3.496609          -95.14757
   3660       2.00000          -3.496607          -95.14752
   3661       2.00000          -3.496603          -95.14740
   3662       2.00000          -3.496599          -95.14731
   3663       2.00000          -3.496591          -95.14707
   3664       2.00000          -3.496588          -95.14701
   3665       2.00000          -3.496584          -95.14690
   3666       2.00000          -3.496582          -95.14685
   3667       2.00000          -3.496581          -95.14682
   3668       2.00000          -3.496569          -95.14649
   3669       2.00000          -3.496566          -95.14640
   3670       2.00000          -3.496559          -95.14621
   3671       2.00000          -3.496557          -95.14616
   3672       2.00000          -3.496545          -95.14583
   3673       2.00000          -3.496543          -95.14578
   3674       2.00000          -3.496543          -95.14576
   3675       2.00000          -3.496541          -95.14573
   3676       2.00000          -3.496534          -95.14552
   3677       2.00000          -3.496530          -95.14543
   3678       2.00000          -3.496519          -95.14513
   3679       2.00000          -3.496515          -95.14500
   3680       2.00000          -3.496510          -95.14488
   3681       2.00000          -3.496498          -95.14456
   3682       2.00000          -3.496493          -95.14441
   3683       2.00000          -3.496490          -95.14434
   3684       2.00000          -3.496481          -95.14410
   3685       2.00000          -3.496479          -95.14405
   3686       2.00000          -3.496467          -95.14370
   3687       2.00000          -3.496455          -95.14339
   3688       2.00000          -3.496445          -95.14311
   3689       2.00000          -3.496426          -95.14259
   3690       2.00000          -3.496424          -95.14254
   3691       2.00000          -3.496417          -95.14236
   3692       2.00000          -3.496402          -95.14194
   3693       2.00000          -3.496396          -95.14178
   3694       2.00000          -3.496384          -95.14146
   3695       2.00000          -3.495749          -95.12416
   3696       2.00000          -3.495690          -95.12257
   3697       2.00000          -3.495685          -95.12243
   3698       2.00000          -3.495677          -95.12221
   3699       2.00000          -3.495676          -95.12219
   3700       2.00000          -3.495664          -95.12186
   3701       2.00000          -3.495659          -95.12172
   3702       2.00000          -3.495655          -95.12161
   3703       2.00000          -3.495653          -95.12157
   3704       2.00000          -3.495650          -95.12149
   3705       2.00000          -3.495643          -95.12129
   3706       2.00000          -3.495628          -95.12088
   3707       2.00000          -3.495623          -95.12075
   3708       2.00000          -3.495617          -95.12059
   3709       2.00000          -3.495615          -95.12053
   3710       2.00000          -3.495611          -95.12041
   3711       2.00000          -3.495610          -95.12039
   3712       2.00000          -3.495607          -95.12031
   3713       2.00000          -3.495605          -95.12025
   3714       2.00000          -3.495602          -95.12018
   3715       2.00000          -3.495602          -95.12016
   3716       2.00000          -3.495596          -95.12001
   3717       2.00000          -3.495593          -95.11992
   3718       2.00000          -3.495580          -95.11958
   3719       2.00000          -3.495576          -95.11947
   3720       2.00000          -3.495573          -95.11939
   3721       2.00000          -3.495567          -95.11920
   3722       2.00000          -3.495565          -95.11915
   3723       2.00000          -3.495564          -95.11915
   3724       2.00000          -3.495560          -95.11903
   3725       2.00000          -3.495560          -95.11902
   3726       2.00000          -3.495559          -95.11901
   3727       2.00000          -3.495558          -95.11898
   3728       2.00000          -3.495555          -95.11889
   3729       2.00000          -3.495554          -95.11885
   3730       2.00000          -3.495552          -95.11881
   3731       2.00000          -3.495550          -95.11876
   3732       2.00000          -3.495545          -95.11863
   3733       2.00000          -3.495538          -95.11843
   3734       2.00000          -3.495537          -95.11839
   3735       2.00000          -3.495534          -95.11833
   3736       2.00000          -3.495533          -95.11828
   3737       2.00000          -3.495526          -95.11811
   3738       2.00000          -3.495518          -95.11787
   3739       2.00000          -3.495512          -95.11773
   3740       2.00000          -3.495503          -95.11748
   3741       2.00000          -3.495499          -95.11737
   3742       2.00000          -3.495496          -95.11729
   3743       2.00000          -3.495492          -95.11717
   3744       2.00000          -3.495486          -95.11701
   3745       2.00000          -3.495484          -95.11697
   3746       2.00000          -3.495475          -95.11672
   3747       2.00000          -3.495473          -95.11667
   3748       2.00000          -3.495472          -95.11662
   3749       2.00000          -3.495468          -95.11652
   3750       2.00000          -3.495449          -95.11600
   3751       2.00000          -3.495438          -95.11570
   3752       2.00000          -3.495435          -95.11564
   3753       2.00000          -3.495431          -95.11552
   3754       2.00000          -3.495417          -95.11513
   3755       2.00000          -3.495415          -95.11508
   3756       2.00000          -3.495406          -95.11483
   3757       2.00000          -3.495405          -95.11482
   3758       2.00000          -3.495385          -95.11427
   3759       2.00000          -3.493354          -95.05901
   3760       2.00000          -3.493307          -95.05773
   3761       2.00000          -3.493280          -95.05699
   3762       2.00000          -3.493270          -95.05672
   3763       2.00000          -3.493161          -95.05375
   3764       2.00000          -3.492957          -95.04819
   3765       2.00000          -3.492951          -95.04805
   3766       2.00000          -3.492949          -95.04798
   3767       2.00000          -3.492945          -95.04786
   3768       2.00000          -3.492908          -95.04685
   3769       2.00000          -3.492906          -95.04682
   3770       2.00000          -3.492860          -95.04557
   3771       2.00000          -3.492857          -95.04548
   3772       2.00000          -3.492855          -95.04542
   3773       2.00000          -3.492853          -95.04537
   3774       2.00000          -3.492833          -95.04481
   3775       2.00000          -3.492820          -95.04447
   3776       2.00000          -3.492800          -95.04392
   3777       2.00000          -3.492793          -95.04374
   3778       2.00000          -3.492767          -95.04302
   3779       2.00000          -3.492760          -95.04284
   3780       2.00000          -3.492760          -95.04283
   3781       2.00000          -3.492757          -95.04276
   3782       2.00000          -3.492747          -95.04249
   3783       2.00000          -3.492745          -95.04242
   3784       2.00000          -3.492741          -95.04232
   3785       2.00000          -3.492740          -95.04230
   3786       2.00000          -3.492726          -95.04191
   3787       2.00000          -3.492719          -95.04172
   3788       2.00000          -3.492701          -95.04122
   3789       2.00000          -3.492698          -95.04116
   3790       2.00000          -3.492686          -95.04081
   3791       2.00000          -3.492685          -95.04079
   3792       2.00000          -3.492681          -95.04068
   3793       2.00000          -3.492671          -95.04043
   3794       2.00000          -3.492671          -95.04042
   3795       2.00000          -3.492657          -95.04003
   3796       2.00000          -3.492657          -95.04002
   3797       2.00000          -3.492652          -95.03990
   3798       2.00000          -3.492651          -95.03986
   3799       2.00000          -3.492645          -95.03971
   3800       2.00000          -3.492643          -95.03965
   3801       2.00000          -3.492642          -95.03961
   3802       2.00000          -3.492624          -95.03914
   3803       2.00000          -3.492618          -95.03898
   3804       2.00000          -3.492612          -95.03881
   3805       2.00000          -3.492610          -95.03876
   3806       2.00000          -3.492609          -95.03873
   3807       2.00000          -3.492608          -95.03870
   3808       2.00000          -3.492605          -95.03861
   3809       2.00000          -3.492593          -95.03830
   3810       2.00000          -3.492578          -95.03788
   3811       2.00000          -3.492572          -95.03772
   3812       2.00000          -3.492568          -95.03761
   3813       2.00000          -3.492565          -95.03754
   3814       2.00000          -3.492550          -95.03713
   3815       2.00000          -3.492549          -95.03709
   3816       2.00000          -3.492544          -95.03695
   3817       2.00000          -3.492526          -95.03646
   3818       2.00000          -3.492517          -95.03622
   3819       2.00000          -3.492498          -95.03572
   3820       2.00000          -3.492494          -95.03558
   3821       2.00000          -3.492490          -95.03549
   3822       2.00000          -3.492461          -95.03469
   3823       2.00000          -3.491784          -95.01626
   3824       2.00000          -3.491760          -95.01562
   3825       2.00000          -3.491760          -95.01561
   3826       2.00000          -3.491760          -95.01561
   3827       2.00000          -3.491760          -95.01561
   3828       2.00000          -3.491736          -95.01496
   3829       2.00000          -3.491736          -95.01496
   3830       2.00000          -3.491736          -95.01496
   3831       2.00000          -3.491736          -95.01496
   3832       2.00000          -3.491702          -95.01405
   3833       2.00000          -3.491702          -95.01404
   3834       2.00000          -3.491702          -95.01404
   3835       2.00000          -3.491702          -95.01404
   3836       2.00000          -3.491678          -95.01338
   3837       2.00000          -3.491678          -95.01338
   3838       2.00000          -3.491678          -95.01338
   3839       2.00000          -3.491678          -95.01338
   3840       2.00000          -3.491678          -95.01338
   3841       2.00000          -3.491678          -95.01338
   3842       2.00000          -3.491678          -95.01338
   3843       2.00000          -3.491678          -95.01338
   3844       2.00000          -3.491644          -95.01248
   3845       2.00000          -3.491644          -95.01248
   3846       2.00000          -3.491644          -95.01247
   3847       2.00000          -3.491644          -95.01247
   3848       2.00000          -3.491620          -95.01182
   3849       2.00000          -3.491620          -95.01182
   3850       2.00000          -3.491620          -95.01180
   3851       2.00000          -3.491620          -95.01180
   3852       2.00000          -3.491620          -95.01180
   3853       2.00000          -3.491620          -95.01180
   3854       2.00000          -3.491620          -95.01180
   3855       2.00000          -3.491620          -95.01180
   3856       2.00000          -3.491620          -95.01180
   3857       2.00000          -3.491620          -95.01180
   3858       2.00000          -3.491619          -95.01178
   3859       2.00000          -3.491619          -95.01178
   3860       2.00000          -3.491619          -95.01178
   3861       2.00000          -3.491619          -95.01178
   3862       2.00000          -3.491596          -95.01115
   3863       2.00000          -3.491596          -95.01115
   3864       2.00000          -3.491595          -95.01115
   3865       2.00000          -3.491595          -95.01115
   3866       2.00000          -3.491560          -95.01018
   3867       2.00000          -3.491560          -95.01018
   3868       2.00000          -3.491560          -95.01018
   3869       2.00000          -3.491560          -95.01018
   3870       2.00000          -3.491560          -95.01018
   3871       2.00000          -3.491560          -95.01018
   3872       2.00000          -3.491560          -95.01018
   3873       2.00000          -3.491560          -95.01018
   3874       2.00000          -3.491536          -95.00951
   3875       2.00000          -3.491535          -95.00951
   3876       2.00000          -3.491535          -95.00951
   3877       2.00000          -3.491535          -95.00951
   3878       2.00000          -3.491500          -95.00855
   3879       2.00000          -3.491500          -95.00855
   3880       2.00000          -3.491500          -95.00855
   3881       2.00000          -3.491500          -95.00855
   3882       2.00000          -3.491475          -95.00788
   3883       2.00000          -3.491475          -95.00788
   3884       2.00000          -3.491475          -95.00788
   3885       2.00000          -3.491475          -95.00788
   3886       2.00000          -3.491451          -95.00720
   3887       2.00000          -3.074241          -83.65434
   3888       2.00000          -3.074183          -83.65278
   3889       2.00000          -3.070909          -83.56369
   3890       2.00000          -2.159395          -58.76012
   3891       2.00000          -2.159314          -58.75793
   3892       2.00000          -2.159189          -58.75452
   3893       2.00000          -2.159179          -58.75425
   3894       2.00000          -2.159171          -58.75404
   3895       2.00000          -2.159158          -58.75369
   3896       2.00000          -2.159067          -58.75120
   3897       2.00000          -2.159062          -58.75106
   3898       2.00000          -2.159001          -58.74939
   3899       2.00000          -2.158981          -58.74887
   3900       2.00000          -2.158927          -58.74738
   3901       2.00000          -2.158921          -58.74723
   3902       2.00000          -2.158912          -58.74698
   3903       2.00000          -2.158905          -58.74679
   3904       2.00000          -2.158901          -58.74668
   3905       2.00000          -2.158890          -58.74638
   3906       2.00000          -2.158878          -58.74605
   3907       2.00000          -2.158871          -58.74586
   3908       2.00000          -2.158863          -58.74566
   3909       2.00000          -2.158857          -58.74548
   3910       2.00000          -2.158855          -58.74544
   3911       2.00000          -2.158851          -58.74532
   3912       2.00000          -2.158842          -58.74507
   3913       2.00000          -2.158776          -58.74329
   3914       2.00000          -2.158774          -58.74323
   3915       2.00000          -2.158771          -58.74314
   3916       2.00000          -2.158770          -58.74311
   3917       2.00000          -2.158760          -58.74284
   3918       2.00000          -2.158760          -58.74284
   3919       2.00000          -2.158752          -58.74263
   3920       2.00000          -2.158751          -58.74262
   3921       2.00000          -2.158697          -58.74114
   3922       2.00000          -2.158689          -58.74092
   3923       2.00000          -2.158665          -58.74026
   3924       2.00000          -2.158660          -58.74013
   3925       2.00000          -2.158637          -58.73949
   3926       2.00000          -2.158632          -58.73937
   3927       2.00000          -2.158624          -58.73916
   3928       2.00000          -2.158604          -58.73861
   3929       2.00000          -2.158592          -58.73829
   3930       2.00000          -2.158592          -58.73828
   3931       2.00000          -2.158590          -58.73823
   3932       2.00000          -2.158584          -58.73806
   3933       2.00000          -2.158574          -58.73780
   3934       2.00000          -2.158571          -58.73770
   3935       2.00000          -2.158566          -58.73758
   3936       2.00000          -2.158561          -58.73744
   3937       2.00000          -2.158546          -58.73702
   3938       2.00000          -2.158545          -58.73700
   3939       2.00000          -2.158534          -58.73669
   3940       2.00000          -2.158530          -58.73659
   3941       2.00000          -2.158525          -58.73647
   3942       2.00000          -2.158519          -58.73628
   3943       2.00000          -2.158518          -58.73625
   3944       2.00000          -2.158508          -58.73599
   3945       2.00000          -2.158507          -58.73597
   3946       2.00000          -2.158497          -58.73570
   3947       2.00000          -2.158496          -58.73568
   3948       2.00000          -2.158486          -58.73540
   3949       2.00000          -2.158480          -58.73522
   3950       2.00000          -2.158476          -58.73513
   3951       2.00000          -2.158473          -58.73504
   3952       2.00000          -2.158470          -58.73497
   3953       2.00000          -2.158468          -58.73490
   3954       2.00000          -2.158457          -58.73461
   3955       2.00000          -2.158450          -58.73441
   3956       2.00000          -2.158446          -58.73431
   3957       2.00000          -2.158427          -58.73379
   3958       2.00000          -2.158417          -58.73351
   3959       2.00000          -2.158415          -58.73347
   3960       2.00000          -2.158410          -58.73332
   3961       2.00000          -2.158400          -58.73306
   3962       2.00000          -2.158395          -58.73293
   3963       2.00000          -2.158385          -58.73264
   3964       2.00000          -2.158384          -58.73261
   3965       2.00000          -2.158377          -58.73242
   3966       2.00000          -2.158371          -58.73225
   3967       2.00000          -2.158365          -58.73210
   3968       2.00000          -2.158355          -58.73182
   3969       2.00000          -2.158305          -58.73046
   3970       2.00000          -2.158298          -58.73027
   3971       2.00000          -2.158297          -58.73026
   3972       2.00000          -2.158285          -58.72991
   3973       2.00000          -2.158280          -58.72978
   3974       2.00000          -2.158273          -58.72960
   3975       2.00000          -2.158268          -58.72945
   3976       2.00000          -2.158263          -58.72931
   3977       2.00000          -2.158253          -58.72904
   3978       2.00000          -2.158251          -58.72900
   3979       2.00000          -2.158243          -58.72878
   3980       2.00000          -2.158214          -58.72799
   3981       2.00000          -2.158113          -58.72523
   3982       2.00000          -2.158109          -58.72513
   3983       2.00000          -2.158096          -58.72477
   3984       2.00000          -2.158094          -58.72471
   3985       2.00000          -2.158066          -58.72397
   3986       2.00000          -2.158064          -58.72390
   3987       2.00000          -2.158052          -58.72357
   3988       2.00000          -2.158046          -58.72342
   3989       2.00000          -2.158034          -58.72309
   3990       2.00000          -2.158033          -58.72306
   3991       2.00000          -2.158028          -58.72292
   3992       2.00000          -2.158022          -58.72276
   3993       2.00000          -2.157905          -58.71958
   3994       2.00000          -2.157905          -58.71958
   3995       2.00000          -2.157900          -58.71945
   3996       2.00000          -2.157896          -58.71934
   3997       2.00000          -2.157776          -58.71608
   3998       2.00000          -2.157771          -58.71593
   3999       2.00000          -2.157768          -58.71585
   4000       2.00000          -2.157764          -58.71576
   4001       2.00000          -2.157759          -58.71560
   4002       2.00000          -2.157755          -58.71551
   4003       2.00000          -2.157748          -58.71532
   4004       2.00000          -2.157745          -58.71523
   4005       2.00000          -2.157602          -58.71135
   4006       2.00000          -2.157570          -58.71048
   4007       2.00000          -2.157557          -58.71010
   4008       2.00000          -2.157554          -58.71004
   4009       2.00000          -2.157538          -58.70960
   4010       2.00000          -2.157523          -58.70918
   4011       2.00000          -2.157516          -58.70899
   4012       2.00000          -2.157514          -58.70893
   4013       2.00000          -2.157506          -58.70872
   4014       2.00000          -2.157471          -58.70776
   4015       2.00000          -2.157440          -58.70693
   4016       2.00000          -2.157439          -58.70690
   4017       2.00000          -2.157399          -58.70582
   4018       2.00000          -2.157392          -58.70561
   4019       2.00000          -2.157378          -58.70525
   4020       2.00000          -2.157370          -58.70502
   4021       2.00000          -2.157329          -58.70392
   4022       2.00000          -2.157329          -58.70391
   4023       2.00000          -2.157321          -58.70369
   4024       2.00000          -2.157315          -58.70354
   4025       2.00000          -2.157303          -58.70319
   4026       2.00000          -2.157294          -58.70297
   4027       2.00000          -2.157285          -58.70270
   4028       2.00000          -2.157283          -58.70267
   4029       2.00000          -2.157259          -58.70200
   4030       2.00000          -2.157258          -58.70197
   4031       2.00000          -2.157256          -58.70192
   4032       2.00000          -2.157249          -58.70174
   4033       2.00000          -2.156868          -58.69137
   4034       2.00000          -2.156856          -58.69104
   4035       2.00000          -2.156804          -58.68961
   4036       2.00000          -2.156781          -58.68899
   4037       2.00000          -2.156773          -58.68878
   4038       2.00000          -2.156738          -58.68783
   4039       2.00000          -2.156730          -58.68761
   4040       2.00000          -2.156730          -58.68760
   4041       2.00000          -2.156720          -58.68734
   4042       2.00000          -2.156688          -58.68647
   4043       2.00000          -2.156687          -58.68644
   4044       2.00000          -2.156653          -58.68551
   4045       2.00000          -2.156651          -58.68545
   4046       2.00000          -2.156650          -58.68544
   4047       2.00000          -2.156623          -58.68470
   4048       2.00000          -2.156553          -58.68279
   4049       2.00000          -2.156544          -58.68254
   4050       2.00000          -2.156533          -58.68224
   4051       2.00000          -2.156517          -58.68182
   4052       2.00000          -2.156502          -58.68141
   4053       2.00000          -2.156494          -58.68120
   4054       2.00000          -2.156490          -58.68108
   4055       2.00000          -2.156489          -58.68106
   4056       2.00000          -2.156485          -58.68095
   4057       2.00000          -2.156484          -58.68090
   4058       2.00000          -2.156480          -58.68081
   4059       2.00000          -2.156480          -58.68080
   4060       2.00000          -2.156478          -58.68076
   4061       2.00000          -2.156470          -58.68053
   4062       2.00000          -2.156462          -58.68033
   4063       2.00000          -2.156462          -58.68032
   4064       2.00000          -2.156419          -58.67914
   4065       2.00000          -2.156418          -58.67913
   4066       2.00000          -2.156416          -58.67905
   4067       2.00000          -2.156411          -58.67894
   4068       2.00000          -2.156403          -58.67872
   4069       2.00000          -2.156401          -58.67864
   4070       2.00000          -2.156396          -58.67853
   4071       2.00000          -2.156395          -58.67850
   4072       2.00000          -2.156388          -58.67831
   4073       2.00000          -2.156385          -58.67822
   4074       2.00000          -2.156342          -58.67704
   4075       2.00000          -2.156340          -58.67698
   4076       2.00000          -2.156337          -58.67692
   4077       2.00000          -2.156333          -58.67681
   4078       2.00000          -2.156305          -58.67603
   4079       2.00000          -2.156282          -58.67542
   4080       2.00000          -2.156274          -58.67521
   4081       2.00000          -2.156271          -58.67512
   4082       2.00000          -2.156255          -58.67470
   4083       2.00000          -2.156252          -58.67460
   4084       2.00000          -2.156251          -58.67456
   4085       2.00000          -2.156248          -58.67449
   4086       2.00000          -2.156239          -58.67425
   4087       2.00000          -2.156237          -58.67420
   4088       2.00000          -2.156234          -58.67413
   4089       2.00000          -2.156234          -58.67410
   4090       2.00000          -2.156161          -58.67211
   4091       2.00000          -2.156160          -58.67210
   4092       2.00000          -2.156156          -58.67199
   4093       2.00000          -2.156150          -58.67181
   4094       2.00000          -2.156147          -58.67173
   4095       2.00000          -2.156141          -58.67157
   4096       2.00000          -2.156141          -58.67157
   4097       2.00000          -2.156137          -58.67146
   4098       2.00000          -2.156110          -58.67073
   4099       2.00000          -2.156104          -58.67056
   4100       2.00000          -2.156021          -58.66832
   4101       2.00000          -2.156007          -58.66794
   4102       2.00000          -2.156007          -58.66793
   4103       2.00000          -2.155999          -58.66773
   4104       2.00000          -2.155989          -58.66745
   4105       2.00000          -2.155979          -58.66717
   4106       2.00000          -2.155976          -58.66709
   4107       2.00000          -2.155971          -58.66696
   4108       2.00000          -2.155971          -58.66695
   4109       2.00000          -2.155966          -58.66682
   4110       2.00000          -2.155966          -58.66681
   4111       2.00000          -2.155963          -58.66674
   4112       2.00000          -2.155960          -58.66666
   4113       2.00000          -2.155957          -58.66658
   4114       2.00000          -2.155955          -58.66652
   4115       2.00000          -2.155955          -58.66651
   4116       2.00000          -2.155941          -58.66613
   4117       2.00000          -2.155933          -58.66592
   4118       2.00000          -2.155925          -58.66570
   4119       2.00000          -2.155920          -58.66558
   4120       2.00000          -2.155909          -58.66526
   4121       2.00000          -2.155907          -58.66522
   4122       2.00000          -2.155906          -58.66518
   4123       2.00000          -2.155900          -58.66502
   4124       2.00000          -2.155801          -58.66233
   4125       2.00000          -2.155791          -58.66207
   4126       2.00000          -2.155788          -58.66197
   4127       2.00000          -2.155786          -58.66191
   4128       2.00000          -2.155766          -58.66139
   4129       2.00000          -2.155765          -58.66135
   4130       2.00000          -2.155764          -58.66131
   4131       2.00000          -2.155762          -58.66127
   4132       2.00000          -2.155757          -58.66113
   4133       2.00000          -2.155756          -58.66112
   4134       2.00000          -2.155756          -58.66111
   4135       2.00000          -2.155755          -58.66107
   4136       2.00000          -2.155752          -58.66098
   4137       2.00000          -2.155749          -58.66092
   4138       2.00000          -2.155747          -58.66086
   4139       2.00000          -2.155747          -58.66085
   4140       2.00000          -2.155742          -58.66073
   4141       2.00000          -2.155740          -58.66068
   4142       2.00000          -2.155740          -58.66066
   4143       2.00000          -2.155739          -58.66063
   4144       2.00000          -2.155727          -58.66031
   4145       2.00000          -2.155725          -58.66025
   4146       2.00000          -2.155723          -58.66022
   4147       2.00000          -2.155723          -58.66020
   4148       2.00000          -2.155717          -58.66006
   4149       2.00000          -2.155715          -58.66000
   4150       2.00000          -2.155703          -58.65967
   4151       2.00000          -2.155702          -58.65963
   4152       2.00000          -2.155701          -58.65960
   4153       2.00000          -2.155700          -58.65958
   4154       2.00000          -2.155687          -58.65924
   4155       2.00000          -2.155669          -58.65873
   4156       2.00000          -2.155647          -58.65813
   4157       2.00000          -2.155633          -58.65776
   4158       2.00000          -2.155618          -58.65736
   4159       2.00000          -2.155589          -58.65657
   4160       2.00000          -2.155587          -58.65652
   4161       2.00000          -2.155583          -58.65639
   4162       2.00000          -2.155581          -58.65634
   4163       2.00000          -2.155576          -58.65621
   4164       2.00000          -2.155571          -58.65606
   4165       2.00000          -2.155569          -58.65602
   4166       2.00000          -2.155567          -58.65595
   4167       2.00000          -2.155562          -58.65583
   4168       2.00000          -2.155561          -58.65579
   4169       2.00000          -2.155554          -58.65561
   4170       2.00000          -2.155540          -58.65522
   4171       2.00000          -2.155525          -58.65483
   4172       2.00000          -2.155503          -58.65422
   4173       2.00000          -2.155497          -58.65407
   4174       2.00000          -2.155497          -58.65405
   4175       2.00000          -2.155495          -58.65402
   4176       2.00000          -2.155432          -58.65228
   4177       2.00000          -2.155431          -58.65226
   4178       2.00000          -2.155415          -58.65183
   4179       2.00000          -2.155405          -58.65156
   4180       2.00000          -2.155401          -58.65144
   4181       2.00000          -2.155395          -58.65128
   4182       2.00000          -2.155391          -58.65117
   4183       2.00000          -2.155384          -58.65099
   4184       2.00000          -2.155381          -58.65089
   4185       2.00000          -2.155380          -58.65088
   4186       2.00000          -2.155380          -58.65087
   4187       2.00000          -2.155378          -58.65081
   4188       2.00000          -2.155370          -58.65061
   4189       2.00000          -2.155367          -58.65053
   4190       2.00000          -2.155360          -58.65033
   4191       2.00000          -2.155352          -58.65012
   4192       2.00000          -2.155352          -58.65010
   4193       2.00000          -2.155343          -58.64986
   4194       2.00000          -2.155337          -58.64970
   4195       2.00000          -2.155334          -58.64963
   4196       2.00000          -2.155334          -58.64962
   4197       2.00000          -2.155320          -58.64925
   4198       2.00000          -2.155291          -58.64846
   4199       2.00000          -2.155284          -58.64827
   4200       2.00000          -2.155274          -58.64798
   4201       2.00000          -2.155271          -58.64792
   4202       2.00000          -2.155228          -58.64673
   4203       2.00000          -2.155228          -58.64673
   4204       2.00000          -2.155223          -58.64659
   4205       2.00000          -2.155220          -58.64653
   4206       2.00000          -2.155194          -58.64581
   4207       2.00000          -2.155193          -58.64579
   4208       2.00000          -2.155190          -58.64572
   4209       2.00000          -2.155189          -58.64566
   4210       2.00000          -2.155180          -58.64544
   4211       2.00000          -2.155176          -58.64533
   4212       2.00000          -2.155173          -58.64525
   4213       2.00000          -2.155172          -58.64522
   4214       2.00000          -2.155111          -58.64356
   4215       2.00000          -2.155109          -58.64349
   4216       2.00000          -2.155106          -58.64343
   4217       2.00000          -2.155104          -58.64337
   4218       2.00000          -2.155098          -58.64319
   4219       2.00000          -2.155095          -58.64312
   4220       2.00000          -2.155093          -58.64307
   4221       2.00000          -2.155089          -58.64295
   4222       2.00000          -2.154991          -58.64028
   4223       2.00000          -2.154984          -58.64010
   4224       2.00000          -2.154980          -58.63998
   4225       2.00000          -2.154975          -58.63984
   4226       2.00000          -2.154784          -58.63466
   4227       2.00000          -2.154782          -58.63461
   4228       2.00000          -2.154780          -58.63455
   4229       2.00000          -2.154765          -58.63413
   4230       2.00000          -2.154749          -58.63371
   4231       2.00000          -2.154747          -58.63366
   4232       2.00000          -2.154747          -58.63365
   4233       2.00000          -2.154743          -58.63354
   4234       2.00000          -2.154726          -58.63308
   4235       2.00000          -2.154724          -58.63301
   4236       2.00000          -2.154713          -58.63273
   4237       2.00000          -2.154709          -58.63261
   4238       2.00000          -2.154705          -58.63252
   4239       2.00000          -2.154705          -58.63250
   4240       2.00000          -2.154703          -58.63246
   4241       2.00000          -2.154702          -58.63243
   4242       2.00000          -2.154696          -58.63227
   4243       2.00000          -2.154694          -58.63219
   4244       2.00000          -2.154692          -58.63215
   4245       2.00000          -2.154689          -58.63208
   4246       2.00000          -2.154687          -58.63203
   4247       2.00000          -2.154687          -58.63202
   4248       2.00000          -2.154687          -58.63201
   4249       2.00000          -2.154685          -58.63195
   4250       2.00000          -2.154683          -58.63191
   4251       2.00000          -2.154679          -58.63180
   4252       2.00000          -2.154678          -58.63176
   4253       2.00000          -2.154671          -58.63157
   4254       2.00000          -2.154657          -58.63121
   4255       2.00000          -2.154656          -58.63117
   4256       2.00000          -2.154655          -58.63115
   4257       2.00000          -2.154651          -58.63103
   4258       2.00000          -2.154345          -58.62272
   4259       2.00000          -2.154340          -58.62256
   4260       2.00000          -2.154329          -58.62229
   4261       2.00000          -2.154328          -58.62225
   4262       2.00000          -2.154320          -58.62204
   4263       2.00000          -2.154320          -58.62202
   4264       2.00000          -2.154317          -58.62196
   4265       2.00000          -2.154316          -58.62193
   4266       2.00000          -2.154313          -58.62183
   4267       2.00000          -2.154309          -58.62173
   4268       2.00000          -2.154303          -58.62158
   4269       2.00000          -2.154301          -58.62151
   4270       2.00000          -2.154295          -58.62134
   4271       2.00000          -2.154293          -58.62129
   4272       2.00000          -2.154287          -58.62112
   4273       2.00000          -2.154283          -58.62103
   4274       2.00000          -2.154020          -58.61386
   4275       2.00000          -2.154014          -58.61371
   4276       2.00000          -2.153858          -58.60947
   4277       2.00000          -2.153835          -58.60882
   4278       2.00000          -2.153832          -58.60876
   4279       2.00000          -2.153825          -58.60855
   4280       2.00000          -2.153692          -58.60494
   4281       2.00000          -2.153678          -58.60455
   4282       2.00000          -2.153670          -58.60434
   4283       2.00000          -2.153652          -58.60386
   4284       2.00000          -2.153623          -58.60307
   4285       2.00000          -2.153604          -58.60254
   4286       2.00000          -2.153589          -58.60213
   4287       2.00000          -2.153567          -58.60153
   4288       2.00000          -2.153562          -58.60140
   4289       2.00000          -2.153544          -58.60092
   4290       2.00000          -2.153543          -58.60089
   4291       2.00000          -2.153528          -58.60049
   4292       2.00000          -2.153512          -58.60004
   4293       2.00000          -2.153496          -58.59960
   4294       2.00000          -2.153467          -58.59881
   4295       2.00000          -2.153456          -58.59853
   4296       2.00000          -2.153441          -58.59810
   4297       2.00000          -2.153435          -58.59796
   4298       2.00000          -2.153433          -58.59789
   4299       2.00000          -2.153423          -58.59761
   4300       2.00000          -2.153421          -58.59757
   4301       2.00000          -2.153408          -58.59722
   4302       2.00000          -2.153388          -58.59668
   4303       2.00000          -2.153384          -58.59655
   4304       2.00000          -2.153371          -58.59620
   4305       2.00000          -2.153364          -58.59601
   4306       2.00000          -2.153351          -58.59567
   4307       2.00000          -2.153338          -58.59530
   4308       2.00000          -2.153337          -58.59529
   4309       2.00000          -2.153322          -58.59486
   4310       2.00000          -2.153307          -58.59446
   4311       2.00000          -2.153300          -58.59428
   4312       2.00000          -2.153290          -58.59400
   4313       2.00000          -2.153285          -58.59386
   4314       2.00000          -2.153276          -58.59363
   4315       2.00000          -2.153276          -58.59363
   4316       2.00000          -2.153268          -58.59340
   4317       2.00000          -2.153266          -58.59334
   4318       2.00000          -2.153265          -58.59331
   4319       2.00000          -2.153254          -58.59302
   4320       2.00000          -2.153247          -58.59284
   4321       2.00000          -2.153243          -58.59272
   4322       2.00000          -2.152903          -58.58346
   4323       2.00000          -2.152841          -58.58179
   4324       2.00000          -2.152771          -58.57988
   4325       2.00000          -2.152743          -58.57912
   4326       2.00000          -2.152737          -58.57894
   4327       2.00000          -2.152726          -58.57865
   4328       2.00000          -2.152723          -58.57857
   4329       2.00000          -2.152719          -58.57846
   4330       2.00000          -2.152716          -58.57838
   4331       2.00000          -2.152714          -58.57832
   4332       2.00000          -2.152701          -58.57798
   4333       2.00000          -2.152695          -58.57782
   4334       2.00000          -2.152695          -58.57782
   4335       2.00000          -2.152695          -58.57781
   4336       2.00000          -2.152691          -58.57770
   4337       2.00000          -2.152691          -58.57770
   4338       2.00000          -2.152690          -58.57767
   4339       2.00000          -2.152690          -58.57767
   4340       2.00000          -2.152690          -58.57767
   4341       2.00000          -2.152689          -58.57766
   4342       2.00000          -2.152689          -58.57764
   4343       2.00000          -2.152687          -58.57758
   4344       2.00000          -2.152684          -58.57750
   4345       2.00000          -2.152680          -58.57741
   4346       2.00000          -2.152680          -58.57740
   4347       2.00000          -2.152678          -58.57736
   4348       2.00000          -2.152677          -58.57733
   4349       2.00000          -2.152674          -58.57724
   4350       2.00000          -2.152649          -58.57657
   4351       2.00000          -2.152622          -58.57584
   4352       2.00000          -2.152622          -58.57583
   4353       2.00000          -2.152594          -58.57506
   4354       2.00000          -2.152594          -58.57505
   4355       2.00000          -2.152581          -58.57471
   4356       2.00000          -2.152580          -58.57467
   4357       2.00000          -2.152560          -58.57414
   4358       2.00000          -2.152558          -58.57408
   4359       2.00000          -2.152549          -58.57385
   4360       2.00000          -2.152549          -58.57385
   4361       2.00000          -2.152541          -58.57362
   4362       2.00000          -2.152539          -58.57356
   4363       2.00000          -2.152533          -58.57342
   4364       2.00000          -2.152531          -58.57335
   4365       2.00000          -2.152518          -58.57300
   4366       2.00000          -2.152516          -58.57293
   4367       2.00000          -2.152513          -58.57285
   4368       2.00000          -2.152510          -58.57277
   4369       2.00000          -2.152504          -58.57261
   4370       2.00000          -2.152503          -58.57259
   4371       2.00000          -2.152491          -58.57226
   4372       2.00000          -2.152447          -58.57108
   4373       2.00000          -2.152415          -58.57019
   4374       2.00000          -2.152401          -58.56980
   4375       2.00000          -2.152391          -58.56953
   4376       2.00000          -2.152379          -58.56922
   4377       2.00000          -2.152374          -58.56909
   4378       2.00000          -2.152373          -58.56906
   4379       2.00000          -2.152372          -58.56902
   4380       2.00000          -2.152370          -58.56898
   4381       2.00000          -2.152366          -58.56885
   4382       2.00000          -2.152365          -58.56884
   4383       2.00000          -2.152365          -58.56884
   4384       2.00000          -2.152364          -58.56881
   4385       2.00000          -2.152362          -58.56876
   4386       2.00000          -2.152360          -58.56870
   4387       2.00000          -2.152359          -58.56866
   4388       2.00000          -2.152354          -58.56854
   4389       2.00000          -2.152350          -58.56841
   4390       2.00000          -2.152349          -58.56841
   4391       2.00000          -2.152349          -58.56841
   4392       2.00000          -2.152349          -58.56840
   4393       2.00000          -2.152349          -58.56840
   4394       2.00000          -2.152349          -58.56839
   4395       2.00000          -2.152349          -58.56839
   4396       2.00000          -2.152349          -58.56839
   4397       2.00000          -2.152349          -58.56839
   4398       2.00000          -2.152349          -58.56838
   4399       2.00000          -2.152347          -58.56835
   4400       2.00000          -2.152346          -58.56831
   4401       2.00000          -2.152338          -58.56810
   4402       2.00000          -2.152338          -58.56810
   4403       2.00000          -2.152338          -58.56810
   4404       2.00000          -2.152338          -58.56810
   4405       2.00000          -2.152332          -58.56793
   4406       2.00000          -2.152332          -58.56792
   4407       2.00000          -2.152331          -58.56792
   4408       2.00000          -2.152331          -58.56792
   4409       2.00000          -2.152294          -58.56691
   4410       2.00000          -2.152289          -58.56677
   4411       2.00000          -2.152172          -58.56358
   4412       2.00000          -2.152171          -58.56355
   4413       2.00000          -2.152125          -58.56230
   4414       2.00000          -2.152113          -58.56197
   4415       2.00000          -2.152101          -58.56164
   4416       2.00000          -2.152089          -58.56131
   4417       2.00000          -2.152079          -58.56104
   4418       2.00000          -2.152078          -58.56102
   4419       2.00000          -2.152041          -58.56001
   4420       2.00000          -2.151994          -58.55874
   4421       2.00000          -2.151966          -58.55798
   4422       2.00000          -2.151947          -58.55747
   4423       2.00000          -2.151946          -58.55742
   4424       2.00000          -2.151937          -58.55720
   4425       2.00000          -2.151935          -58.55713
   4426       2.00000          -2.151903          -58.55626
   4427       2.00000          -2.151900          -58.55618
   4428       2.00000          -2.151881          -58.55566
   4429       2.00000          -2.151852          -58.55486
   4430       2.00000          -2.151850          -58.55481
   4431       2.00000          -2.151844          -58.55466
   4432       2.00000          -2.151836          -58.55443
   4433       2.00000          -2.151834          -58.55437
   4434       2.00000          -2.151823          -58.55408
   4435       2.00000          -2.151822          -58.55405
   4436       2.00000          -2.151821          -58.55402
   4437       2.00000          -2.151816          -58.55389
   4438       2.00000          -2.151812          -58.55377
   4439       2.00000          -2.151809          -58.55369
   4440       2.00000          -2.151808          -58.55366
   4441       2.00000          -2.151800          -58.55346
   4442       2.00000          -2.151793          -58.55327
   4443       2.00000          -2.151787          -58.55311
   4444       2.00000          -2.151785          -58.55306
   4445       2.00000          -2.151783          -58.55300
   4446       2.00000          -2.151781          -58.55293
   4447       2.00000          -2.151779          -58.55288
   4448       2.00000          -2.151779          -58.55287
   4449       2.00000          -2.151773          -58.55272
   4450       2.00000          -2.151769          -58.55261
   4451       2.00000          -2.151763          -58.55246
   4452       2.00000          -2.151760          -58.55237
   4453       2.00000          -2.151758          -58.55231
   4454       2.00000          -2.151757          -58.55229
   4455       2.00000          -2.151754          -58.55221
   4456       2.00000          -2.151753          -58.55218
   4457       2.00000          -2.151751          -58.55213
   4458       2.00000          -2.151745          -58.55197
   4459       2.00000          -2.151741          -58.55185
   4460       2.00000          -2.151741          -58.55184
   4461       2.00000          -2.151734          -58.55167
   4462       2.00000          -2.151731          -58.55157
   4463       2.00000          -2.151728          -58.55151
   4464       2.00000          -2.151727          -58.55146
   4465       2.00000          -2.151727          -58.55146
   4466       2.00000          -2.151724          -58.55138
   4467       2.00000          -2.151722          -58.55134
   4468       2.00000          -2.151715          -58.55113
   4469       2.00000          -2.151715          -58.55113
   4470       2.00000          -2.151705          -58.55087
   4471       2.00000          -2.151705          -58.55086
   4472       2.00000          -2.151705          -58.55086
   4473       2.00000          -2.151701          -58.55077
   4474       2.00000          -2.151700          -58.55073
   4475       2.00000          -2.151698          -58.55067
   4476       2.00000          -2.151696          -58.55063
   4477       2.00000          -2.151689          -58.55044
   4478       2.00000          -2.151678          -58.55015
   4479       2.00000          -2.151677          -58.55010
   4480       2.00000          -2.151674          -58.55002
   4481       2.00000          -2.151668          -58.54988
   4482       2.00000          -2.151664          -58.54974
   4483       2.00000          -2.151662          -58.54970
   4484       2.00000          -2.151655          -58.54952
   4485       2.00000          -2.151649          -58.54934
   4486       2.00000          -2.151632          -58.54887
   4487       2.00000          -2.151630          -58.54883
   4488       2.00000          -2.151630          -58.54883
   4489       2.00000          -2.151624          -58.54866
   4490       2.00000          -2.151617          -58.54848
   4491       2.00000          -2.151612          -58.54835
   4492       2.00000          -2.151610          -58.54830
   4493       2.00000          -2.151606          -58.54818
   4494       2.00000          -2.151593          -58.54784
   4495       2.00000          -2.151593          -58.54783
   4496       2.00000          -2.151587          -58.54765
   4497       2.00000          -2.151583          -58.54757
   4498       2.00000          -2.151558          -58.54687
   4499       2.00000          -2.151557          -58.54684
   4500       2.00000          -2.151557          -58.54684
   4501       2.00000          -2.151557          -58.54683
   4502       2.00000          -2.151541          -58.54640
   4503       2.00000          -2.151540          -58.54638
   4504       2.00000          -2.151540          -58.54638
   4505       2.00000          -2.151540          -58.54638
   4506       2.00000          -2.151539          -58.54635
   4507       2.00000          -2.151538          -58.54633
   4508       2.00000          -2.151538          -58.54633
   4509       2.00000          -2.151538          -58.54632
   4510       2.00000          -2.151523          -58.54593
   4511       2.00000          -2.151510          -58.54557
   4512       2.00000          -2.151510          -58.54557
   4513       2.00000          -2.151510          -58.54557
   4514       2.00000          -2.151510          -58.54557
   4515       2.00000          -2.151507          -58.54548
   4516       2.00000          -2.151507          -58.54547
   4517       2.00000          -2.151506          -58.54547
   4518       2.00000          -2.151506          -58.54546
   4519       2.00000          -2.151476          -58.54464
   4520       2.00000          -2.151471          -58.54450
   4521       2.00000          -2.151471          -58.54450
   4522       2.00000          -2.151471          -58.54450
   4523       2.00000          -2.151471          -58.54450
   4524       2.00000          -2.151471          -58.54449
   4525       2.00000          -2.151471          -58.54449
   4526       2.00000          -2.151471          -58.54449
   4527       2.00000          -2.151471          -58.54449
   4528       2.00000          -2.151456          -58.54411
   4529       2.00000          -2.151456          -58.54411
   4530       2.00000          -2.151456          -58.54410
   4531       2.00000          -2.151456          -58.54410
   4532       2.00000          -2.151438          -58.54360
   4533       2.00000          -2.151431          -58.54342
   4534       2.00000          -2.151413          -58.54294
   4535       2.00000          -2.151403          -58.54266
   4536       2.00000          -2.151357          -58.54142
   4537       2.00000          -2.151355          -58.54134
   4538       2.00000          -2.151348          -58.54116
   4539       2.00000          -2.151345          -58.54108
   4540       2.00000          -2.151325          -58.54053
   4541       2.00000          -2.151315          -58.54025
   4542       2.00000          -2.151309          -58.54010
   4543       2.00000          -2.151297          -58.53976
   4544       2.00000          -2.151273          -58.53911
   4545       2.00000          -2.151264          -58.53886
   4546       2.00000          -2.150791          -58.52600
   4547       2.00000          -2.150788          -58.52591
   4548       2.00000          -2.150788          -58.52591
   4549       2.00000          -2.150787          -58.52590
   4550       2.00000          -2.150787          -58.52589
   4551       2.00000          -2.150784          -58.52582
   4552       2.00000          -2.150784          -58.52582
   4553       2.00000          -2.150784          -58.52582
   4554       2.00000          -2.150784          -58.52582
   4555       2.00000          -2.150732          -58.52440
   4556       2.00000          -2.150732          -58.52440
   4557       2.00000          -2.150732          -58.52439
   4558       2.00000          -2.150732          -58.52439
   4559       2.00000          -2.150732          -58.52438
   4560       2.00000          -2.150731          -58.52438
   4561       2.00000          -2.150731          -58.52437
   4562       2.00000          -2.150731          -58.52437
   4563       2.00000          -2.150728          -58.52429
   4564       2.00000          -2.150728          -58.52429
   4565       2.00000          -2.150728          -58.52428
   4566       2.00000          -2.150728          -58.52428
   4567       2.00000          -2.150714          -58.52390
   4568       2.00000          -2.150714          -58.52390
   4569       2.00000          -2.150714          -58.52389
   4570       2.00000          -2.150713          -58.52389
   4571       2.00000          -2.150713          -58.52389
   4572       2.00000          -2.150713          -58.52389
   4573       2.00000          -2.150713          -58.52389
   4574       2.00000          -2.150713          -58.52389
   4575       2.00000          -2.150711          -58.52383
   4576       2.00000          -2.150711          -58.52383
   4577       2.00000          -2.150711          -58.52383
   4578       2.00000          -2.150711          -58.52382
   4579       2.00000          -2.150709          -58.52378
   4580       2.00000          -2.150709          -58.52378
   4581       2.00000          -2.150709          -58.52378
   4582       2.00000          -2.150709          -58.52377
   4583       2.00000          -2.150708          -58.52375
   4584       2.00000          -2.150708          -58.52375
   4585       2.00000          -2.150688          -58.52320
   4586       2.00000          -2.150688          -58.52319
   4587       2.00000          -2.150688          -58.52319
   4588       2.00000          -2.150687          -58.52318
   4589       2.00000          -2.150680          -58.52298
   4590       2.00000          -2.150680          -58.52298
   4591       2.00000          -2.150680          -58.52298
   4592       2.00000          -2.150680          -58.52298
   4593       2.00000          -2.150680          -58.52297
   4594       2.00000          -2.150680          -58.52297
   4595       2.00000          -2.150680          -58.52297
   4596       2.00000          -2.150679          -58.52297
   4597       2.00000          -2.150678          -58.52293
   4598       2.00000          -2.150678          -58.52293
   4599       2.00000          -2.150678          -58.52293
   4600       2.00000          -2.150678          -58.52292
   4601       2.00000          -2.150670          -58.52270
   4602       2.00000          -2.150669          -58.52269
   4603       2.00000          -2.150669          -58.52268
   4604       2.00000          -2.150669          -58.52268
   4605       2.00000          -2.150668          -58.52264
   4606       2.00000          -2.150667          -58.52264
   4607       2.00000          -2.150667          -58.52264
   4608       2.00000          -2.150667          -58.52264
   4609       2.00000          -2.150667          -58.52262
   4610       2.00000          -2.150667          -58.52262
   4611       2.00000          -2.150667          -58.52261
   4612       2.00000          -2.150667          -58.52261
   4613       2.00000          -2.150663          -58.52251
   4614       2.00000          -2.150663          -58.52251
   4615       2.00000          -2.150663          -58.52251
   4616       2.00000          -2.150662          -58.52250
   4617       2.00000          -2.150656          -58.52232
   4618       2.00000          -2.150634          -58.52173
   4619       2.00000          -2.150634          -58.52172
   4620       2.00000          -2.150634          -58.52172
   4621       2.00000          -2.150633          -58.52171
   4622       2.00000          -2.150601          -58.52083
   4623       2.00000          -2.150601          -58.52083
   4624       2.00000          -2.150601          -58.52083
   4625       2.00000          -2.150601          -58.52082
   4626       2.00000          -2.150601          -58.52082
   4627       2.00000          -2.150601          -58.52082
   4628       2.00000          -2.150601          -58.52082
   4629       2.00000          -2.150601          -58.52082
   4630       2.00000          -2.150557          -58.51965
   4631       2.00000          -2.150557          -58.51965
   4632       2.00000          -2.150557          -58.51965
   4633       2.00000          -2.150557          -58.51965
   4634       2.00000          -2.150557          -58.51965
   4635       2.00000          -2.150557          -58.51965
   4636       2.00000          -2.150557          -58.51964
   4637       2.00000          -2.150557          -58.51964
   4638       2.00000          -2.150540          -58.51916
   4639       2.00000          -2.150540          -58.51916
   4640       2.00000          -2.150540          -58.51916
   4641       2.00000          -2.150540          -58.51916
   4642       2.00000          -2.150316          -58.51307
   4643       2.00000          -2.150316          -58.51307
   4644       2.00000          -2.150294          -58.51249
   4645       2.00000          -2.150294          -58.51249
   4646       2.00000          -2.150294          -58.51249
   4647       2.00000          -2.150294          -58.51249
   4648       2.00000          -2.150243          -58.51109
   4649       2.00000          -2.150243          -58.51109
   4650       2.00000          -2.150243          -58.51109
   4651       2.00000          -2.150243          -58.51108
   4652       2.00000          -2.150191          -58.50968
   4653       2.00000          -2.150191          -58.50968
   4654       2.00000          -2.150191          -58.50968
   4655       2.00000          -2.150191          -58.50968
   4656       2.00000          -2.150170          -58.50910
   4657       2.00000          -2.150170          -58.50910
   4658       2.00000          -1.077329          -29.31563
   4659       2.00000          -1.066564          -29.02269
   4660       2.00000          -1.064929          -28.97818
   4661       2.00000          -1.043900          -28.40596
   4662       2.00000          -1.021421          -27.79429
   4663       2.00000          -0.992658          -27.01159
   4664       2.00000          -0.989116          -26.91520
   4665       2.00000          -0.975614          -26.54782
   4666       2.00000          -0.966378          -26.29648
   4667       2.00000          -0.965278          -26.26655
   4668       2.00000          -0.964489          -26.24509
   4669       2.00000          -0.955016          -25.98731
   4670       2.00000          -0.883868          -24.05128
   4671       2.00000          -0.877325          -23.87323
   4672       2.00000          -0.876435          -23.84901
   4673       2.00000          -0.874257          -23.78975
   4674       2.00000          -0.874057          -23.78429
   4675       2.00000          -0.872073          -23.73030
   4676       2.00000          -0.870640          -23.69132
   4677       2.00000          -0.869074          -23.64871
   4678       2.00000          -0.825559          -22.46461
   4679       2.00000          -0.802934          -21.84895
   4680       2.00000          -0.795250          -21.63985
   4681       2.00000          -0.755348          -20.55407
   4682       2.00000          -0.754337          -20.52656
   4683       2.00000          -0.752158          -20.46727
   4684       2.00000          -0.751339          -20.44498
   4685       2.00000          -0.746542          -20.31443
   4686       2.00000          -0.739364          -20.11911
   4687       2.00000          -0.719292          -19.57292
   4688       2.00000          -0.718447          -19.54995
   4689       2.00000          -0.711475          -19.36021
   4690       2.00000          -0.695001          -18.91194
   4691       2.00000          -0.673244          -18.31991
   4692       2.00000          -0.668314          -18.18574
   4693       2.00000          -0.667572          -18.16557
   4694       2.00000          -0.651342          -17.72391
   4695       2.00000          -0.650466          -17.70009
   4696       2.00000          -0.648485          -17.64617
   4697       2.00000          -0.620023          -16.87167
   4698       2.00000          -0.618216          -16.82251
   4699       2.00000          -0.614522          -16.72199
   4700       2.00000          -0.612180          -16.65825
   4701       2.00000          -0.610736          -16.61897
   4702       2.00000          -0.608881          -16.56850
   4703       2.00000          -0.602652          -16.39899
   4704       2.00000          -0.598867          -16.29599
   4705       2.00000          -0.581175          -15.81457
   4706       2.00000          -0.580133          -15.78623
   4707       2.00000          -0.568234          -15.46244
   4708       2.00000          -0.567491          -15.44221
   4709       2.00000          -0.565860          -15.39784
   4710       2.00000          -0.560918          -15.26334
   4711       2.00000          -0.560746          -15.25867
   4712       2.00000          -0.560355          -15.24804
   4713       2.00000          -0.559322          -15.21994
   4714       2.00000          -0.548940          -14.93741
   4715       2.00000          -0.537862          -14.63596
   4716       2.00000          -0.536965          -14.61156
   4717       2.00000          -0.519657          -14.14058
   4718       2.00000          -0.514502          -14.00032
   4719       2.00000          -0.511363          -13.91490
   4720       2.00000          -0.509389          -13.86118
   4721       2.00000          -0.507496          -13.80967
   4722       2.00000          -0.503194          -13.69262
   4723       2.00000          -0.493240          -13.42174
   4724       2.00000          -0.490437          -13.34546
   4725       2.00000          -0.489612          -13.32303
   4726       2.00000          -0.487299          -13.26007
   4727       2.00000          -0.482284          -13.12361
   4728       2.00000          -0.482165          -13.12038
   4729       2.00000          -0.481659          -13.10662
   4730       2.00000          -0.480593          -13.07759
   4731       2.00000          -0.471745          -12.83682
   4732       2.00000          -0.462101          -12.57441
   4733       2.00000          -0.459169          -12.49462
   4734       2.00000          -0.458397          -12.47363
   4735       2.00000          -0.435414          -11.84822
   4736       2.00000          -0.432875          -11.77914
   4737       2.00000          -0.432841          -11.77820
   4738       2.00000          -0.423835          -11.53313
   4739       2.00000          -0.413341          -11.24759
   4740       2.00000          -0.413096          -11.24091
   4741       2.00000          -0.413067          -11.24013
   4742       2.00000          -0.412986          -11.23793
   4743       2.00000          -0.410593          -11.17280
   4744       2.00000          -0.409652          -11.14720
   4745       2.00000          -0.409428          -11.14110
   4746       2.00000          -0.402914          -10.96385
   4747       2.00000          -0.402771          -10.95995
   4748       2.00000          -0.402606          -10.95546
   4749       2.00000          -0.402530          -10.95341
   4750       2.00000          -0.401433          -10.92354
   4751       2.00000          -0.398757          -10.85073
   4752       2.00000          -0.398190          -10.83530
   4753       2.00000          -0.397785          -10.82429
   4754       2.00000          -0.396703          -10.79484
   4755       2.00000          -0.395867          -10.77209
   4756       2.00000          -0.391336          -10.64880
   4757       2.00000          -0.386572          -10.51915
   4758       2.00000          -0.386469          -10.51636
   4759       2.00000          -0.386408          -10.51471
   4760       2.00000          -0.386395          -10.51434
   4761       2.00000          -0.382136          -10.39844
   4762       2.00000          -0.381287          -10.37536
   4763       2.00000          -0.380344          -10.34969
   4764       2.00000          -0.377575          -10.27433
   4765       2.00000          -0.377095          -10.26126
   4766       2.00000          -0.377040          -10.25979
   4767       2.00000          -0.376985          -10.25829
   4768       2.00000          -0.376881          -10.25546
   4769       2.00000          -0.376872          -10.25520
   4770       2.00000          -0.376806          -10.25341
   4771       2.00000          -0.376793          -10.25307
   4772       2.00000          -0.375893          -10.22858
   4773       2.00000          -0.374033          -10.17795
   4774       2.00000          -0.368743          -10.03401
   4775       2.00000          -0.368722          -10.03342
   4776       2.00000          -0.368632          -10.03100
   4777       2.00000          -0.368610          -10.03039
   4778       2.00000          -0.367367           -9.99656
   4779       2.00000          -0.367184           -9.99157
   4780       2.00000          -0.366943           -9.98501
   4781       2.00000          -0.366919           -9.98437
   4782       2.00000          -0.366847           -9.98240
   4783       2.00000          -0.366649           -9.97701
   4784       2.00000          -0.365929           -9.95745
   4785       2.00000          -0.364989           -9.93187
   4786       2.00000          -0.364938           -9.93047
   4787       2.00000          -0.363664           -9.89580
   4788       2.00000          -0.363624           -9.89472
   4789       2.00000          -0.363322           -9.88649
   4790       2.00000          -0.362032           -9.85139
   4791       2.00000          -0.362010           -9.85080
   4792       2.00000          -0.361991           -9.85028
   4793       2.00000          -0.361951           -9.84918
   4794       2.00000          -0.361430           -9.83500
   4795       2.00000          -0.360968           -9.82244
   4796       2.00000          -0.360697           -9.81506
   4797       2.00000          -0.360693           -9.81495
   4798       2.00000          -0.360680           -9.81461
   4799       2.00000          -0.360658           -9.81401
   4800       2.00000          -0.360587           -9.81208
   4801       2.00000          -0.360507           -9.80990
   4802       2.00000          -0.360502           -9.80977
   4803       2.00000          -0.360320           -9.80482
   4804       2.00000          -0.360294           -9.80409
   4805       2.00000          -0.360259           -9.80316
   4806       2.00000          -0.360194           -9.80138
   4807       2.00000          -0.359843           -9.79183
   4808       2.00000          -0.359551           -9.78387
   4809       2.00000          -0.359533           -9.78339
   4810       2.00000          -0.359450           -9.78112
   4811       2.00000          -0.359340           -9.77814
   4812       2.00000          -0.359305           -9.77718
   4813       2.00000          -0.359299           -9.77703
   4814       2.00000          -0.359253           -9.77578
   4815       2.00000          -0.359200           -9.77434
   4816       2.00000          -0.358484           -9.75484
   4817       2.00000          -0.358285           -9.74943
   4818       2.00000          -0.358262           -9.74881
   4819       2.00000          -0.358229           -9.74790
   4820       2.00000          -0.358144           -9.74559
   4821       2.00000          -0.358138           -9.74543
   4822       2.00000          -0.358134           -9.74532
   4823       2.00000          -0.358129           -9.74520
   4824       2.00000          -0.357796           -9.73611
   4825       2.00000          -0.357743           -9.73468
   4826       2.00000          -0.357702           -9.73357
   4827       2.00000          -0.357652           -9.73220
   4828       2.00000          -0.357544           -9.72927
   4829       2.00000          -0.357534           -9.72898
   4830       2.00000          -0.357510           -9.72833
   4831       2.00000          -0.357483           -9.72761
   4832       2.00000          -0.356780           -9.70847
   4833       2.00000          -0.356751           -9.70768
   4834       2.00000          -0.356733           -9.70721
   4835       2.00000          -0.356664           -9.70533
   4836       2.00000          -0.356622           -9.70417
   4837       2.00000          -0.356608           -9.70381
   4838       2.00000          -0.356053           -9.68870
   4839       2.00000          -0.355987           -9.68689
   4840       2.00000          -0.355916           -9.68497
   4841       2.00000          -0.355897           -9.68444
   4842       2.00000          -0.355277           -9.66757
   4843       2.00000          -0.355182           -9.66499
   4844       2.00000          -0.355179           -9.66491
   4845       2.00000          -0.355171           -9.66470
   4846       2.00000          -0.355108           -9.66298
   4847       2.00000          -0.355071           -9.66198
   4848       2.00000          -0.355064           -9.66179
   4849       2.00000          -0.355022           -9.66063
   4850       2.00000          -0.353789           -9.62709
   4851       2.00000          -0.353751           -9.62606
   4852       2.00000          -0.353727           -9.62541
   4853       2.00000          -0.353693           -9.62448
   4854       2.00000          -0.353675           -9.62400
   4855       2.00000          -0.353602           -9.62199
   4856       2.00000          -0.353571           -9.62115
   4857       2.00000          -0.353559           -9.62083
   4858       2.00000          -0.353543           -9.62040
   4859       2.00000          -0.353530           -9.62003
   4860       2.00000          -0.353495           -9.61908
   4861       2.00000          -0.353468           -9.61835
   4862       2.00000          -0.353057           -9.60718
   4863       2.00000          -0.353039           -9.60667
   4864       2.00000          -0.353031           -9.60647
   4865       2.00000          -0.352995           -9.60547
   4866       2.00000          -0.351506           -9.56497
   4867       2.00000          -0.351487           -9.56445
   4868       2.00000          -0.351457           -9.56364
   4869       2.00000          -0.351449           -9.56341
   4870       2.00000          -0.351399           -9.56204
   4871       2.00000          -0.351396           -9.56196
   4872       2.00000          -0.351366           -9.56115
   4873       2.00000          -0.351365           -9.56112
   4874       2.00000          -0.350417           -9.53534
   4875       2.00000          -0.350413           -9.53523
   4876       2.00000          -0.350382           -9.53437
   4877       2.00000          -0.350380           -9.53433
   4878       2.00000          -0.350229           -9.53021
   4879       2.00000          -0.350186           -9.52905
   4880       2.00000          -0.350183           -9.52896
   4881       2.00000          -0.350158           -9.52828
   4882       2.00000          -0.349972           -9.52324
   4883       2.00000          -0.349850           -9.51991
   4884       2.00000          -0.349792           -9.51833
   4885       2.00000          -0.349752           -9.51724
   4886       2.00000          -0.349593           -9.51290
   4887       2.00000          -0.349583           -9.51263
   4888       2.00000          -0.349513           -9.51074
   4889       2.00000          -0.349489           -9.51009
   4890       2.00000          -0.349404           -9.50776
   4891       2.00000          -0.349392           -9.50744
   4892       2.00000          -0.349389           -9.50736
   4893       2.00000          -0.349332           -9.50581
   4894       2.00000          -0.348875           -9.49337
   4895       2.00000          -0.348854           -9.49279
   4896       2.00000          -0.348804           -9.49143
   4897       2.00000          -0.348778           -9.49073
   4898       2.00000          -0.348693           -9.48842
   4899       2.00000          -0.348447           -9.48172
   4900       2.00000          -0.348417           -9.48091
   4901       2.00000          -0.348383           -9.47999
   4902       2.00000          -0.348370           -9.47963
   4903       2.00000          -0.348346           -9.47898
   4904       2.00000          -0.348292           -9.47751
   4905       2.00000          -0.348175           -9.47432
   4906       2.00000          -0.347362           -9.45219
   4907       2.00000          -0.347332           -9.45139
   4908       2.00000          -0.347307           -9.45072
   4909       2.00000          -0.347137           -9.44609
   4910       2.00000          -0.346912           -9.43995
   4911       2.00000          -0.346642           -9.43262
   4912       2.00000          -0.346623           -9.43210
   4913       2.00000          -0.346588           -9.43113
   4914       2.00000          -0.346571           -9.43068
   4915       2.00000          -0.346003           -9.41522
   4916       2.00000          -0.345984           -9.41471
   4917       2.00000          -0.345976           -9.41448
   4918       2.00000          -0.345973           -9.41441
   4919       2.00000          -0.345938           -9.41345
   4920       2.00000          -0.345936           -9.41339
   4921       2.00000          -0.345925           -9.41309
   4922       2.00000          -0.345899           -9.41239
   4923       2.00000          -0.345001           -9.38795
   4924       2.00000          -0.344983           -9.38747
   4925       2.00000          -0.344975           -9.38725
   4926       2.00000          -0.344912           -9.38554
   4927       2.00000          -0.342738           -9.32638
   4928       2.00000          -0.342704           -9.32545
   4929       2.00000          -0.342697           -9.32527
   4930       2.00000          -0.342689           -9.32504
   4931       2.00000          -0.342182           -9.31124
   4932       2.00000          -0.342159           -9.31061
   4933       2.00000          -0.342143           -9.31017
   4934       2.00000          -0.342091           -9.30876
   4935       2.00000          -0.342043           -9.30746
   4936       2.00000          -0.342042           -9.30744
   4937       2.00000          -0.342026           -9.30700
   4938       2.00000          -0.341981           -9.30577
   4939       2.00000          -0.340979           -9.27851
   4940       2.00000          -0.340954           -9.27783
   4941       2.00000          -0.340822           -9.27423
   4942       2.00000          -0.340796           -9.27354
   4943       2.00000          -0.340786           -9.27325
   4944       2.00000          -0.340761           -9.27259
   4945       2.00000          -0.340749           -9.27226
   4946       2.00000          -0.340717           -9.27138
   4947       2.00000          -0.340708           -9.27113
   4948       2.00000          -0.340672           -9.27015
   4949       2.00000          -0.340605           -9.26835
   4950       2.00000          -0.340550           -9.26683
   4951       2.00000          -0.340518           -9.26597
   4952       2.00000          -0.340491           -9.26523
   4953       2.00000          -0.340424           -9.26341
   4954       2.00000          -0.340421           -9.26332
   4955       2.00000          -0.340385           -9.26234
   4956       2.00000          -0.340373           -9.26203
   4957       2.00000          -0.340360           -9.26168
   4958       2.00000          -0.340344           -9.26124
   4959       2.00000          -0.340221           -9.25789
   4960       2.00000          -0.340206           -9.25749
   4961       2.00000          -0.340199           -9.25729
   4962       2.00000          -0.340192           -9.25710
   4963       2.00000          -0.340187           -9.25695
   4964       2.00000          -0.338931           -9.22278
   4965       2.00000          -0.337649           -9.18790
   4966       2.00000          -0.337634           -9.18750
   4967       2.00000          -0.337589           -9.18627
   4968       2.00000          -0.337573           -9.18582
   4969       2.00000          -0.336329           -9.15199
   4970       2.00000          -0.336224           -9.14913
   4971       2.00000          -0.336221           -9.14905
   4972       2.00000          -0.336212           -9.14878
   4973       2.00000          -0.336179           -9.14791
   4974       2.00000          -0.336172           -9.14770
   4975       2.00000          -0.336157           -9.14731
   4976       2.00000          -0.336117           -9.14621
   4977       2.00000          -0.336097           -9.14567
   4978       2.00000          -0.336028           -9.14377
   4979       2.00000          -0.336013           -9.14337
   4980       2.00000          -0.335950           -9.14168
   4981       2.00000          -0.335925           -9.14097
   4982       2.00000          -0.335901           -9.14032
   4983       2.00000          -0.335879           -9.13974
   4984       2.00000          -0.335626           -9.13285
   4985       2.00000          -0.335597           -9.13207
   4986       2.00000          -0.335354           -9.12544
   4987       2.00000          -0.335338           -9.12500
   4988       2.00000          -0.335299           -9.12395
   4989       2.00000          -0.335267           -9.12308
   4990       2.00000          -0.335216           -9.12169
   4991       2.00000          -0.335198           -9.12121
   4992       2.00000          -0.335185           -9.12084
   4993       2.00000          -0.335162           -9.12022
   4994       2.00000          -0.335151           -9.11993
   4995       2.00000          -0.335146           -9.11979
   4996       2.00000          -0.335011           -9.11611
   4997       2.00000          -0.334961           -9.11475
   4998       2.00000          -0.334952           -9.11450
   4999       2.00000          -0.334945           -9.11431
   5000       2.00000          -0.334127           -9.09205
   5001       2.00000          -0.334116           -9.09176
   5002       2.00000          -0.333939           -9.08695
   5003       2.00000          -0.333894           -9.08573
   5004       2.00000          -0.333836           -9.08414
   5005       2.00000          -0.333779           -9.08258
   5006       2.00000          -0.333741           -9.08156
   5007       2.00000          -0.333707           -9.08064
   5008       2.00000          -0.333668           -9.07956
   5009       2.00000          -0.333627           -9.07844
   5010       2.00000          -0.333610           -9.07799
   5011       2.00000          -0.333589           -9.07741
   5012       2.00000          -0.333569           -9.07687
   5013       2.00000          -0.333551           -9.07639
   5014       2.00000          -0.333550           -9.07635
   5015       2.00000          -0.333376           -9.07162
   5016       2.00000          -0.333369           -9.07143
   5017       2.00000          -0.333366           -9.07135
   5018       2.00000          -0.333349           -9.07088
   5019       2.00000          -0.333303           -9.06964
   5020       2.00000          -0.333253           -9.06827
   5021       2.00000          -0.333233           -9.06772
   5022       2.00000          -0.332716           -9.05367
   5023       2.00000          -0.332622           -9.05111
   5024       2.00000          -0.332577           -9.04988
   5025       2.00000          -0.332562           -9.04946
   5026       2.00000          -0.332173           -9.03887
   5027       2.00000          -0.332141           -9.03802
   5028       2.00000          -0.332140           -9.03800
   5029       2.00000          -0.332114           -9.03729
   5030       2.00000          -0.331666           -9.02509
   5031       2.00000          -0.331657           -9.02484
   5032       2.00000          -0.331656           -9.02481
   5033       2.00000          -0.331639           -9.02435
   5034       2.00000          -0.331619           -9.02381
   5035       2.00000          -0.331609           -9.02354
   5036       2.00000          -0.331594           -9.02314
   5037       2.00000          -0.331593           -9.02310
   5038       2.00000          -0.331562           -9.02226
   5039       2.00000          -0.331514           -9.02095
   5040       2.00000          -0.331480           -9.02002
   5041       2.00000          -0.331472           -9.01982
   5042       2.00000          -0.331455           -9.01935
   5043       2.00000          -0.331451           -9.01923
   5044       2.00000          -0.331404           -9.01795
   5045       2.00000          -0.331369           -9.01700
   5046       2.00000          -0.330709           -8.99904
   5047       2.00000          -0.330625           -8.99678
   5048       2.00000          -0.330618           -8.99656
   5049       2.00000          -0.330599           -8.99606
   5050       2.00000          -0.329666           -8.97068
   5051       2.00000          -0.329504           -8.96625
   5052       2.00000          -0.329428           -8.96419
   5053       2.00000          -0.329405           -8.96355
   5054       2.00000          -0.329310           -8.96098
   5055       2.00000          -0.329181           -8.95746
   5056       2.00000          -0.329164           -8.95700
   5057       2.00000          -0.329104           -8.95536
   5058       2.00000          -0.328986           -8.95216
   5059       2.00000          -0.328950           -8.95117
   5060       2.00000          -0.328946           -8.95108
   5061       2.00000          -0.328910           -8.95010
   5062       2.00000          -0.328886           -8.94946
   5063       2.00000          -0.328876           -8.94917
   5064       2.00000          -0.328851           -8.94850
   5065       2.00000          -0.328837           -8.94810
   5066       2.00000          -0.327950           -8.92399
   5067       2.00000          -0.327907           -8.92281
   5068       2.00000          -0.327892           -8.92240
   5069       2.00000          -0.327839           -8.92094
   5070       2.00000          -0.327789           -8.91959
   5071       2.00000          -0.327787           -8.91953
   5072       2.00000          -0.327784           -8.91945
   5073       2.00000          -0.327769           -8.91904
   5074       2.00000          -0.327703           -8.91725
   5075       2.00000          -0.327677           -8.91655
   5076       2.00000          -0.327655           -8.91595
   5077       2.00000          -0.327568           -8.91359
   5078       2.00000          -0.327506           -8.91190
   5079       2.00000          -0.327489           -8.91144
   5080       2.00000          -0.326699           -8.88994
   5081       2.00000          -0.326670           -8.88916
   5082       2.00000          -0.326662           -8.88892
   5083       2.00000          -0.326621           -8.88780
   5084       2.00000          -0.326388           -8.88147
   5085       2.00000          -0.326336           -8.88007
   5086       2.00000          -0.326309           -8.87932
   5087       2.00000          -0.326255           -8.87785
   5088       2.00000          -0.326141           -8.87474
   5089       2.00000          -0.326106           -8.87381
   5090       2.00000          -0.326106           -8.87378
   5091       2.00000          -0.326068           -8.87277
   5092       2.00000          -0.325099           -8.84640
   5093       2.00000          -0.325078           -8.84581
   5094       2.00000          -0.325048           -8.84500
   5095       2.00000          -0.325023           -8.84433
   5096       2.00000          -0.324778           -8.83766
   5097       2.00000          -0.324776           -8.83760
   5098       2.00000          -0.324754           -8.83702
   5099       2.00000          -0.324707           -8.83573
   5100       2.00000          -0.324683           -8.83508
   5101       2.00000          -0.324682           -8.83505
   5102       2.00000          -0.324676           -8.83487
   5103       2.00000          -0.324646           -8.83408
   5104       2.00000          -0.324472           -8.82933
   5105       2.00000          -0.324457           -8.82893
   5106       2.00000          -0.324424           -8.82803
   5107       2.00000          -0.324345           -8.82587
   5108       2.00000          -0.321854           -8.75809
   5109       2.00000          -0.321839           -8.75768
   5110       2.00000          -0.321829           -8.75740
   5111       2.00000          -0.321823           -8.75724
   5112       2.00000          -0.321810           -8.75691
   5113       2.00000          -0.321800           -8.75661
   5114       2.00000          -0.321790           -8.75635
   5115       2.00000          -0.321761           -8.75556
   5116       2.00000          -0.320888           -8.73181
   5117       2.00000          -0.320528           -8.72200
   5118       2.00000          -0.320521           -8.72182
   5119       2.00000          -0.320519           -8.72176
   5120       2.00000          -0.320500           -8.72124
   5121       2.00000          -0.320490           -8.72099
   5122       2.00000          -0.320462           -8.72021
   5123       2.00000          -0.320410           -8.71880
   5124       2.00000          -0.320377           -8.71790
   5125       2.00000          -0.319588           -8.69644
   5126       2.00000          -0.319551           -8.69544
   5127       2.00000          -0.319482           -8.69355
   5128       2.00000          -0.319446           -8.69256
   5129       2.00000          -0.319106           -8.68333
   5130       2.00000          -0.319080           -8.68261
   5131       2.00000          -0.319066           -8.68222
   5132       2.00000          -0.319040           -8.68153
   5133       2.00000          -0.318816           -8.67542
   5134       2.00000          -0.318746           -8.67352
   5135       2.00000          -0.318672           -8.67151
   5136       2.00000          -0.318470           -8.66602
   5137       2.00000          -0.318360           -8.66302
   5138       2.00000          -0.318339           -8.66243
   5139       2.00000          -0.318316           -8.66181
   5140       2.00000          -0.318296           -8.66127
   5141       2.00000          -0.318175           -8.65797
   5142       2.00000          -0.318161           -8.65761
   5143       2.00000          -0.318131           -8.65678
   5144       2.00000          -0.318118           -8.65642
   5145       2.00000          -0.318062           -8.65489
   5146       2.00000          -0.318059           -8.65484
   5147       2.00000          -0.318027           -8.65396
   5148       2.00000          -0.318018           -8.65372
   5149       2.00000          -0.317964           -8.65224
   5150       2.00000          -0.317916           -8.65092
   5151       2.00000          -0.317910           -8.65077
   5152       2.00000          -0.317887           -8.65014
   5153       2.00000          -0.316851           -8.62194
   5154       2.00000          -0.316793           -8.62038
   5155       2.00000          -0.316771           -8.61976
   5156       2.00000          -0.316742           -8.61900
   5157       2.00000          -0.316690           -8.61757
   5158       2.00000          -0.316690           -8.61756
   5159       2.00000          -0.316684           -8.61741
   5160       2.00000          -0.316663           -8.61684
   5161       2.00000          -0.316614           -8.61550
   5162       2.00000          -0.316600           -8.61512
   5163       2.00000          -0.316545           -8.61362
   5164       2.00000          -0.316474           -8.61169
   5165       2.00000          -0.316206           -8.60440
   5166       2.00000          -0.313446           -8.52930
   5167       2.00000          -0.313407           -8.52823
   5168       2.00000          -0.313371           -8.52726
   5169       2.00000          -0.313367           -8.52716
   5170       2.00000          -0.313357           -8.52687
   5171       2.00000          -0.313327           -8.52605
   5172       2.00000          -0.313285           -8.52491
   5173       2.00000          -0.313281           -8.52482
   5174       2.00000          -0.313245           -8.52384
   5175       2.00000          -0.313237           -8.52362
   5176       2.00000          -0.313194           -8.52246
   5177       2.00000          -0.313192           -8.52239
   5178       2.00000          -0.313183           -8.52213
   5179       2.00000          -0.313178           -8.52200
   5180       2.00000          -0.313122           -8.52047
   5181       2.00000          -0.313094           -8.51973
   5182       2.00000          -0.313094           -8.51972
   5183       2.00000          -0.313092           -8.51967
   5184       2.00000          -0.313071           -8.51910
   5185       2.00000          -0.313004           -8.51728
   5186       2.00000          -0.312896           -8.51432
   5187       2.00000          -0.312884           -8.51401
   5188       2.00000          -0.312855           -8.51323
   5189       2.00000          -0.312852           -8.51315
   5190       2.00000          -0.312847           -8.51301
   5191       2.00000          -0.312771           -8.51092
   5192       2.00000          -0.312705           -8.50913
   5193       2.00000          -0.312546           -8.50481
   5194       2.00000          -0.311851           -8.48590
   5195       2.00000          -0.311833           -8.48540
   5196       2.00000          -0.311829           -8.48530
   5197       2.00000          -0.311642           -8.48020
   5198       2.00000          -0.311446           -8.47489
   5199       2.00000          -0.311421           -8.47421
   5200       2.00000          -0.310783           -8.45684
   5201       2.00000          -0.310779           -8.45674
   5202       2.00000          -0.309882           -8.43232
   5203       2.00000          -0.309706           -8.42752
   5204       2.00000          -0.309551           -8.42331
   5205       2.00000          -0.309470           -8.42111
   5206       2.00000          -0.309406           -8.41936
   5207       2.00000          -0.309393           -8.41900
   5208       2.00000          -0.309376           -8.41856
   5209       2.00000          -0.309374           -8.41848
   5210       2.00000          -0.309299           -8.41645
   5211       2.00000          -0.309294           -8.41632
   5212       2.00000          -0.309278           -8.41588
   5213       2.00000          -0.309238           -8.41479
   5214       2.00000          -0.307898           -8.37833
   5215       2.00000          -0.307844           -8.37686
   5216       2.00000          -0.307832           -8.37652
   5217       2.00000          -0.307831           -8.37650
   5218       2.00000          -0.307816           -8.37610
   5219       2.00000          -0.307785           -8.37525
   5220       2.00000          -0.307768           -8.37480
   5221       2.00000          -0.307762           -8.37462
   5222       2.00000          -0.307248           -8.36063
   5223       2.00000          -0.307189           -8.35904
   5224       2.00000          -0.307154           -8.35808
   5225       2.00000          -0.307149           -8.35795
   5226       2.00000          -0.307129           -8.35742
   5227       2.00000          -0.307128           -8.35739
   5228       2.00000          -0.307061           -8.35556
   5229       2.00000          -0.307027           -8.35462
   5230       2.00000          -0.307009           -8.35415
   5231       2.00000          -0.306992           -8.35367
   5232       2.00000          -0.306986           -8.35351
   5233       2.00000          -0.306977           -8.35326
   5234       2.00000          -0.306964           -8.35291
   5235       2.00000          -0.306903           -8.35126
   5236       2.00000          -0.306885           -8.35076
   5237       2.00000          -0.306866           -8.35025
   5238       2.00000          -0.306862           -8.35013
   5239       2.00000          -0.306790           -8.34819
   5240       2.00000          -0.306773           -8.34772
   5241       2.00000          -0.306761           -8.34738
   5242       2.00000          -0.306738           -8.34675
   5243       2.00000          -0.306607           -8.34319
   5244       2.00000          -0.306341           -8.33595
   5245       2.00000          -0.306335           -8.33580
   5246       2.00000          -0.306166           -8.33121
   5247       2.00000          -0.306156           -8.33093
   5248       2.00000          -0.305562           -8.31476
   5249       2.00000          -0.305542           -8.31422
   5250       2.00000          -0.305465           -8.31212
   5251       2.00000          -0.305434           -8.31128
   5252       2.00000          -0.305361           -8.30929
   5253       2.00000          -0.305261           -8.30658
   5254       2.00000          -0.305111           -8.30248
   5255       2.00000          -0.305059           -8.30108
   5256       2.00000          -0.304974           -8.29878
   5257       2.00000          -0.304856           -8.29555
   5258       2.00000          -0.304428           -8.28392
   5259       2.00000          -0.304409           -8.28340
   5260       2.00000          -0.304344           -8.28162
   5261       2.00000          -0.304291           -8.28019
   5262       2.00000          -0.304154           -8.27644
   5263       2.00000          -0.304132           -8.27585
   5264       2.00000          -0.303974           -8.27154
   5265       2.00000          -0.303940           -8.27062
   5266       2.00000          -0.303838           -8.26784
   5267       2.00000          -0.303807           -8.26701
   5268       2.00000          -0.303386           -8.25556
   5269       2.00000          -0.303370           -8.25513
   5270       2.00000          -0.303366           -8.25502
   5271       2.00000          -0.303270           -8.25240
   5272       2.00000          -0.303223           -8.25111
   5273       2.00000          -0.303213           -8.25084
   5274       2.00000          -0.303187           -8.25013
   5275       2.00000          -0.303118           -8.24827
   5276       2.00000          -0.303047           -8.24632
   5277       2.00000          -0.303026           -8.24577
   5278       2.00000          -0.302982           -8.24455
   5279       2.00000          -0.302977           -8.24441
   5280       2.00000          -0.302843           -8.24079
   5281       2.00000          -0.302814           -8.23999
   5282       2.00000          -0.302772           -8.23885
   5283       2.00000          -0.302748           -8.23820
   5284       2.00000          -0.302726           -8.23760
   5285       2.00000          -0.302688           -8.23655
   5286       2.00000          -0.302670           -8.23608
   5287       2.00000          -0.302645           -8.23538
   5288       2.00000          -0.302591           -8.23391
   5289       2.00000          -0.302543           -8.23262
   5290       2.00000          -0.302204           -8.22339
   5291       2.00000          -0.302204           -8.22338
   5292       2.00000          -0.302173           -8.22253
   5293       2.00000          -0.302167           -8.22238
   5294       2.00000          -0.301887           -8.21477
   5295       2.00000          -0.301869           -8.21427
   5296       2.00000          -0.301835           -8.21335
   5297       2.00000          -0.301781           -8.21187
   5298       2.00000          -0.301467           -8.20334
   5299       2.00000          -0.301445           -8.20274
   5300       2.00000          -0.301436           -8.20249
   5301       2.00000          -0.301352           -8.20021
   5302       2.00000          -0.301327           -8.19954
   5303       2.00000          -0.301313           -8.19915
   5304       2.00000          -0.301287           -8.19843
   5305       2.00000          -0.301187           -8.19572
   5306       2.00000          -0.300856           -8.18672
   5307       2.00000          -0.300707           -8.18267
   5308       2.00000          -0.300695           -8.18232
   5309       2.00000          -0.300648           -8.18104
   5310       2.00000          -0.300558           -8.17861
   5311       2.00000          -0.300504           -8.17713
   5312       2.00000          -0.300484           -8.17660
   5313       2.00000          -0.300473           -8.17628
   5314       2.00000          -0.300398           -8.17423
   5315       2.00000          -0.300366           -8.17338
   5316       2.00000          -0.300360           -8.17322
   5317       2.00000          -0.300345           -8.17279
   5318       2.00000          -0.300319           -8.17208
   5319       2.00000          -0.300271           -8.17079
   5320       2.00000          -0.300261           -8.17052
   5321       2.00000          -0.300254           -8.17034
   5322       2.00000          -0.300204           -8.16896
   5323       2.00000          -0.300177           -8.16823
   5324       2.00000          -0.300108           -8.16635
   5325       2.00000          -0.300029           -8.16421
   5326       2.00000          -0.299859           -8.15959
   5327       2.00000          -0.299852           -8.15940
   5328       2.00000          -0.299841           -8.15909
   5329       2.00000          -0.299786           -8.15760
   5330       2.00000          -0.299740           -8.15635
   5331       2.00000          -0.299652           -8.15395
   5332       2.00000          -0.299584           -8.15211
   5333       2.00000          -0.299558           -8.15139
   5334       2.00000          -0.299264           -8.14339
   5335       2.00000          -0.299248           -8.14295
   5336       2.00000          -0.299233           -8.14255
   5337       2.00000          -0.299215           -8.14207
   5338       2.00000          -0.298963           -8.13519
   5339       2.00000          -0.298951           -8.13488
   5340       2.00000          -0.298922           -8.13409
   5341       2.00000          -0.298875           -8.13281
   5342       2.00000          -0.298852           -8.13217
   5343       2.00000          -0.298821           -8.13133
   5344       2.00000          -0.298795           -8.13063
   5345       2.00000          -0.298744           -8.12923
   5346       2.00000          -0.298117           -8.11218
   5347       2.00000          -0.297996           -8.10889
   5348       2.00000          -0.297941           -8.10738
   5349       2.00000          -0.297907           -8.10646
   5350       2.00000          -0.297433           -8.09358
   5351       2.00000          -0.297422           -8.09326
   5352       2.00000          -0.297411           -8.09298
   5353       2.00000          -0.297384           -8.09222
   5354       2.00000          -0.296288           -8.06241
   5355       2.00000          -0.296269           -8.06189
   5356       2.00000          -0.296267           -8.06184
   5357       2.00000          -0.296206           -8.06017
   5358       2.00000          -0.296188           -8.05968
   5359       2.00000          -0.296137           -8.05830
   5360       2.00000          -0.296112           -8.05761
   5361       2.00000          -0.296107           -8.05749
   5362       2.00000          -0.296038           -8.05559
   5363       2.00000          -0.296005           -8.05470
   5364       2.00000          -0.295957           -8.05340
   5365       2.00000          -0.295937           -8.05285
   5366       2.00000          -0.295793           -8.04893
   5367       2.00000          -0.295711           -8.04671
   5368       2.00000          -0.295695           -8.04628
   5369       2.00000          -0.295650           -8.04505
   5370       2.00000          -0.295646           -8.04493
   5371       2.00000          -0.295619           -8.04421
   5372       2.00000          -0.295588           -8.04337
   5373       2.00000          -0.295548           -8.04228
   5374       2.00000          -0.295414           -8.03861
   5375       2.00000          -0.295374           -8.03754
   5376       2.00000          -0.295355           -8.03703
   5377       2.00000          -0.295310           -8.03580
   5378       2.00000          -0.295149           -8.03142
   5379       2.00000          -0.295113           -8.03042
   5380       2.00000          -0.295027           -8.02811
   5381       2.00000          -0.295002           -8.02742
   5382       2.00000          -0.294767           -8.02103
   5383       2.00000          -0.294683           -8.01873
   5384       2.00000          -0.294678           -8.01859
   5385       2.00000          -0.294634           -8.01741
   5386       2.00000          -0.294442           -8.01218
   5387       2.00000          -0.294390           -8.01076
   5388       2.00000          -0.294389           -8.01074
   5389       2.00000          -0.294376           -8.01037
   5390       2.00000          -0.294305           -8.00844
   5391       2.00000          -0.294288           -8.00799
   5392       2.00000          -0.294281           -8.00780
   5393       2.00000          -0.294272           -8.00754
   5394       2.00000          -0.294257           -8.00713
   5395       2.00000          -0.294246           -8.00684
   5396       2.00000          -0.294240           -8.00668
   5397       2.00000          -0.294229           -8.00637
   5398       2.00000          -0.293796           -7.99461
   5399       2.00000          -0.293720           -7.99254
   5400       2.00000          -0.293673           -7.99124
   5401       2.00000          -0.293590           -7.98900
   5402       2.00000          -0.293575           -7.98860
   5403       2.00000          -0.293468           -7.98567
   5404       2.00000          -0.293467           -7.98565
   5405       2.00000          -0.293464           -7.98556
   5406       2.00000          -0.293452           -7.98525
   5407       2.00000          -0.293392           -7.98362
   5408       2.00000          -0.293305           -7.98124
   5409       2.00000          -0.293275           -7.98043
   5410       2.00000          -0.293221           -7.97895
   5411       2.00000          -0.293206           -7.97854
   5412       2.00000          -0.293157           -7.97721
   5413       2.00000          -0.293151           -7.97703
   5414       2.00000          -0.293143           -7.97682
   5415       2.00000          -0.293050           -7.97429
   5416       2.00000          -0.293044           -7.97414
   5417       2.00000          -0.293012           -7.97328
   5418       2.00000          -0.292975           -7.97226
   5419       2.00000          -0.292971           -7.97216
   5420       2.00000          -0.292960           -7.97184
   5421       2.00000          -0.292929           -7.97101
   5422       2.00000          -0.292876           -7.96956
   5423       2.00000          -0.292864           -7.96923
   5424       2.00000          -0.292782           -7.96701
   5425       2.00000          -0.292778           -7.96689
   5426       2.00000          -0.292759           -7.96638
   5427       2.00000          -0.292758           -7.96635
   5428       2.00000          -0.292745           -7.96600
   5429       2.00000          -0.292726           -7.96549
   5430       2.00000          -0.292064           -7.94747
   5431       2.00000          -0.292030           -7.94654
   5432       2.00000          -0.291993           -7.94552
   5433       2.00000          -0.291891           -7.94277
   5434       2.00000          -0.291251           -7.92534
   5435       2.00000          -0.291210           -7.92423
   5436       2.00000          -0.291196           -7.92384
   5437       2.00000          -0.291150           -7.92261
   5438       2.00000          -0.291099           -7.92122
   5439       2.00000          -0.291066           -7.92030
   5440       2.00000          -0.291054           -7.91999
   5441       2.00000          -0.291026           -7.91922
   5442       2.00000          -0.290474           -7.90419
   5443       2.00000          -0.290438           -7.90322
   5444       2.00000          -0.290426           -7.90290
   5445       2.00000          -0.290392           -7.90195
   5446       2.00000          -0.290366           -7.90125
   5447       2.00000          -0.290346           -7.90071
   5448       2.00000          -0.290341           -7.90059
   5449       2.00000          -0.290315           -7.89987
   5450       2.00000          -0.289750           -7.88450
   5451       2.00000          -0.289683           -7.88269
   5452       2.00000          -0.289644           -7.88163
   5453       2.00000          -0.289617           -7.88087
   5454       2.00000          -0.289101           -7.86684
   5455       2.00000          -0.289081           -7.86629
   5456       2.00000          -0.289079           -7.86625
   5457       2.00000          -0.289019           -7.86461
   5458       2.00000          -0.288739           -7.85699
   5459       2.00000          -0.288729           -7.85671
   5460       2.00000          -0.287950           -7.83553
   5461       2.00000          -0.287891           -7.83392
   5462       2.00000          -0.287061           -7.81132
   5463       2.00000          -0.286876           -7.80628
   5464       2.00000          -0.286854           -7.80570
   5465       2.00000          -0.286650           -7.80013
   5466       2.00000          -0.286590           -7.79851
   5467       2.00000          -0.286562           -7.79774
   5468       2.00000          -0.286211           -7.78820
   5469       2.00000          -0.286194           -7.78775
   5470       2.00000          -0.286172           -7.78714
   5471       2.00000          -0.286140           -7.78625
   5472       2.00000          -0.285444           -7.76733
   5473       2.00000          -0.285424           -7.76679
   5474       2.00000          -0.285267           -7.76250
   5475       2.00000          -0.285233           -7.76158
   5476       2.00000          -0.285217           -7.76116
   5477       2.00000          -0.285201           -7.76072
   5478       2.00000          -0.285092           -7.75774
   5479       2.00000          -0.285045           -7.75646
   5480       2.00000          -0.285016           -7.75567
   5481       2.00000          -0.284957           -7.75408
   5482       2.00000          -0.284837           -7.75082
   5483       2.00000          -0.284834           -7.75074
   5484       2.00000          -0.284832           -7.75068
   5485       2.00000          -0.284828           -7.75057
   5486       2.00000          -0.284201           -7.73350
   5487       2.00000          -0.284139           -7.73182
   5488       2.00000          -0.284129           -7.73154
   5489       2.00000          -0.284106           -7.73092
   5490       2.00000          -0.284076           -7.73009
   5491       2.00000          -0.284067           -7.72985
   5492       2.00000          -0.284050           -7.72939
   5493       2.00000          -0.284026           -7.72875
   5494       2.00000          -0.283864           -7.72433
   5495       2.00000          -0.283852           -7.72402
   5496       2.00000          -0.283268           -7.70812
   5497       2.00000          -0.283239           -7.70731
   5498       2.00000          -0.283216           -7.70671
   5499       2.00000          -0.283213           -7.70661
   5500       2.00000          -0.283180           -7.70571
   5501       2.00000          -0.283143           -7.70471
   5502       2.00000          -0.283111           -7.70385
   5503       2.00000          -0.283059           -7.70244
   5504       2.00000          -0.282817           -7.69585
   5505       2.00000          -0.282733           -7.69356
   5506       2.00000          -0.282646           -7.69119
   5507       2.00000          -0.282613           -7.69030
   5508       2.00000          -0.282598           -7.68987
   5509       2.00000          -0.282589           -7.68964
   5510       2.00000          -0.282566           -7.68902
   5511       2.00000          -0.282541           -7.68834
   5512       2.00000          -0.282399           -7.68447
   5513       2.00000          -0.282384           -7.68406
   5514       2.00000          -0.282363           -7.68348
   5515       2.00000          -0.282344           -7.68297
   5516       2.00000          -0.281989           -7.67331
   5517       2.00000          -0.281928           -7.67166
   5518       2.00000          -0.281778           -7.66758
   5519       2.00000          -0.281590           -7.66246
   5520       2.00000          -0.281437           -7.65830
   5521       2.00000          -0.281427           -7.65801
   5522       2.00000          -0.281372           -7.65652
   5523       2.00000          -0.281281           -7.65405
   5524       2.00000          -0.281270           -7.65374
   5525       2.00000          -0.281234           -7.65276
   5526       2.00000          -0.281022           -7.64699
   5527       2.00000          -0.280964           -7.64541
   5528       2.00000          -0.280932           -7.64454
   5529       2.00000          -0.280905           -7.64382
   5530       2.00000          -0.280745           -7.63947
   5531       2.00000          -0.280672           -7.63748
   5532       2.00000          -0.280622           -7.63613
   5533       2.00000          -0.280563           -7.63450
   5534       2.00000          -0.280504           -7.63290
   5535       2.00000          -0.280429           -7.63087
   5536       2.00000          -0.280414           -7.63045
   5537       2.00000          -0.280332           -7.62823
   5538       2.00000          -0.280329           -7.62814
   5539       2.00000          -0.280292           -7.62714
   5540       2.00000          -0.280258           -7.62621
   5541       2.00000          -0.280232           -7.62550
   5542       2.00000          -0.279853           -7.61519
   5543       2.00000          -0.279849           -7.61509
   5544       2.00000          -0.279849           -7.61507
   5545       2.00000          -0.279845           -7.61498
   5546       2.00000          -0.279845           -7.61497
   5547       2.00000          -0.279842           -7.61490
   5548       2.00000          -0.279842           -7.61490
   5549       2.00000          -0.279840           -7.61484
   5550       2.00000          -0.279821           -7.61432
   5551       2.00000          -0.279797           -7.61367
   5552       2.00000          -0.279771           -7.61295
   5553       2.00000          -0.279741           -7.61215
   5554       2.00000          -0.279739           -7.61208
   5555       2.00000          -0.279711           -7.61132
   5556       2.00000          -0.279696           -7.61092
   5557       2.00000          -0.279684           -7.61059
   5558       2.00000          -0.279438           -7.60390
   5559       2.00000          -0.279386           -7.60248
   5560       2.00000          -0.279378           -7.60227
   5561       2.00000          -0.279321           -7.60072
   5562       2.00000          -0.279273           -7.59941
   5563       2.00000          -0.279208           -7.59764
   5564       2.00000          -0.279206           -7.59757
   5565       2.00000          -0.279190           -7.59715
   5566       2.00000          -0.278861           -7.58820
   5567       2.00000          -0.278856           -7.58806
   5568       2.00000          -0.278855           -7.58804
   5569       2.00000          -0.278854           -7.58802
   5570       2.00000          -0.278600           -7.58110
   5571       2.00000          -0.278576           -7.58043
   5572       2.00000          -0.278571           -7.58030
   5573       2.00000          -0.278568           -7.58021
   5574       2.00000          -0.278452           -7.57705
   5575       2.00000          -0.278416           -7.57608
   5576       2.00000          -0.278373           -7.57491
   5577       2.00000          -0.278337           -7.57393
   5578       2.00000          -0.278286           -7.57255
   5579       2.00000          -0.278209           -7.57045
   5580       2.00000          -0.278165           -7.56926
   5581       2.00000          -0.278155           -7.56899
   5582       2.00000          -0.278095           -7.56735
   5583       2.00000          -0.278084           -7.56706
   5584       2.00000          -0.278046           -7.56602
   5585       2.00000          -0.278029           -7.56555
   5586       2.00000          -0.278023           -7.56539
   5587       2.00000          -0.277632           -7.55475
   5588       2.00000          -0.277299           -7.54569
   5589       2.00000          -0.277291           -7.54547
   5590       2.00000          -0.277274           -7.54502
   5591       2.00000          -0.276975           -7.53687
   5592       2.00000          -0.276269           -7.51767
   5593       2.00000          -0.276208           -7.51601
   5594       2.00000          -0.276199           -7.51577
   5595       2.00000          -0.276003           -7.51042
   5596       2.00000          -0.275414           -7.49439
   5597       2.00000          -0.275279           -7.49072
   5598       2.00000          -0.275227           -7.48931
   5599       2.00000          -0.275194           -7.48842
   5600       2.00000          -0.275172           -7.48782
   5601       2.00000          -0.275166           -7.48764
   5602       2.00000          -0.275025           -7.48382
   5603       2.00000          -0.275007           -7.48333
   5604       2.00000          -0.274989           -7.48282
   5605       2.00000          -0.274982           -7.48263
   5606       2.00000          -0.274886           -7.48004
   5607       2.00000          -0.274853           -7.47913
   5608       2.00000          -0.274803           -7.47776
   5609       2.00000          -0.274778           -7.47709
   5610       2.00000          -0.274725           -7.47564
   5611       2.00000          -0.274705           -7.47510
   5612       2.00000          -0.274697           -7.47488
   5613       2.00000          -0.274665           -7.47403
   5614       2.00000          -0.274627           -7.47298
   5615       2.00000          -0.274305           -7.46423
   5616       2.00000          -0.274260           -7.46299
   5617       2.00000          -0.274244           -7.46256
   5618       2.00000          -0.274212           -7.46169
   5619       2.00000          -0.274176           -7.46070
   5620       2.00000          -0.274165           -7.46040
   5621       2.00000          -0.274149           -7.45999
   5622       2.00000          -0.274142           -7.45979
   5623       2.00000          -0.274116           -7.45908
   5624       2.00000          -0.274095           -7.45850
   5625       2.00000          -0.274040           -7.45701
   5626       2.00000          -0.274013           -7.45628
   5627       2.00000          -0.273716           -7.44819
   5628       2.00000          -0.273153           -7.43287
   5629       2.00000          -0.273147           -7.43272
   5630       2.00000          -0.273124           -7.43209
   5631       2.00000          -0.272955           -7.42748
   5632       2.00000          -0.272861           -7.42494
   5633       2.00000          -0.272799           -7.42325
   5634       2.00000          -0.272720           -7.42108
   5635       2.00000          -0.272583           -7.41737
   5636       2.00000          -0.271764           -7.39508
   5637       2.00000          -0.271694           -7.39316
   5638       2.00000          -0.271448           -7.38648
   5639       2.00000          -0.271446           -7.38641
   5640       2.00000          -0.271417           -7.38564
   5641       2.00000          -0.271405           -7.38530
   5642       2.00000          -0.271397           -7.38509
   5643       2.00000          -0.271383           -7.38472
   5644       2.00000          -0.271347           -7.38373
   5645       2.00000          -0.271343           -7.38363
   5646       2.00000          -0.271265           -7.38151
   5647       2.00000          -0.271184           -7.37929
   5648       2.00000          -0.270540           -7.36178
   5649       2.00000          -0.270394           -7.35780
   5650       2.00000          -0.270358           -7.35680
   5651       2.00000          -0.270294           -7.35508
   5652       2.00000          -0.270280           -7.35468
   5653       2.00000          -0.269988           -7.34676
   5654       2.00000          -0.269980           -7.34653
   5655       2.00000          -0.269950           -7.34572
   5656       2.00000          -0.269931           -7.34520
   5657       2.00000          -0.269901           -7.34438
   5658       2.00000          -0.269868           -7.34349
   5659       2.00000          -0.269819           -7.34215
   5660       2.00000          -0.269798           -7.34158
   5661       2.00000          -0.269539           -7.33453
   5662       2.00000          -0.269527           -7.33421
   5663       2.00000          -0.269471           -7.33268
   5664       2.00000          -0.269429           -7.33154
   5665       2.00000          -0.269261           -7.32696
   5666       2.00000          -0.269240           -7.32640
   5667       2.00000          -0.268902           -7.31720
   5668       2.00000          -0.268819           -7.31494
   5669       2.00000          -0.268788           -7.31408
   5670       2.00000          -0.268711           -7.31200
   5671       2.00000          -0.268673           -7.31097
   5672       2.00000          -0.268667           -7.31080
   5673       2.00000          -0.268652           -7.31039
   5674       2.00000          -0.268575           -7.30828
   5675       2.00000          -0.268560           -7.30789
   5676       2.00000          -0.268459           -7.30513
   5677       2.00000          -0.268455           -7.30504
   5678       2.00000          -0.268430           -7.30435
   5679       2.00000          -0.267149           -7.26950
   5680       2.00000          -0.267133           -7.26905
   5681       2.00000          -0.267132           -7.26903
   5682       2.00000          -0.267125           -7.26884
   5683       2.00000          -0.267024           -7.26608
   5684       2.00000          -0.266972           -7.26469
   5685       2.00000          -0.266940           -7.26379
   5686       2.00000          -0.266919           -7.26324
   5687       2.00000          -0.266829           -7.26080
   5688       2.00000          -0.266747           -7.25855
   5689       2.00000          -0.266732           -7.25816
   5690       2.00000          -0.266706           -7.25744
   5691       2.00000          -0.266438           -7.25015
   5692       2.00000          -0.266428           -7.24987
   5693       2.00000          -0.266400           -7.24911
   5694       2.00000          -0.266272           -7.24564
   5695       2.00000          -0.266084           -7.24050
   5696       2.00000          -0.265926           -7.23622
   5697       2.00000          -0.265606           -7.22750
   5698       2.00000          -0.265589           -7.22704
   5699       2.00000          -0.265556           -7.22616
   5700       2.00000          -0.265509           -7.22488
   5701       2.00000          -0.265467           -7.22373
   5702       2.00000          -0.265465           -7.22366
   5703       2.00000          -0.265426           -7.22262
   5704       2.00000          -0.265398           -7.22185
   5705       2.00000          -0.265260           -7.21810
   5706       2.00000          -0.265109           -7.21398
   5707       2.00000          -0.264699           -7.20282
   5708       2.00000          -0.264573           -7.19941
   5709       2.00000          -0.264545           -7.19865
   5710       2.00000          -0.264489           -7.19711
   5711       2.00000          -0.264450           -7.19604
   5712       2.00000          -0.264420           -7.19523
   5713       2.00000          -0.264337           -7.19298
   5714       2.00000          -0.264325           -7.19265
   5715       2.00000          -0.264308           -7.19219
   5716       2.00000          -0.264301           -7.19199
   5717       2.00000          -0.264240           -7.19033
   5718       2.00000          -0.264234           -7.19017
   5719       2.00000          -0.264221           -7.18982
   5720       2.00000          -0.264198           -7.18920
   5721       2.00000          -0.264192           -7.18903
   5722       2.00000          -0.264185           -7.18883
   5723       2.00000          -0.264181           -7.18873
   5724       2.00000          -0.264156           -7.18804
   5725       2.00000          -0.264142           -7.18767
   5726       2.00000          -0.264135           -7.18747
   5727       2.00000          -0.264101           -7.18655
   5728       2.00000          -0.264061           -7.18547
   5729       2.00000          -0.264060           -7.18545
   5730       2.00000          -0.264055           -7.18530
   5731       2.00000          -0.264022           -7.18440
   5732       2.00000          -0.264007           -7.18400
   5733       2.00000          -0.263987           -7.18346
   5734       2.00000          -0.263962           -7.18276
   5735       2.00000          -0.263954           -7.18255
   5736       2.00000          -0.263846           -7.17962
   5737       2.00000          -0.263762           -7.17733
   5738       2.00000          -0.263717           -7.17610
   5739       2.00000          -0.263691           -7.17540
   5740       2.00000          -0.263539           -7.17125
   5741       2.00000          -0.262784           -7.15071
   5742       2.00000          -0.262774           -7.15045
   5743       2.00000          -0.262751           -7.14981
   5744       2.00000          -0.262738           -7.14947
   5745       2.00000          -0.262607           -7.14589
   5746       2.00000          -0.262439           -7.14132
   5747       2.00000          -0.262149           -7.13344
   5748       2.00000          -0.262112           -7.13244
   5749       2.00000          -0.261991           -7.12914
   5750       2.00000          -0.261938           -7.12769
   5751       2.00000          -0.261820           -7.12449
   5752       2.00000          -0.261701           -7.12124
   5753       2.00000          -0.261355           -7.11182
   5754       2.00000          -0.261315           -7.11074
   5755       2.00000          -0.261299           -7.11030
   5756       2.00000          -0.261285           -7.10993
   5757       2.00000          -0.261264           -7.10935
   5758       2.00000          -0.261246           -7.10888
   5759       2.00000          -0.261218           -7.10811
   5760       2.00000          -0.261199           -7.10758
   5761       2.00000          -0.261011           -7.10246
   5762       2.00000          -0.261001           -7.10220
   5763       2.00000          -0.260963           -7.10117
   5764       2.00000          -0.260909           -7.09969
   5765       2.00000          -0.260871           -7.09866
   5766       2.00000          -0.260697           -7.09392
   5767       2.00000          -0.260686           -7.09362
   5768       2.00000          -0.260133           -7.07859
   5769       2.00000          -0.259764           -7.06854
   5770       2.00000          -0.259691           -7.06654
   5771       2.00000          -0.259689           -7.06651
   5772       2.00000          -0.259659           -7.06568
   5773       2.00000          -0.259061           -7.04941
   5774       2.00000          -0.259057           -7.04930
   5775       2.00000          -0.258996           -7.04764
   5776       2.00000          -0.258977           -7.04712
   5777       2.00000          -0.258921           -7.04561
   5778       2.00000          -0.258905           -7.04517
   5779       2.00000          -0.258891           -7.04478
   5780       2.00000          -0.258789           -7.04201
   5781       2.00000          -0.258568           -7.03600
   5782       2.00000          -0.258511           -7.03443
   5783       2.00000          -0.258507           -7.03433
   5784       2.00000          -0.258465           -7.03319
   5785       2.00000          -0.258439           -7.03248
   5786       2.00000          -0.258414           -7.03179
   5787       2.00000          -0.258396           -7.03132
   5788       2.00000          -0.258374           -7.03071
   5789       2.00000          -0.258368           -7.03056
   5790       2.00000          -0.258308           -7.02893
   5791       2.00000          -0.258220           -7.02652
   5792       2.00000          -0.258210           -7.02625
   5793       2.00000          -0.258075           -7.02258
   5794       2.00000          -0.258037           -7.02154
   5795       2.00000          -0.257923           -7.01845
   5796       2.00000          -0.257866           -7.01690
   5797       2.00000          -0.257850           -7.01646
   5798       2.00000          -0.257821           -7.01566
   5799       2.00000          -0.257804           -7.01520
   5800       2.00000          -0.257800           -7.01510
   5801       2.00000          -0.257762           -7.01406
   5802       2.00000          -0.257598           -7.00961
   5803       2.00000          -0.257543           -7.00810
   5804       2.00000          -0.257503           -7.00702
   5805       2.00000          -0.257453           -7.00564
   5806       2.00000          -0.257452           -7.00561
   5807       2.00000          -0.257380           -7.00367
   5808       2.00000          -0.257361           -7.00314
   5809       2.00000          -0.257357           -7.00303
   5810       2.00000          -0.257351           -7.00287
   5811       2.00000          -0.257348           -7.00280
   5812       2.00000          -0.256954           -6.99208
   5813       2.00000          -0.256927           -6.99134
   5814       2.00000          -0.256561           -6.98138
   5815       2.00000          -0.256549           -6.98105
   5816       2.00000          -0.256245           -6.97279
   5817       2.00000          -0.256231           -6.97241
   5818       2.00000          -0.256134           -6.96975
   5819       2.00000          -0.256126           -6.96954
   5820       2.00000          -0.255948           -6.96471
   5821       2.00000          -0.255880           -6.96285
   5822       2.00000          -0.255846           -6.96192
   5823       2.00000          -0.255838           -6.96171
   5824       2.00000          -0.255788           -6.96035
   5825       2.00000          -0.255757           -6.95950
   5826       2.00000          -0.255746           -6.95920
   5827       2.00000          -0.255679           -6.95739
   5828       2.00000          -0.255342           -6.94821
   5829       2.00000          -0.255320           -6.94760
   5830       2.00000          -0.255316           -6.94751
   5831       2.00000          -0.255289           -6.94676
   5832       2.00000          -0.254776           -6.93280
   5833       2.00000          -0.254730           -6.93155
   5834       2.00000          -0.254728           -6.93151
   5835       2.00000          -0.254708           -6.93097
   5836       2.00000          -0.254662           -6.92971
   5837       2.00000          -0.254634           -6.92893
   5838       2.00000          -0.254623           -6.92865
   5839       2.00000          -0.254610           -6.92830
   5840       2.00000          -0.254558           -6.92688
   5841       2.00000          -0.254505           -6.92543
   5842       2.00000          -0.254180           -6.91660
   5843       2.00000          -0.254045           -6.91292
   5844       2.00000          -0.253925           -6.90964
   5845       2.00000          -0.253905           -6.90909
   5846       2.00000          -0.253882           -6.90848
   5847       2.00000          -0.253880           -6.90842
   5848       2.00000          -0.253055           -6.88597
   5849       2.00000          -0.253017           -6.88493
   5850       2.00000          -0.252950           -6.88313
   5851       2.00000          -0.252930           -6.88258
   5852       2.00000          -0.252897           -6.88167
   5853       2.00000          -0.252873           -6.88103
   5854       2.00000          -0.252842           -6.88019
   5855       2.00000          -0.252836           -6.88003
   5856       2.00000          -0.252817           -6.87949
   5857       2.00000          -0.252811           -6.87935
   5858       2.00000          -0.252808           -6.87925
   5859       2.00000          -0.252789           -6.87875
   5860       2.00000          -0.252752           -6.87773
   5861       2.00000          -0.252738           -6.87736
   5862       2.00000          -0.252637           -6.87460
   5863       2.00000          -0.252578           -6.87299
   5864       2.00000          -0.252525           -6.87156
   5865       2.00000          -0.252455           -6.86965
   5866       2.00000          -0.252383           -6.86768
   5867       2.00000          -0.252237           -6.86372
   5868       2.00000          -0.252216           -6.86314
   5869       2.00000          -0.252179           -6.86214
   5870       2.00000          -0.252176           -6.86206
   5871       2.00000          -0.252093           -6.85980
   5872       2.00000          -0.252050           -6.85864
   5873       2.00000          -0.252035           -6.85821
   5874       2.00000          -0.252027           -6.85800
   5875       2.00000          -0.252016           -6.85770
   5876       2.00000          -0.251982           -6.85679
   5877       2.00000          -0.251907           -6.85473
   5878       2.00000          -0.251905           -6.85468
   5879       2.00000          -0.251873           -6.85381
   5880       2.00000          -0.251827           -6.85256
   5881       2.00000          -0.251780           -6.85127
   5882       2.00000          -0.251775           -6.85115
   5883       2.00000          -0.251743           -6.85027
   5884       2.00000          -0.251656           -6.84790
   5885       2.00000          -0.251622           -6.84699
   5886       2.00000          -0.251547           -6.84494
   5887       2.00000          -0.251547           -6.84494
   5888       2.00000          -0.251530           -6.84447
   5889       2.00000          -0.251530           -6.84447
   5890       2.00000          -0.251444           -6.84215
   5891       2.00000          -0.251429           -6.84173
   5892       2.00000          -0.251391           -6.84070
   5893       2.00000          -0.251289           -6.83793
   5894       2.00000          -0.251231           -6.83635
   5895       2.00000          -0.251208           -6.83572
   5896       2.00000          -0.251162           -6.83448
   5897       2.00000          -0.251144           -6.83397
   5898       2.00000          -0.251089           -6.83249
   5899       2.00000          -0.251059           -6.83167
   5900       2.00000          -0.251043           -6.83123
   5901       2.00000          -0.250953           -6.82877
   5902       2.00000          -0.250917           -6.82780
   5903       2.00000          -0.250801           -6.82464
   5904       2.00000          -0.250291           -6.81076
   5905       2.00000          -0.250267           -6.81011
   5906       2.00000          -0.250163           -6.80728
   5907       2.00000          -0.250009           -6.80310
   5908       2.00000          -0.249982           -6.80234
   5909       2.00000          -0.249972           -6.80209
   5910       2.00000          -0.249711           -6.79497
   5911       2.00000          -0.249702           -6.79475
   5912       2.00000          -0.248853           -6.77163
   5913       2.00000          -0.248732           -6.76833
   5914       2.00000          -0.248495           -6.76188
   5915       2.00000          -0.248463           -6.76103
   5916       2.00000          -0.248341           -6.75769
   5917       2.00000          -0.248243           -6.75503
   5918       2.00000          -0.248139           -6.75221
   5919       2.00000          -0.248085           -6.75074
   5920       2.00000          -0.248024           -6.74909
   5921       2.00000          -0.248017           -6.74888
   5922       2.00000          -0.248002           -6.74847
   5923       2.00000          -0.247977           -6.74779
   5924       2.00000          -0.247947           -6.74698
   5925       2.00000          -0.247924           -6.74637
   5926       2.00000          -0.247890           -6.74543
   5927       2.00000          -0.247875           -6.74503
   5928       2.00000          -0.247763           -6.74198
   5929       2.00000          -0.247758           -6.74183
   5930       2.00000          -0.247744           -6.74145
   5931       2.00000          -0.247732           -6.74113
   5932       2.00000          -0.247730           -6.74107
   5933       2.00000          -0.247684           -6.73982
   5934       2.00000          -0.247684           -6.73982
   5935       2.00000          -0.247668           -6.73938
   5936       2.00000          -0.247363           -6.73108
   5937       2.00000          -0.247203           -6.72672
   5938       2.00000          -0.247183           -6.72619
   5939       2.00000          -0.247153           -6.72536
   5940       2.00000          -0.247075           -6.72324
   5941       2.00000          -0.247057           -6.72277
   5942       2.00000          -0.246873           -6.71776
   5943       2.00000          -0.246851           -6.71716
   5944       2.00000          -0.246849           -6.71711
   5945       2.00000          -0.246837           -6.71677
   5946       2.00000          -0.246800           -6.71578
   5947       2.00000          -0.246756           -6.71457
   5948       2.00000          -0.246741           -6.71418
   5949       2.00000          -0.246729           -6.71384
   5950       2.00000          -0.246709           -6.71331
   5951       2.00000          -0.246636           -6.71131
   5952       2.00000          -0.246584           -6.70990
   5953       2.00000          -0.246528           -6.70837
   5954       2.00000          -0.246501           -6.70764
   5955       2.00000          -0.246399           -6.70487
   5956       2.00000          -0.246292           -6.70193
   5957       2.00000          -0.246244           -6.70063
   5958       2.00000          -0.246231           -6.70028
   5959       2.00000          -0.246173           -6.69870
   5960       2.00000          -0.246123           -6.69736
   5961       2.00000          -0.245736           -6.68683
   5962       2.00000          -0.245698           -6.68579
   5963       2.00000          -0.245667           -6.68494
   5964       2.00000          -0.245617           -6.68359
   5965       2.00000          -0.243740           -6.63249
   5966       2.00000          -0.243697           -6.63132
   5967       2.00000          -0.243684           -6.63097
   5968       2.00000          -0.243621           -6.62928
   5969       2.00000          -0.243445           -6.62447
   5970       2.00000          -0.243322           -6.62114
   5971       2.00000          -0.243190           -6.61753
   5972       2.00000          -0.243160           -6.61673
   5973       2.00000          -0.243127           -6.61583
   5974       2.00000          -0.243079           -6.61453
   5975       2.00000          -0.243018           -6.61286
   5976       2.00000          -0.242931           -6.61048
   5977       2.00000          -0.242805           -6.60706
   5978       2.00000          -0.242793           -6.60673
   5979       2.00000          -0.242780           -6.60637
   5980       2.00000          -0.242757           -6.60575
   5981       2.00000          -0.242718           -6.60471
   5982       2.00000          -0.242698           -6.60416
   5983       2.00000          -0.242678           -6.60362
   5984       2.00000          -0.242661           -6.60314
   5985       2.00000          -0.242404           -6.59615
   5986       2.00000          -0.242383           -6.59558
   5987       2.00000          -0.242350           -6.59468
   5988       2.00000          -0.242347           -6.59458
   5989       2.00000          -0.242320           -6.59387
   5990       2.00000          -0.242317           -6.59378
   5991       2.00000          -0.242303           -6.59341
   5992       2.00000          -0.242181           -6.59007
   5993       2.00000          -0.241925           -6.58311
   5994       2.00000          -0.241893           -6.58225
   5995       2.00000          -0.241786           -6.57932
   5996       2.00000          -0.241761           -6.57864
   5997       2.00000          -0.241741           -6.57810
   5998       2.00000          -0.241632           -6.57515
   5999       2.00000          -0.241589           -6.57398
   6000       2.00000          -0.241575           -6.57359
   6001       2.00000          -0.241446           -6.57007
   6002       2.00000          -0.241371           -6.56804
   6003       2.00000          -0.241363           -6.56781
   6004       2.00000          -0.241307           -6.56630
   6005       2.00000          -0.241178           -6.56277
   6006       2.00000          -0.241010           -6.55822
   6007       2.00000          -0.241010           -6.55822
   6008       2.00000          -0.241003           -6.55804
   6009       2.00000          -0.240924           -6.55586
   6010       2.00000          -0.240914           -6.55562
   6011       2.00000          -0.240883           -6.55477
   6012       2.00000          -0.240858           -6.55408
   6013       2.00000          -0.240847           -6.55377
   6014       2.00000          -0.240263           -6.53788
   6015       2.00000          -0.240219           -6.53670
   6016       2.00000          -0.240181           -6.53564
   6017       2.00000          -0.240150           -6.53482
   6018       2.00000          -0.239527           -6.51785
   6019       2.00000          -0.239308           -6.51191
   6020       2.00000          -0.239304           -6.51180
   6021       2.00000          -0.239299           -6.51167
   6022       2.00000          -0.239296           -6.51158
   6023       2.00000          -0.239285           -6.51129
   6024       2.00000          -0.238907           -6.50100
   6025       2.00000          -0.238872           -6.50003
   6026       2.00000          -0.238831           -6.49893
   6027       2.00000          -0.238792           -6.49787
   6028       2.00000          -0.238733           -6.49626
   6029       2.00000          -0.238719           -6.49587
   6030       2.00000          -0.238693           -6.49515
   6031       2.00000          -0.238659           -6.49423
   6032       2.00000          -0.238655           -6.49412
   6033       2.00000          -0.238639           -6.49370
   6034       2.00000          -0.238598           -6.49257
   6035       2.00000          -0.238356           -6.48600
   6036       2.00000          -0.238328           -6.48522
   6037       2.00000          -0.238312           -6.48479
   6038       2.00000          -0.238301           -6.48451
   6039       2.00000          -0.238281           -6.48395
   6040       2.00000          -0.238253           -6.48319
   6041       2.00000          -0.238248           -6.48307
   6042       2.00000          -0.238242           -6.48290
   6043       2.00000          -0.237504           -6.46281
   6044       2.00000          -0.237486           -6.46233
   6045       2.00000          -0.237445           -6.46120
   6046       2.00000          -0.237430           -6.46079
   6047       2.00000          -0.237290           -6.45700
   6048       2.00000          -0.237283           -6.45681
   6049       2.00000          -0.237276           -6.45661
   6050       2.00000          -0.237244           -6.45574
   6051       2.00000          -0.237097           -6.45175
   6052       2.00000          -0.236970           -6.44828
   6053       2.00000          -0.236956           -6.44790
   6054       2.00000          -0.236939           -6.44745
   6055       2.00000          -0.236746           -6.44218
   6056       2.00000          -0.236738           -6.44197
   6057       2.00000          -0.235891           -6.41892
   6058       2.00000          -0.235874           -6.41847
   6059       2.00000          -0.235831           -6.41728
   6060       2.00000          -0.235767           -6.41554
   6061       2.00000          -0.235733           -6.41461
   6062       2.00000          -0.235727           -6.41445
   6063       2.00000          -0.235716           -6.41416
   6064       2.00000          -0.235700           -6.41373
   6065       2.00000          -0.235108           -6.39763
   6066       2.00000          -0.235080           -6.39686
   6067       2.00000          -0.235061           -6.39633
   6068       2.00000          -0.235050           -6.39602
   6069       2.00000          -0.235033           -6.39558
   6070       2.00000          -0.234960           -6.39359
   6071       2.00000          -0.234923           -6.39259
   6072       2.00000          -0.234905           -6.39210
   6073       2.00000          -0.234426           -6.37904
   6074       2.00000          -0.233025           -6.34093
   6075       2.00000          -0.231920           -6.31086
   6076       2.00000          -0.231908           -6.31053
   6077       2.00000          -0.231888           -6.30998
   6078       2.00000          -0.231837           -6.30859
   6079       2.00000          -0.231303           -6.29409
   6080       2.00000          -0.231047           -6.28712
   6081       2.00000          -0.231028           -6.28659
   6082       2.00000          -0.230969           -6.28500
   6083       2.00000          -0.230843           -6.28155
   6084       2.00000          -0.230835           -6.28134
   6085       2.00000          -0.230759           -6.27926
   6086       2.00000          -0.230722           -6.27828
   6087       2.00000          -0.229197           -6.23678
   6088       2.00000          -0.227705           -6.19618
   6089       2.00000          -0.227357           -6.18671
   6090       2.00000          -0.226974           -6.17628
   6091       2.00000          -0.226962           -6.17596
   6092       2.00000          -0.226914           -6.17465
   6093       2.00000          -0.226902           -6.17432
   6094       2.00000          -0.226864           -6.17328
   6095       2.00000          -0.226817           -6.17202
   6096       2.00000          -0.226754           -6.17030
   6097       2.00000          -0.226294           -6.15777
   6098       2.00000          -0.225005           -6.12269
   6099       2.00000          -0.224852           -6.11854
   6100       2.00000          -0.224740           -6.11550
   6101       2.00000          -0.224552           -6.11038
   6102       2.00000          -0.218524           -5.94634
   6103       2.00000          -0.217889           -5.92905
   6104       2.00000          -0.217667           -5.92301
   6105       2.00000          -0.217605           -5.92134
   6106       2.00000          -0.216776           -5.89878
   6107       2.00000          -0.213217           -5.80193
   6108       2.00000          -0.213095           -5.79861
   6109       2.00000          -0.211529           -5.75600
   6110       2.00000          -0.209416           -5.69849
   6111       2.00000          -0.209404           -5.69818
   6112       2.00000          -0.209307           -5.69554
   6113       2.00000          -0.209253           -5.69407
   6114       2.00000          -0.209120           -5.69043
   6115       2.00000          -0.209101           -5.68993
   6116       2.00000          -0.208193           -5.66523
   6117       2.00000          -0.207818           -5.65501
   6118       2.00000          -0.204262           -5.55825
   6119       2.00000          -0.204142           -5.55500
   6120       2.00000          -0.204087           -5.55350
   6121       2.00000          -0.204053           -5.55255
   6122       2.00000          -0.202842           -5.51960
   6123       2.00000          -0.202417           -5.50803
   6124       2.00000          -0.202318           -5.50536
   6125       2.00000          -0.202032           -5.49757
   6126       2.00000          -0.198143           -5.39176
   6127       2.00000          -0.198053           -5.38929
   6128       2.00000          -0.198050           -5.38922
   6129       2.00000          -0.197937           -5.38613
   6130       2.00000          -0.197689           -5.37938
   6131       2.00000          -0.197631           -5.37782
   6132       2.00000          -0.197561           -5.37590
   6133       2.00000          -0.196965           -5.35969
   6134       2.00000          -0.188573           -5.13134
   6135       2.00000          -0.187192           -5.09376
   6136       2.00000          -0.187094           -5.09108
   6137       2.00000          -0.186706           -5.08053
   6138       2.00000          -0.174065           -4.73656
   6139       2.00000          -0.173085           -4.70988
   6140       2.00000          -0.172794           -4.70196
   6141       2.00000          -0.172777           -4.70150
   6142       2.00000          -0.172082           -4.68259
   6143       2.00000          -0.171947           -4.67892
   6144       2.00000          -0.171879           -4.67706
   6145       2.00000          -0.171516           -4.66719
   6146       2.00000          -0.170260           -4.63300
   6147       2.00000          -0.170033           -4.62684
   6148       2.00000          -0.169894           -4.62306
   6149       2.00000          -0.169066           -4.60052
   6150       2.00000          -0.169043           -4.59990
   6151       2.00000          -0.168663           -4.58956
   6152       2.00000          -0.168655           -4.58933
   6153       2.00000          -0.168617           -4.58830
   6154       2.00000          -0.165666           -4.50799
   6155       2.00000          -0.165203           -4.49540
   6156       2.00000          -0.164577           -4.47836
   6157       1.99994          -0.158524           -4.31366
   6158       1.99144          -0.158167           -4.30395
   6159       1.98498          -0.158116           -4.30256
   6160       1.98055          -0.158091           -4.30189
   6161       1.97857          -0.158082           -4.30163
   6162       1.96956          -0.158047           -4.30067
   6163       1.10998          -0.157520           -4.28634
   6164       0.98497          -0.157479           -4.28523
   6165       0.00000          -0.156152           -4.24910
   6166       0.00000          -0.156101           -4.24773
   6167       0.00000          -0.156062           -4.24666
   6168       0.00000          -0.156026           -4.24567
   6169       0.00000          -0.155736           -4.23778
   6170       0.00000          -0.155698           -4.23676
   6171       0.00000          -0.155684           -4.23637
   6172       0.00000          -0.155672           -4.23604
   6173       0.00000          -0.149992           -4.08150
   6174       0.00000          -0.148759           -4.04793
   6175       0.00000          -0.148529           -4.04167
   6176       0.00000          -0.147870           -4.02375
   6177       0.00000          -0.147486           -4.01329
   6178       0.00000          -0.146951           -3.99873
   6179       0.00000          -0.146855           -3.99613
   6180       0.00000          -0.146746           -3.99316
   6181       0.00000          -0.146742           -3.99305
   6182       0.00000          -0.139576           -3.79806
   6183       0.00000          -0.138486           -3.76840
   6184       0.00000          -0.137661           -3.74596
   6185       0.00000          -0.137567           -3.74339
   6186       0.00000          -0.136216           -3.70663
   6187       0.00000          -0.134809           -3.66834
   6188       0.00000          -0.133896           -3.64351
   6189       0.00000          -0.133770           -3.64008
   6190       0.00000          -0.133370           -3.62919
   6191       0.00000          -0.133003           -3.61919
   6192       0.00000          -0.129751           -3.53070
   6193       0.00000          -0.129429           -3.52194
   6194       0.00000          -0.129385           -3.52075
   6195       0.00000          -0.129380           -3.52061
   6196       0.00000          -0.129331           -3.51926
   6197       0.00000          -0.129241           -3.51683
   6198       0.00000          -0.129204           -3.51583
   6199       0.00000          -0.129204           -3.51581
   6200       0.00000          -0.129024           -3.51093
   6201       0.00000          -0.128783           -3.50436
   6202       0.00000          -0.128446           -3.49521
   6203       0.00000          -0.128257           -3.49005
   6204       0.00000          -0.128232           -3.48938
   6205       0.00000          -0.128188           -3.48817
   6206       0.00000          -0.128028           -3.48382
   6207       0.00000          -0.127780           -3.47707
   6208       0.00000          -0.127574           -3.47146
   6209       0.00000          -0.127456           -3.46824
   6210       0.00000          -0.127421           -3.46731
   6211       0.00000          -0.126644           -3.44616
   6212       0.00000          -0.126637           -3.44597
   6213       0.00000          -0.126629           -3.44575
   6214       0.00000          -0.126617           -3.44541
   6215       0.00000          -0.125209           -3.40710
   6216       0.00000          -0.120353           -3.27496
   6217       0.00000          -0.119150           -3.24223
   6218       0.00000          -0.118428           -3.22260
   6219       0.00000          -0.117770           -3.20467
   6220       0.00000          -0.106434           -2.89623
   6221       0.00000          -0.106174           -2.88913
   6222       0.00000          -0.105948           -2.88300
   6223       0.00000          -0.105924           -2.88234
   6224       0.00000          -0.100570           -2.73666
   6225       0.00000          -0.096937           -2.63779
   6226       0.00000          -0.096848           -2.63537
   6227       0.00000          -0.096411           -2.62348
   6228       0.00000          -0.096339           -2.62151
   6229       0.00000          -0.096330           -2.62128
   6230       0.00000          -0.096328           -2.62121
   6231       0.00000          -0.096246           -2.61899
   6232       0.00000          -0.096195           -2.61760
   6233       0.00000          -0.096116           -2.61545
   6234       0.00000          -0.096067           -2.61411
   6235       0.00000          -0.094621           -2.57477
   6236       0.00000          -0.094237           -2.56432
   6237       0.00000          -0.090137           -2.45276
   6238       0.00000          -0.089319           -2.43049
   6239       0.00000          -0.089230           -2.42806
   6240       0.00000          -0.087764           -2.38818
   6241       0.00000          -0.087640           -2.38481
   6242       0.00000          -0.087522           -2.38160
   6243       0.00000          -0.087293           -2.37536
   6244       0.00000          -0.086732           -2.36009
   6245       0.00000          -0.086129           -2.34369
   6246       0.00000          -0.085052           -2.31438
   6247       0.00000          -0.084968           -2.31209
   6248       0.00000          -0.083271           -2.26592
   6249       0.00000          -0.083191           -2.26373
   6250       0.00000          -0.082869           -2.25497
   6251       0.00000          -0.082694           -2.25021
   6252       0.00000          -0.082499           -2.24491
   6253       0.00000          -0.082279           -2.23892
   6254       0.00000          -0.081305           -2.21241
   6255       0.00000          -0.081192           -2.20935
   6256       0.00000          -0.081161           -2.20849
   6257       0.00000          -0.081134           -2.20777
   6258       0.00000          -0.081062           -2.20582
   6259       0.00000          -0.081018           -2.20460
   6260       0.00000          -0.080407           -2.18800
   6261       0.00000          -0.079921           -2.17476
   6262       0.00000          -0.079357           -2.15942
   6263       0.00000          -0.075646           -2.05844
   6264       0.00000          -0.075370           -2.05092
   6265       0.00000          -0.075337           -2.05001
   6266       0.00000          -0.075322           -2.04961
   6267       0.00000          -0.074316           -2.02223
   6268       0.00000          -0.074279           -2.02124
   6269       0.00000          -0.071437           -1.94390
   6270       0.00000          -0.070749           -1.92517
   6271       0.00000          -0.070654           -1.92259
   6272       0.00000          -0.070260           -1.91187
   6273       0.00000          -0.067200           -1.82860
   6274       0.00000          -0.059882           -1.62948
   6275       0.00000          -0.059693           -1.62433
   6276       0.00000          -0.059653           -1.62323
   6277       0.00000          -0.059538           -1.62012
   6278       0.00000          -0.059464           -1.61810
   6279       0.00000          -0.059438           -1.61739
   6280       0.00000          -0.059404           -1.61647
   6281       0.00000          -0.059226           -1.61162
   6282       0.00000          -0.054579           -1.48516
   6283       0.00000          -0.053793           -1.46378
   6284       0.00000          -0.052500           -1.42860
   6285       0.00000          -0.052479           -1.42801
   6286       0.00000          -0.049302           -1.34157
   6287       0.00000          -0.048382           -1.31654
   6288       0.00000          -0.048047           -1.30744
   6289       0.00000          -0.047594           -1.29509
   6290       0.00000          -0.046627           -1.26879
   6291       0.00000          -0.046625           -1.26874
   6292       0.00000          -0.046094           -1.25429
   6293       0.00000          -0.043842           -1.19300
   6294       0.00000          -0.043336           -1.17922
   6295       0.00000          -0.041715           -1.13514
   6296       0.00000          -0.038375           -1.04425
   6297       0.00000          -0.038175           -1.03880
   6298       0.00000          -0.037992           -1.03382
   6299       0.00000          -0.037951           -1.03269
   6300       0.00000          -0.037906           -1.03147
   6301       0.00000          -0.037826           -1.02931
   6302       0.00000          -0.037654           -1.02461
   6303       0.00000          -0.036726           -0.99937
   6304       0.00000          -0.036180           -0.98451
   6305       0.00000          -0.035753           -0.97289
   6306       0.00000          -0.035660           -0.97036
   6307       0.00000          -0.034921           -0.95025
   6308       0.00000          -0.034501           -0.93881
   6309       0.00000          -0.034193           -0.93044
   6310       0.00000          -0.033777           -0.91912
   6311       0.00000          -0.032739           -0.89087
   6312       0.00000          -0.032464           -0.88340
   6313       0.00000          -0.032233           -0.87710
   6314       0.00000          -0.032062           -0.87246
   6315       0.00000          -0.032056           -0.87229
   6316       0.00000          -0.031606           -0.86005
   6317       0.00000          -0.031538           -0.85820
   6318       0.00000          -0.031492           -0.85693
   6319       0.00000          -0.031333           -0.85261
   6320       0.00000          -0.031030           -0.84436
   6321       0.00000          -0.030750           -0.83675
   6322       0.00000          -0.030697           -0.83531
   6323       0.00000          -0.030472           -0.82919
   6324       0.00000          -0.029819           -0.81141
   6325       0.00000          -0.027973           -0.76119
   6326       0.00000          -0.027721           -0.75434
   6327       0.00000          -0.027498           -0.74827
   6328       0.00000          -0.027319           -0.74339
   6329       0.00000          -0.026987           -0.73436
   6330       0.00000          -0.026565           -0.72287
   6331       0.00000          -0.026553           -0.72255
   6332       0.00000          -0.026485           -0.72070
   6333       0.00000          -0.026447           -0.71967
   6334       0.00000          -0.026384           -0.71795
   6335       0.00000          -0.026286           -0.71528
   6336       0.00000          -0.026162           -0.71191
   6337       0.00000          -0.026043           -0.70866
   6338       0.00000          -0.024693           -0.67193
   6339       0.00000          -0.023985           -0.65267
   6340       0.00000          -0.023969           -0.65223
   6341       0.00000          -0.023931           -0.65120
   6342       0.00000          -0.023792           -0.64742
   6343       0.00000          -0.023311           -0.63434
   6344       0.00000          -0.022670           -0.61689
   6345       0.00000          -0.022568           -0.61410
   6346       0.00000          -0.021212           -0.57721
   6347       0.00000          -0.018041           -0.49092
   6348       0.00000          -0.017537           -0.47722
   6349       0.00000          -0.016016           -0.43580
   6350       0.00000          -0.015479           -0.42122
   6351       0.00000          -0.015345           -0.41756
   6352       0.00000          -0.014933           -0.40636
   6353       0.00000          -0.014479           -0.39400
   6354       0.00000          -0.012900           -0.35103
   6355       0.00000          -0.012853           -0.34976
   6356       0.00000          -0.012540           -0.34123
   6357       0.00000          -0.009802           -0.26673
   6358       0.00000          -0.009742           -0.26510
   6359       0.00000          -0.009705           -0.26410
   6360       0.00000          -0.009667           -0.26304
   6361       0.00000          -0.009048           -0.24621
   6362       0.00000          -0.007839           -0.21330
   6363       0.00000          -0.006682           -0.18183
   6364       0.00000          -0.006459           -0.17576
   6365       0.00000          -0.006160           -0.16763
   6366       0.00000          -0.005616           -0.15281
   6367       0.00000          -0.005010           -0.13632
   6368       0.00000          -0.004959           -0.13494
   6369       0.00000          -0.004279           -0.11643
   6370       0.00000          -0.004194           -0.11413
   6371       0.00000          -0.004163           -0.11328
   6372       0.00000          -0.004123           -0.11220
   6373       0.00000          -0.004109           -0.11181
   6374       0.00000          -0.003232           -0.08795
   6375       0.00000          -0.002658           -0.07232
   6376       0.00000          -0.002181           -0.05936
   6377       0.00000          -0.001972           -0.05366
   6378       0.00000           0.000510            0.01388
   6379       0.00000           0.001025            0.02789
   6380       0.00000           0.001214            0.03305
   6381       0.00000           0.001935            0.05266
   6382       0.00000           0.002498            0.06798
   6383       0.00000           0.003647            0.09925
   6384       0.00000           0.003947            0.10741
   6385       0.00000           0.004262            0.11597
   6386       0.00000           0.004313            0.11735
   6387       0.00000           0.004968            0.13518
   6388       0.00000           0.005016            0.13650
   6389       0.00000           0.006261            0.17036
   6390       0.00000           0.006403            0.17424
   6391       0.00000           0.006612            0.17992
   6392       0.00000           0.007172            0.19516
   6393       0.00000           0.018581            0.50562
   6394       0.00000           0.021162            0.57584
   6395       0.00000           0.021509            0.58529
   6396       0.00000           0.023508            0.63969
   6397       0.00000           0.024946            0.67881
   6398       0.00000           0.025117            0.68348
   6399       0.00000           0.025748            0.70063
   6400       0.00000           0.026526            0.72182
   6401       0.00000           0.026654            0.72529
   6402       0.00000           0.026787            0.72892
   6403       0.00000           0.026984            0.73426
   6404       0.00000           0.027071            0.73663
   6405       0.00000           0.027443            0.74677
   6406       0.00000           0.028160            0.76626
   6407       0.00000           0.028376            0.77215
   6408       0.00000           0.033266            0.90522
   6409       0.00000           0.035845            0.97538
   6410       0.00000           0.036300            0.98777
   6411       0.00000           0.037627            1.02387
   6412       0.00000           0.038525            1.04833
   6413       0.00000           0.039308            1.06962
   6414       0.00000           0.041668            1.13383
   6415       0.00000           0.042034            1.14381
   6416       0.00000           0.042443            1.15494
   6417       0.00000           0.042777            1.16402
   6418       0.00000           0.042814            1.16502
   6419       0.00000           0.043215            1.17595
   6420       0.00000           0.043986            1.19692
   6421       0.00000           0.044039            1.19835
   6422       0.00000           0.044459            1.20980
   6423       0.00000           0.045696            1.24344
   6424       0.00000           0.045826            1.24699
   6425       0.00000           0.045841            1.24738
   6426       0.00000           0.045944            1.25019
   6427       0.00000           0.046384            1.26218
   6428       0.00000           0.048970            1.33255
   6429       0.00000           0.049146            1.33733
   6430       0.00000           0.049639            1.35076
   6431       0.00000           0.049774            1.35443
   6432       0.00000           0.049882            1.35735
   6433       0.00000           0.050026            1.36128
   6434       0.00000           0.051234            1.39414
   6435       0.00000           0.051448            1.39998
   6436       0.00000           0.053610            1.45881
   6437       0.00000           0.053738            1.46228
   6438       0.00000           0.054197            1.47479
   6439       0.00000           0.054623            1.48638
   6440       0.00000           0.058828            1.60078
   6441       0.00000           0.059689            1.62422
   6442       0.00000           0.060998            1.65985
   6443       0.00000           0.062081            1.68932
   6444       0.00000           0.062195            1.69240
   6445       0.00000           0.062835            1.70983
   6446       0.00000           0.062918            1.71208
   6447       0.00000           0.062943            1.71277
   6448       0.00000           0.063006            1.71447
   6449       0.00000           0.063076            1.71638
   6450       0.00000           0.063101            1.71708
   6451       0.00000           0.063445            1.72643
   6452       0.00000           0.063611            1.73094
   6453       0.00000           0.063745            1.73459
   6454       0.00000           0.063819            1.73660
   6455       0.00000           0.064846            1.76455
   6456       0.00000           0.065304            1.77700
   6457       0.00000           0.067515            1.83716
   6458       0.00000           0.067522            1.83736
   6459       0.00000           0.067880            1.84710
   6460       0.00000           0.068656            1.86823
   6461       0.00000           0.069957            1.90363
   6462       0.00000           0.070221            1.91081
   6463       0.00000           0.070565            1.92016
   6464       0.00000           0.070674            1.92315
   6465       0.00000           0.071480            1.94508
   6466       0.00000           0.071762            1.95274
   6467       0.00000           0.071972            1.95847
   6468       0.00000           0.073599            2.00272
   6469       0.00000           0.074231            2.01992
   6470       0.00000           0.075895            2.06520
   6471       0.00000           0.076114            2.07118
   6472       0.00000           0.076247            2.07479
   6473       0.00000           0.076733            2.08800
   6474       0.00000           0.076759            2.08871
   6475       0.00000           0.076823            2.09047
   6476       0.00000           0.076888            2.09222
   6477       0.00000           0.077581            2.11109
   6478       0.00000           0.078351            2.13204
   6479       0.00000           0.078427            2.13412
   6480       0.00000           0.079135            2.15338
   6481       0.00000           0.079551            2.16469
   6482       0.00000           0.080973            2.20338
   6483       0.00000           0.081205            2.20971
   6484       0.00000           0.081911            2.22891
   6485       0.00000           0.082324            2.24015
   6486       0.00000           0.082928            2.25657
   6487       0.00000           0.084848            2.30884
   6488       0.00000           0.085239            2.31946
   6489       0.00000           0.085360            2.32278
   6490       0.00000           0.085577            2.32866
   6491       0.00000           0.085876            2.33681
   6492       0.00000           0.086186            2.34523
   6493       0.00000           0.086539            2.35484
   6494       0.00000           0.086818            2.36244
   6495       0.00000           0.087901            2.39192
   6496       0.00000           0.088784            2.41593
   6497       0.00000           0.089057            2.42335
   6498       0.00000           0.089239            2.42833
   6499       0.00000           0.089360            2.43161
   6500       0.00000           0.091650            2.49391
   6501       0.00000           0.092136            2.50715
   6502       0.00000           0.092741            2.52362
   6503       0.00000           0.094328            2.56680
   6504       0.00000           0.094576            2.57354
   6505       0.00000           0.094740            2.57800
   6506       0.00000           0.096363            2.62216
   6507       0.00000           0.096587            2.62825
   6508       0.00000           0.097048            2.64082
   6509       0.00000           0.097123            2.64286
   6510       0.00000           0.097449            2.65172
   6511       0.00000           0.098874            2.69050
   6512       0.00000           0.099991            2.72090
   6513       0.00000           0.102087            2.77792
   6514       0.00000           0.103493            2.81618
   6515       0.00000           0.105302            2.86542
   6516       0.00000           0.105744            2.87744
   6517       0.00000           0.105813            2.87931
   6518       0.00000           0.105921            2.88227
   6519       0.00000           0.106349            2.89392
   6520       0.00000           0.106891            2.90865
   6521       0.00000           0.107027            2.91237
   6522       0.00000           0.107435            2.92346
   6523       0.00000           0.107789            2.93309
   6524       0.00000           0.107826            2.93410
   6525       0.00000           0.107891            2.93587
   6526       0.00000           0.108689            2.95759
   6527       0.00000           0.109171            2.97069
   6528       0.00000           0.109198            2.97142
   6529       0.00000           0.109311            2.97450
   6530       0.00000           0.109475            2.97896
   6531       0.00000           0.110169            2.99785
   6532       0.00000           0.111427            3.03209
   6533       0.00000           0.111673            3.03878
   6534       0.00000           0.111753            3.04096
   6535       0.00000           0.112372            3.05780
   6536       0.00000           0.114830            3.12467
   6537       0.00000           0.115150            3.13340
   6538       0.00000           0.115523            3.14354
   6539       0.00000           0.117728            3.20355
   6540       0.00000           0.119061            3.23981
   6541       0.00000           0.119341            3.24743
   6542       0.00000           0.119797            3.25983
   6543       0.00000           0.120438            3.27727
   6544       0.00000           0.120518            3.27947
   6545       0.00000           0.120577            3.28107
   6546       0.00000           0.121551            3.30757
   6547       0.00000           0.122565            3.33516
   6548       0.00000           0.122572            3.33535
   6549       0.00000           0.122653            3.33755
   6550       0.00000           0.122754            3.34030
   6551       0.00000           0.122948            3.34560
   6552       0.00000           0.123002            3.34706
   6553       0.00000           0.123070            3.34889
   6554       0.00000           0.123636            3.36430
   6555       0.00000           0.124992            3.40119
   6556       0.00000           0.125711            3.42078
   6557       0.00000           0.125926            3.42662
   6558       0.00000           0.126087            3.43100
   6559       0.00000           0.126559            3.44385
   6560       0.00000           0.126746            3.44893
   6561       0.00000           0.126860            3.45204
   6562       0.00000           0.127022            3.45645
   6563       0.00000           0.129826            3.53275
   6564       0.00000           0.130410            3.54863
   6565       0.00000           0.132134            3.59554
   6566       0.00000           0.133261            3.62622
   6567       0.00000           0.133929            3.64440
   6568       0.00000           0.134098            3.64900
   6569       0.00000           0.135135            3.67721
   6570       0.00000           0.136443            3.71279
   6571       0.00000           0.139803            3.80422
   6572       0.00000           0.139872            3.80611
   6573       0.00000           0.140179            3.81445
   6574       0.00000           0.140376            3.81983
   6575       0.00000           0.144219            3.92441
   6576       0.00000           0.145204            3.95121
   6577       0.00000           0.145717            3.96515
   6578       0.00000           0.152478            4.14915
   6579       0.00000           0.152569            4.15160
   6580       0.00000           0.153436            4.17521
   6581       0.00000           0.154844            4.21352
   6582       0.00000           0.155198            4.22315
   6583       0.00000           0.155994            4.24483
   6584       0.00000           0.156148            4.24900
   6585       0.00000           0.156345            4.25436
   6586       0.00000           0.156537            4.25960
   6587       0.00000           0.156630            4.26211
   6588       0.00000           0.156652            4.26271
   6589       0.00000           0.157474            4.28509
   6590       0.00000           0.158559            4.31460
   6591       0.00000           0.158985            4.32619
   6592       0.00000           0.160346            4.36323
   6593       0.00000           0.160751            4.37426
   6594       0.00000           0.161811            4.40311
   6595       0.00000           0.163888            4.45961
   6596       0.00000           0.163944            4.46115
   6597       0.00000           0.163969            4.46182
   6598       0.00000           0.164609            4.47923
   6599       0.00000           0.166975            4.54361
   6600       0.00000           0.168195            4.57681
   6601       0.00000           0.169660            4.61667
   6602       0.00000           0.170135            4.62961
   6603       0.00000           0.170174            4.63068
   6604       0.00000           0.170973            4.65242
   6605       0.00000           0.171619            4.66998
   6606       0.00000           0.171717            4.67266
   6607       0.00000           0.171852            4.67634
   6608       0.00000           0.172032            4.68123
   6609       0.00000           0.172255            4.68731
   6610       0.00000           0.172275            4.68785
   6611       0.00000           0.172703            4.69948
   6612       0.00000           0.173238            4.71405
   6613       0.00000           0.173379            4.71788
   6614       0.00000           0.173522            4.72178
   6615       0.00000           0.173538            4.72222
   6616       0.00000           0.174112            4.73784
   6617       0.00000           0.174182            4.73973
   6618       0.00000           0.174194            4.74007
   6619       0.00000           0.174486            4.74801
   6620       0.00000           0.175502            4.77565
   6621       0.00000           0.175533            4.77648
   6622       0.00000           0.175546            4.77686
   6623       0.00000           0.175612            4.77865
   6624       0.00000           0.176113            4.79228
   6625       0.00000           0.176911            4.81400
   6626       0.00000           0.177105            4.81926
   6627       0.00000           0.177163            4.82084
   6628       0.00000           0.178066            4.84543
   6629       0.00000           0.178951            4.86949
   6630       0.00000           0.179114            4.87395
   6631       0.00000           0.179371            4.88093
   6632       0.00000           0.179956            4.89686
   6633       0.00000           0.181345            4.93464
   6634       0.00000           0.181552            4.94027
   6635       0.00000           0.182883            4.97651
   6636       0.00000           0.183369            4.98971
   6637       0.00000           0.183450            4.99192
   6638       0.00000           0.183727            4.99947
   6639       0.00000           0.185455            5.04648
   6640       0.00000           0.186114            5.06443
   6641       0.00000           0.186214            5.06714
   6642       0.00000           0.186236            5.06775
   6643       0.00000           0.186325            5.07016
   6644       0.00000           0.186415            5.07260
   6645       0.00000           0.186624            5.07830
   6646       0.00000           0.186827            5.08383
   6647       0.00000           0.186914            5.08620
   6648       0.00000           0.187135            5.09220
   6649       0.00000           0.187461            5.10106
   6650       0.00000           0.188161            5.12011
   6651       0.00000           0.188409            5.12687
   6652       0.00000           0.188559            5.13096
   6653       0.00000           0.188656            5.13360
   6654       0.00000           0.188876            5.13958
   6655       0.00000           0.190031            5.17099
   6656       0.00000           0.190227            5.17634
   6657       0.00000           0.190518            5.18427
   6658       0.00000           0.190836            5.19291
   6659       0.00000           0.191007            5.19756
   6660       0.00000           0.191085            5.19968
   6661       0.00000           0.191589            5.21340
   6662       0.00000           0.192274            5.23204
   6663       0.00000           0.192565            5.23996
   6664       0.00000           0.192700            5.24364
   6665       0.00000           0.193688            5.27051
   6666       0.00000           0.193751            5.27222
   6667       0.00000           0.194064            5.28075
   6668       0.00000           0.194162            5.28341
   6669       0.00000           0.194828            5.30154
   6670       0.00000           0.195212            5.31198
   6671       0.00000           0.195526            5.32053
   6672       0.00000           0.195980            5.33290
   6673       0.00000           0.195995            5.33330
   6674       0.00000           0.196089            5.33586
   6675       0.00000           0.196135            5.33711
   6676       0.00000           0.196339            5.34266
   6677       0.00000           0.196960            5.35955
   6678       0.00000           0.197160            5.36500
   6679       0.00000           0.197360            5.37045
   6680       0.00000           0.198160            5.39222
   6681       0.00000           0.198175            5.39262
   6682       0.00000           0.198221            5.39386
   6683       0.00000           0.198797            5.40955
   6684       0.00000           0.198970            5.41426
   6685       0.00000           0.199231            5.42136
   6686       0.00000           0.199540            5.42977
   6687       0.00000           0.199725            5.43479
   6688       0.00000           0.199793            5.43664
   6689       0.00000           0.200781            5.46352
   6690       0.00000           0.202876            5.52054
   6691       0.00000           0.203282            5.53158
   6692       0.00000           0.204287            5.55893
   6693       0.00000           0.204933            5.57651
   6694       0.00000           0.205332            5.58738
   6695       0.00000           0.205598            5.59461
   6696       0.00000           0.205847            5.60138
   6697       0.00000           0.205981            5.60504
   6698       0.00000           0.206646            5.62313
   6699       0.00000           0.207263            5.63992
   6700       0.00000           0.207668            5.65092
   6701       0.00000           0.208369            5.67002
   6702       0.00000           0.208523            5.67419
   6703       0.00000           0.208614            5.67668
   6704       0.00000           0.209021            5.68774
   6705       0.00000           0.209303            5.69542
   6706       0.00000           0.209399            5.69803
   6707       0.00000           0.209588            5.70318
   6708       0.00000           0.209994            5.71422
   6709       0.00000           0.210456            5.72681
   6710       0.00000           0.211230            5.74787
   6711       0.00000           0.211596            5.75783
   6712       0.00000           0.211814            5.76375
   6713       0.00000           0.211906            5.76624
   6714       0.00000           0.213377            5.80627
   6715       0.00000           0.213465            5.80868
   6716       0.00000           0.213573            5.81162
   6717       0.00000           0.213788            5.81748
   6718       0.00000           0.214234            5.82960
   6719       0.00000           0.215942            5.87609
   6720       0.00000           0.216764            5.89844
   6721       0.00000           0.217355            5.91453
   6722       0.00000           0.219051            5.96068
   6723       0.00000           0.219194            5.96456
   6724       0.00000           0.219650            5.97698
   6725       0.00000           0.220079            5.98865
   6726       0.00000           0.220514            6.00050
   6727       0.00000           0.221674            6.03204
   6728       0.00000           0.221729            6.03355
   6729       0.00000           0.221787            6.03512
   6730       0.00000           0.222433            6.05272
   6731       0.00000           0.222677            6.05934
   6732       0.00000           0.222883            6.06494
   6733       0.00000           0.222959            6.06701
   6734       0.00000           0.224073            6.09734
   6735       0.00000           0.224381            6.10571
   6736       0.00000           0.224555            6.11046
   6737       0.00000           0.224614            6.11206
   6738       0.00000           0.224747            6.11568
   6739       0.00000           0.225027            6.12329
   6740       0.00000           0.225069            6.12444
   6741       0.00000           0.225144            6.12647
   6742       0.00000           0.225200            6.12800
   6743       0.00000           0.225832            6.14519
   6744       0.00000           0.225832            6.14520
   6745       0.00000           0.226440            6.16174
   6746       0.00000           0.226887            6.17390
   6747       0.00000           0.227101            6.17973
   6748       0.00000           0.227154            6.18117
   6749       0.00000           0.227754            6.19750
   6750       0.00000           0.228715            6.22366
   6751       0.00000           0.229205            6.23699
   6752       0.00000           0.229664            6.24948
   6753       0.00000           0.229984            6.25819
   6754       0.00000           0.230613            6.27529
   6755       0.00000           0.232300            6.32122
   6756       0.00000           0.232732            6.33295
   6757       0.00000           0.232828            6.33558
   6758       0.00000           0.234008            6.36769
   6759       0.00000           0.234048            6.36878
   6760       0.00000           0.234807            6.38943
   6761       0.00000           0.234941            6.39306
   6762       0.00000           0.235751            6.41512
   6763       0.00000           0.236302            6.43012
   6764       0.00000           0.236349            6.43137
   6765       0.00000           0.237908            6.47381
   6766       0.00000           0.238961            6.50245
   6767       0.00000           0.239086            6.50586
   6768       0.00000           0.239194            6.50881
   6769       0.00000           0.239456            6.51594
   6770       0.00000           0.240204            6.53628
   6771       0.00000           0.242239            6.59165
   6772       0.00000           0.242623            6.60210
   6773       0.00000           0.242759            6.60582
   6774       0.00000           0.242846            6.60818
   6775       0.00000           0.242884            6.60922
   6776       0.00000           0.242923            6.61028
   6777       0.00000           0.243112            6.61541
   6778       0.00000           0.243727            6.63214
   6779       0.00000           0.244163            6.64401
   6780       0.00000           0.244496            6.65308
   6781       0.00000           0.244980            6.66624
   6782       0.00000           0.245263            6.67394
   6783       0.00000           0.245408            6.67789
   6784       0.00000           0.245990            6.69372
   6785       0.00000           0.246269            6.70133
   6786       0.00000           0.246412            6.70521
   6787       0.00000           0.246650            6.71168
   6788       0.00000           0.248084            6.75071
   6789       0.00000           0.248789            6.76988
   6790       0.00000           0.248799            6.77016
   6791       0.00000           0.249636            6.79294
   6792       0.00000           0.249675            6.79401
   6793       0.00000           0.249718            6.79518
   6794       0.00000           0.249752            6.79611
   6795       0.00000           0.249838            6.79845
   6796       0.00000           0.250237            6.80928
   6797       0.00000           0.250281            6.81049
   6798       0.00000           0.250703            6.82198
   6799       0.00000           0.250820            6.82515
   6800       0.00000           0.251376            6.84029
   6801       0.00000           0.251414            6.84131
   6802       0.00000           0.251773            6.85110
   6803       0.00000           0.252851            6.88043
   6804       0.00000           0.253562            6.89977
   6805       0.00000           0.253862            6.90792
   6806       0.00000           0.253971            6.91091
   6807       0.00000           0.254220            6.91769
   6808       0.00000           0.255171            6.94356
   6809       0.00000           0.255499            6.95249
   6810       0.00000           0.256063            6.96784
   6811       0.00000           0.257285            7.00109
   6812       0.00000           0.257902            7.01788
   6813       0.00000           0.258019            7.02104
   6814       0.00000           0.258446            7.03266
   6815       0.00000           0.258576            7.03622
   6816       0.00000           0.258627            7.03760
   6817       0.00000           0.258760            7.04122
   6818       0.00000           0.259641            7.06518
   6819       0.00000           0.259989            7.07467
   6820       0.00000           0.260004            7.07507
   6821       0.00000           0.260222            7.08101
   6822       0.00000           0.260552            7.08997
   6823       0.00000           0.265754            7.23154
   6824       0.00000           0.265866            7.23458
   6825       0.00000           0.266462            7.25080
   6826       0.00000           0.266982            7.26494
   6827       0.00000           0.268443            7.30471
   6828       0.00000           0.268528            7.30701
   6829       0.00000           0.268537            7.30727
   6830       0.00000           0.268781            7.31391
   6831       0.00000           0.271548            7.38919
   6832       0.00000           0.272554            7.41657
   6833       0.00000           0.274539            7.47059
   6834       0.00000           0.276375            7.52054
   6835       0.00000           0.277059            7.53917
   6836       0.00000           0.277602            7.55394
   6837       0.00000           0.278365            7.57471
   6838       0.00000           0.278676            7.58317
   6839       0.00000           0.279486            7.60521
   6840       0.00000           0.279732            7.61189
   6841       0.00000           0.279742            7.61216
   6842       0.00000           0.280294            7.62719
   6843       0.00000           0.280621            7.63609
   6844       0.00000           0.281217            7.65231
   6845       0.00000           0.281371            7.65650
   6846       0.00000           0.281676            7.66479
   6847       0.00000           0.281786            7.66778
   6848       0.00000           0.282186            7.67868
   6849       0.00000           0.282261            7.68071
   6850       0.00000           0.282950            7.69946
   6851       0.00000           0.282995            7.70070
   6852       0.00000           0.283458            7.71327
   6853       0.00000           0.283471            7.71364
   6854       0.00000           0.283700            7.71987
   6855       0.00000           0.283806            7.72276
   6856       0.00000           0.284110            7.73102
   6857       0.00000           0.284683            7.74661
   6858       0.00000           0.285781            7.77648
   6859       0.00000           0.288071            7.83880
   6860       0.00000           0.288699            7.85589
   6861       0.00000           0.288923            7.86199
   6862       0.00000           0.288973            7.86335
   6863       0.00000           0.289236            7.87050
   6864       0.00000           0.289303            7.87233
   6865       0.00000           0.289620            7.88097
   6866       0.00000           0.289911            7.88887
   6867       0.00000           0.290349            7.90081
   6868       0.00000           0.291063            7.92022
   6869       0.00000           0.292028            7.94650
   6870       0.00000           0.292206            7.95132
   6871       0.00000           0.292847            7.96878
   6872       0.00000           0.295527            8.04169
   6873       0.00000           0.296432            8.06631
   6874       0.00000           0.296785            8.07593
   6875       0.00000           0.297432            8.09354
   6876       0.00000           0.299031            8.13706
   6877       0.00000           0.301248            8.19736
   6878       0.00000           0.302065            8.21961
   6879       0.00000           0.302651            8.23556
   6880       0.00000           0.303680            8.26357
   6881       0.00000           0.304337            8.28144
   6882       0.00000           0.304504            8.28597
   6883       0.00000           0.304698            8.29125
   6884       0.00000           0.304787            8.29368
   6885       0.00000           0.305024            8.30013
   6886       0.00000           0.305091            8.30194
   6887       0.00000           0.305128            8.30294
   6888       0.00000           0.305232            8.30579
   6889       0.00000           0.306660            8.34464
   6890       0.00000           0.307532            8.36838
   6891       0.00000           0.308880            8.40506
   6892       0.00000           0.309109            8.41129
   6893       0.00000           0.311922            8.48783
   6894       0.00000           0.312188            8.49507
   6895       0.00000           0.313119            8.52039
   6896       0.00000           0.313316            8.52575
   6897       0.00000           0.314622            8.56130
   6898       0.00000           0.315653            8.58935
   6899       0.00000           0.316006            8.59896
   6900       0.00000           0.316182            8.60374
   6901       0.00000           0.316789            8.62028
   6902       0.00000           0.317697            8.64497
   6903       0.00000           0.317894            8.65034
   6904       0.00000           0.318909            8.67795
   6905       0.00000           0.320090            8.71010
   6906       0.00000           0.320169            8.71224
   6907       0.00000           0.320877            8.73152
   6908       0.00000           0.321278            8.74242
   6909       0.00000           0.322151            8.76617
   6910       0.00000           0.322197            8.76744
   6911       0.00000           0.322768            8.78296
   6912       0.00000           0.323375            8.79947
   6913       0.00000           0.323408            8.80038
   6914       0.00000           0.323414            8.80054
   6915       0.00000           0.323441            8.80129
   6916       0.00000           0.324323            8.82527
   6917       0.00000           0.324425            8.82806
   6918       0.00000           0.324573            8.83208
   6919       0.00000           0.324825            8.83893
   6920       0.00000           0.325404            8.85470
   6921       0.00000           0.325527            8.85805
   6922       0.00000           0.326154            8.87509
   6923       0.00000           0.326274            8.87838
   6924       0.00000           0.328473            8.93820
   6925       0.00000           0.328698            8.94432
   6926       0.00000           0.329723            8.97223
   6927       0.00000           0.329866            8.97611
   6928       0.00000           0.329975            8.97907
   6929       0.00000           0.330168            8.98432
   6930       0.00000           0.330641            8.99721
   6931       0.00000           0.331009            9.00722
   6932       0.00000           0.331031            9.00781
   6933       0.00000           0.331061            9.00863
   6934       0.00000           0.331168            9.01154
   6935       0.00000           0.331643            9.02448
   6936       0.00000           0.332029            9.03496
   6937       0.00000           0.332198            9.03955
   6938       0.00000           0.333788            9.08282
   6939       0.00000           0.334370            9.09866
   6940       0.00000           0.335251            9.12266
   6941       0.00000           0.335576            9.13150
   6942       0.00000           0.335749            9.13620
   6943       0.00000           0.336046            9.14427
   6944       0.00000           0.336542            9.15778
   6945       0.00000           0.337009            9.17048
   6946       0.00000           0.337533            9.18474
   6947       0.00000           0.337758            9.19086
   6948       0.00000           0.337834            9.19294
   6949       0.00000           0.338159            9.20176
   6950       0.00000           0.339021            9.22523
   6951       0.00000           0.339390            9.23528
   6952       0.00000           0.339684            9.24328
   6953       0.00000           0.340039            9.25292
   6954       0.00000           0.340055            9.25337
   6955       0.00000           0.340760            9.27256
   6956       0.00000           0.340958            9.27794
   6957       0.00000           0.341238            9.28556
   6958       0.00000           0.341251            9.28592
   6959       0.00000           0.341416            9.29041
   6960       0.00000           0.341624            9.29606
   6961       0.00000           0.341974            9.30559
   6962       0.00000           0.342289            9.31416
   6963       0.00000           0.342490            9.31962
   6964       0.00000           0.342637            9.32363
   6965       0.00000           0.342913            9.33113
   6966       0.00000           0.343088            9.33591
   6967       0.00000           0.343150            9.33757
   6968       0.00000           0.343180            9.33841
   6969       0.00000           0.343435            9.34533
   6970       0.00000           0.343716            9.35299
   6971       0.00000           0.344067            9.36254
   6972       0.00000           0.344360            9.37051
   6973       0.00000           0.344726            9.38047
   6974       0.00000           0.344763            9.38148
   6975       0.00000           0.345067            9.38976
   6976       0.00000           0.345502            9.40160
   6977       0.00000           0.346134            9.41879
   6978       0.00000           0.346263            9.42228
   6979       0.00000           0.346295            9.42318
   6980       0.00000           0.346458            9.42760
   6981       0.00000           0.346718            9.43467
   6982       0.00000           0.346833            9.43780
   6983       0.00000           0.347056            9.44387
   6984       0.00000           0.347114            9.44546
   6985       0.00000           0.347497            9.45586
   6986       0.00000           0.347593            9.45850
   6987       0.00000           0.347852            9.46552
   6988       0.00000           0.347903            9.46693
   6989       0.00000           0.348127            9.47301
   6990       0.00000           0.348214            9.47538
   6991       0.00000           0.348676            9.48796
   6992       0.00000           0.349083            9.49903
   6993       0.00000           0.349347            9.50622
   6994       0.00000           0.349675            9.51514
   6995       0.00000           0.351458            9.56366
   6996       0.00000           0.352822            9.60077
   6997       0.00000           0.353072            9.60758
   6998       0.00000           0.353468            9.61835
   6999       0.00000           0.356478            9.70025
   7000       0.00000           0.356650            9.70495
   7001       0.00000           0.356926            9.71244
   7002       0.00000           0.357884            9.73851
   7003       0.00000           0.358775            9.76276
   7004       0.00000           0.358804            9.76355
   7005       0.00000           0.358906            9.76632
   7006       0.00000           0.359041            9.77000
   7007       0.00000           0.359556            9.78400
   7008       0.00000           0.360191            9.80131
   7009       0.00000           0.360407            9.80718
   7010       0.00000           0.361235            9.82971
   7011       0.00000           0.361337            9.83249
   7012       0.00000           0.361475            9.83623
   7013       0.00000           0.361812            9.84540
   7014       0.00000           0.361921            9.84838
   7015       0.00000           0.363462            9.89029
   7016       0.00000           0.363933            9.90313
   7017       0.00000           0.364168            9.90953
   7018       0.00000           0.365259            9.93921
   7019       0.00000           0.365413            9.94341
   7020       0.00000           0.365943            9.95781
   7021       0.00000           0.366485            9.97257
   7022       0.00000           0.367293            9.99454
   7023       0.00000           0.367714           10.00602
   7024       0.00000           0.367816           10.00878
   7025       0.00000           0.368283           10.02149
   7026       0.00000           0.368547           10.02868
   7027       0.00000           0.369261           10.04811
   7028       0.00000           0.370144           10.07212
   7029       0.00000           0.370796           10.08987
   7030       0.00000           0.371165           10.09991
   7031       0.00000           0.371432           10.10718
   7032       0.00000           0.371810           10.11746
   7033       0.00000           0.371849           10.11852
   7034       0.00000           0.371974           10.12194
   7035       0.00000           0.372165           10.12713
   7036       0.00000           0.372462           10.13522
   7037       0.00000           0.372515           10.13664
   7038       0.00000           0.373889           10.17404
   7039       0.00000           0.375519           10.21839
   7040       0.00000           0.376496           10.24499
   7041       0.00000           0.376499           10.24507
   7042       0.00000           0.377586           10.27464
   7043       0.00000           0.380581           10.35615
   7044       0.00000           0.380883           10.36436
   7045       0.00000           0.381005           10.36767
   7046       0.00000           0.381177           10.37234
   7047       0.00000           0.381434           10.37935
   7048       0.00000           0.381972           10.39399
   7049       0.00000           0.382151           10.39886
   7050       0.00000           0.382449           10.40697
   7051       0.00000           0.382637           10.41208
   7052       0.00000           0.384485           10.46237
   7053       0.00000           0.385576           10.49205
   7054       0.00000           0.385857           10.49971
   7055       0.00000           0.387349           10.54029
   7056       0.00000           0.388482           10.57112
   7057       0.00000           0.393084           10.69637
   7058       0.00000           0.393153           10.69824
   7059       0.00000           0.393264           10.70126
   7060       0.00000           0.393361           10.70390
   7061       0.00000           0.396768           10.79660
   7062       0.00000           0.398397           10.84093
   7063       0.00000           0.398481           10.84321
   7064       0.00000           0.400399           10.89542
   7065       0.00000           0.400583           10.90041
   7066       0.00000           0.403086           10.96853
   7067       0.00000           0.403200           10.97162
   7068       0.00000           0.403212           10.97195
   7069       0.00000           0.403326           10.97505
   7070       0.00000           0.404764           11.01419
   7071       0.00000           0.406743           11.06803
   7072       0.00000           0.407973           11.10150
   7073       0.00000           0.408373           11.11240
   7074       0.00000           0.408793           11.12381
   7075       0.00000           0.410174           11.16141
   7076       0.00000           0.410816           11.17887
   7077       0.00000           0.411116           11.18703
   7078       0.00000           0.412429           11.22275
   7079       0.00000           0.412698           11.23008
   7080       0.00000           0.413134           11.24195
   7081       0.00000           0.414710           11.28483
   7082       0.00000           0.415729           11.31256
   7083       0.00000           0.417238           11.35361
   7084       0.00000           0.417976           11.37372
   7085       0.00000           0.418364           11.38427
   7086       0.00000           0.418416           11.38567
   7087       0.00000           0.419000           11.40156
   7088       0.00000           0.419003           11.40166
   7089       0.00000           0.419030           11.40239
   7090       0.00000           0.419053           11.40301
   7091       0.00000           0.419419           11.41297
   7092       0.00000           0.419474           11.41448
   7093       0.00000           0.419549           11.41651
   7094       0.00000           0.419881           11.42554
   7095       0.00000           0.420516           11.44283
   7096       0.00000           0.420544           11.44357
   7097       0.00000           0.420639           11.44618
   7098       0.00000           0.420982           11.45551
   7099       0.00000           0.421604           11.47244
   7100       0.00000           0.421715           11.47545
   7101       0.00000           0.422041           11.48431
   7102       0.00000           0.422225           11.48934
   7103       0.00000           0.423276           11.51793
   7104       0.00000           0.424252           11.54449
   7105       0.00000           0.424740           11.55777
   7106       0.00000           0.425010           11.56512
   7107       0.00000           0.426243           11.59866
   7108       0.00000           0.426528           11.60643
   7109       0.00000           0.427180           11.62417
   7110       0.00000           0.427555           11.63436
   7111       0.00000           0.427901           11.64379
   7112       0.00000           0.427948           11.64507
   7113       0.00000           0.428069           11.64834
   7114       0.00000           0.428373           11.65663
   7115       0.00000           0.428742           11.66667
   7116       0.00000           0.429209           11.67938
   7117       0.00000           0.429847           11.69674
   7118       0.00000           0.430244           11.70753
   7119       0.00000           0.430765           11.72172
   7120       0.00000           0.432166           11.75984
   7121       0.00000           0.432487           11.76858
   7122       0.00000           0.432665           11.77340
   7123       0.00000           0.433736           11.80256
   7124       0.00000           0.434565           11.82513
   7125       0.00000           0.435864           11.86047
   7126       0.00000           0.436220           11.87016
   7127       0.00000           0.436656           11.88201
   7128       0.00000           0.436770           11.88511
   7129       0.00000           0.436896           11.88855
   7130       0.00000           0.436951           11.89003
   7131       0.00000           0.437234           11.89775
   7132       0.00000           0.438862           11.94204
   7133       0.00000           0.439254           11.95271
   7134       0.00000           0.440394           11.98373
   7135       0.00000           0.441155           12.00445
   7136       0.00000           0.442171           12.03209
   7137       0.00000           0.442232           12.03374
   7138       0.00000           0.442343           12.03678
   7139       0.00000           0.444001           12.08188
   7140       0.00000           0.444792           12.10342
   7141       0.00000           0.444993           12.10888
   7142       0.00000           0.445368           12.11907
   7143       0.00000           0.445550           12.12402
   7144       0.00000           0.446608           12.15283
   7145       0.00000           0.447301           12.17167
   7146       0.00000           0.447634           12.18073
   7147       0.00000           0.448842           12.21361
   7148       0.00000           0.448850           12.21382
   7149       0.00000           0.449209           12.22359
   7150       0.00000           0.450354           12.25475
   7151       0.00000           0.451423           12.28386
   7152       0.00000           0.451555           12.28744
   7153       0.00000           0.451849           12.29544
   7154       0.00000           0.452860           12.32294
   7155       0.00000           0.453544           12.34156
   7156       0.00000           0.453713           12.34615
   7157       0.00000           0.453887           12.35090
   7158       0.00000           0.454098           12.35663
   7159       0.00000           0.454187           12.35907
   7160       0.00000           0.454207           12.35959
   7161       0.00000           0.454273           12.36141
   7162       0.00000           0.454564           12.36932
   7163       0.00000           0.454694           12.37286
   7164       0.00000           0.455269           12.38849
   7165       0.00000           0.455555           12.39628
   7166       0.00000           0.456868           12.43200
   7167       0.00000           0.456976           12.43496
   7168       0.00000           0.457296           12.44366
   7169       0.00000           0.457547           12.45049
   7170       0.00000           0.457838           12.45842
   7171       0.00000           0.457995           12.46267
   7172       0.00000           0.459530           12.50444
   7173       0.00000           0.459899           12.51449
   7174       0.00000           0.461637           12.56178
   7175       0.00000           0.462194           12.57694
   7176       0.00000           0.462269           12.57898
   7177       0.00000           0.462812           12.59376
   7178       0.00000           0.463204           12.60443
   7179       0.00000           0.464347           12.63553
   7180       0.00000           0.466011           12.68080
   7181       0.00000           0.466102           12.68327
   7182       0.00000           0.466914           12.70537
   7183       0.00000           0.466979           12.70715
   7184       0.00000           0.467169           12.71231
   7185       0.00000           0.467195           12.71303
   7186       0.00000           0.467276           12.71522
   7187       0.00000           0.467294           12.71573
   7188       0.00000           0.468262           12.74206
   7189       0.00000           0.469177           12.76696
   7190       0.00000           0.469455           12.77452
   7191       0.00000           0.470932           12.81471
   7192       0.00000           0.471007           12.81674
   7193       0.00000           0.471063           12.81828
   7194       0.00000           0.471936           12.84203
   7195       0.00000           0.472649           12.86143
   7196       0.00000           0.472837           12.86654
   7197       0.00000           0.472863           12.86725
   7198       0.00000           0.473639           12.88837
   7199       0.00000           0.473698           12.88997
   7200       0.00000           0.474202           12.90369
   7201       0.00000           0.474564           12.91354
   7202       0.00000           0.474756           12.91878
   7203       0.00000           0.475776           12.94652
   7204       0.00000           0.475810           12.94746
   7205       0.00000           0.476015           12.95302
   7206       0.00000           0.476951           12.97849
   7207       0.00000           0.477814           13.00199
   7208       0.00000           0.478190           13.01222
   7209       0.00000           0.478366           13.01701
   7210       0.00000           0.478441           13.01904
   7211       0.00000           0.479005           13.03439
   7212       0.00000           0.479294           13.04226
   7213       0.00000           0.479573           13.04985
   7214       0.00000           0.479625           13.05126
   7215       0.00000           0.480900           13.08597
   7216       0.00000           0.480905           13.08609
   7217       0.00000           0.481643           13.10618
   7218       0.00000           0.482230           13.12214
   7219       0.00000           0.482524           13.13016
   7220       0.00000           0.483238           13.14957
   7221       0.00000           0.483320           13.15180
   7222       0.00000           0.484320           13.17902
   7223       0.00000           0.484496           13.18382
   7224       0.00000           0.485075           13.19956
   7225       0.00000           0.485525           13.21182
   7226       0.00000           0.485771           13.21850
   7227       0.00000           0.486095           13.22733
   7228       0.00000           0.486453           13.23706
   7229       0.00000           0.486577           13.24042
   7230       0.00000           0.486761           13.24545
   7231       0.00000           0.487032           13.25281
   7232       0.00000           0.487535           13.26651
   7233       0.00000           0.488481           13.29225
   7234       0.00000           0.488755           13.29971
   7235       0.00000           0.489099           13.30905
   7236       0.00000           0.489215           13.31223
   7237       0.00000           0.489489           13.31967
   7238       0.00000           0.489495           13.31983
   7239       0.00000           0.489951           13.33223
   7240       0.00000           0.490146           13.33756
   7241       0.00000           0.490661           13.35156
   7242       0.00000           0.490715           13.35305
   7243       0.00000           0.490764           13.35437
   7244       0.00000           0.491662           13.37880
   7245       0.00000           0.491683           13.37937
   7246       0.00000           0.492176           13.39278
   7247       0.00000           0.492294           13.39600
   7248       0.00000           0.492410           13.39915
   7249       0.00000           0.492538           13.40264
   7250       0.00000           0.492613           13.40469
   7251       0.00000           0.492896           13.41239
   7252       0.00000           0.493624           13.43221
   7253       0.00000           0.494166           13.44694
   7254       0.00000           0.494579           13.45819
   7255       0.00000           0.494820           13.46473
   7256       0.00000           0.494990           13.46936
   7257       0.00000           0.495422           13.48111
   7258       0.00000           0.495517           13.48369
   7259       0.00000           0.495900           13.49414
   7260       0.00000           0.495989           13.49653
   7261       0.00000           0.496073           13.49883
   7262       0.00000           0.496220           13.50284
   7263       0.00000           0.496604           13.51328
   7264       0.00000           0.496672           13.51513
   7265       0.00000           0.496810           13.51889
   7266       0.00000           0.497532           13.53853
   7267       0.00000           0.497656           13.54191
   7268       0.00000           0.497804           13.54594
   7269       0.00000           0.497869           13.54772
   7270       0.00000           0.497910           13.54881
   7271       0.00000           0.498750           13.57167
   7272       0.00000           0.498838           13.57408
   7273       0.00000           0.498956           13.57728
   7274       0.00000           0.499023           13.57910
   7275       0.00000           0.499351           13.58803
   7276       0.00000           0.499362           13.58833
   7277       0.00000           0.499610           13.59508
   7278       0.00000           0.499631           13.59565
   7279       0.00000           0.499672           13.59676
   7280       0.00000           0.500208           13.61135
   7281       0.00000           0.500770           13.62665
   7282       0.00000           0.500953           13.63161
   7283       0.00000           0.501545           13.64773
   7284       0.00000           0.501676           13.65129
   7285       0.00000           0.502778           13.68128
   7286       0.00000           0.503216           13.69320
   7287       0.00000           0.504163           13.71896
   7288       0.00000           0.504280           13.72215
   7289       0.00000           0.504724           13.73425
   7290       0.00000           0.505088           13.74415
   7291       0.00000           0.505469           13.75450
   7292       0.00000           0.505837           13.76451
   7293       0.00000           0.505892           13.76602
   7294       0.00000           0.506099           13.77166
   7295       0.00000           0.506428           13.78061
   7296       0.00000           0.506881           13.79292
   7297       0.00000           0.507263           13.80334
   7298       0.00000           0.507942           13.82181
   7299       0.00000           0.511329           13.91397
   7300       0.00000           0.511970           13.93141
   7301       0.00000           0.512588           13.94822
   7302       0.00000           0.513511           13.97334
   7303       0.00000           0.513572           13.97501
   7304       0.00000           0.513976           13.98600
   7305       0.00000           0.514649           14.00430
   7306       0.00000           0.516386           14.05157
   7307       0.00000           0.516672           14.05937
   7308       0.00000           0.517015           14.06870
   7309       0.00000           0.518506           14.10926
   7310       0.00000           0.518616           14.11225
   7311       0.00000           0.519058           14.12429
   7312       0.00000           0.520416           14.16125
   7313       0.00000           0.520989           14.17684
   7314       0.00000           0.521038           14.17818
   7315       0.00000           0.521278           14.18471
   7316       0.00000           0.521390           14.18775
   7317       0.00000           0.521459           14.18963
   7318       0.00000           0.521604           14.19356
   7319       0.00000           0.522792           14.22588
   7320       0.00000           0.522792           14.22588
   7321       0.00000           0.523173           14.23626
   7322       0.00000           0.523638           14.24890
   7323       0.00000           0.523877           14.25541
   7324       0.00000           0.525738           14.30606
   7325       0.00000           0.526259           14.32023
   7326       0.00000           0.526407           14.32427
   7327       0.00000           0.526655           14.33102
   7328       0.00000           0.527233           14.34673
   7329       0.00000           0.527475           14.35333
   7330       0.00000           0.527612           14.35704
   7331       0.00000           0.528055           14.36910
   7332       0.00000           0.528982           14.39432
   7333       0.00000           0.529084           14.39710
   7334       0.00000           0.529250           14.40164
   7335       0.00000           0.529641           14.41226
   7336       0.00000           0.529984           14.42160
   7337       0.00000           0.530255           14.42898
   7338       0.00000           0.530466           14.43473
   7339       0.00000           0.530508           14.43587
   7340       0.00000           0.531614           14.46594
   7341       0.00000           0.532983           14.50320
   7342       0.00000           0.533138           14.50742
   7343       0.00000           0.533345           14.51307
   7344       0.00000           0.535130           14.56164
   7345       0.00000           0.535927           14.58332
   7346       0.00000           0.535969           14.58445
   7347       0.00000           0.536114           14.58839
   7348       0.00000           0.536272           14.59270
   7349       0.00000           0.536462           14.59787
   7350       0.00000           0.537125           14.61592
   7351       0.00000           0.537521           14.62670
   7352       0.00000           0.537601           14.62887
   7353       0.00000           0.537941           14.63813
   7354       0.00000           0.538793           14.66131
   7355       0.00000           0.538795           14.66137
   7356       0.00000           0.538887           14.66387
   7357       0.00000           0.538893           14.66403
   7358       0.00000           0.539909           14.69167
   7359       0.00000           0.539988           14.69382
   7360       0.00000           0.540185           14.69917
   7361       0.00000           0.540231           14.70042
   7362       0.00000           0.540633           14.71138
   7363       0.00000           0.540845           14.71715
   7364       0.00000           0.541043           14.72254
   7365       0.00000           0.541117           14.72456
   7366       0.00000           0.541446           14.73351
   7367       0.00000           0.542260           14.75564
   7368       0.00000           0.542556           14.76369
   7369       0.00000           0.543951           14.80165
   7370       0.00000           0.544149           14.80706
   7371       0.00000           0.544814           14.82513
   7372       0.00000           0.544981           14.82968
   7373       0.00000           0.545477           14.84319
   7374       0.00000           0.545656           14.84806
   7375       0.00000           0.546041           14.85854
   7376       0.00000           0.547021           14.88521
   7377       0.00000           0.547430           14.89634
   7378       0.00000           0.547635           14.90191
   7379       0.00000           0.547661           14.90263
   7380       0.00000           0.547717           14.90414
   7381       0.00000           0.547831           14.90723
   7382       0.00000           0.548079           14.91398
   7383       0.00000           0.548471           14.92466
   7384       0.00000           0.548584           14.92772
   7385       0.00000           0.548772           14.93284
   7386       0.00000           0.549160           14.94341
   7387       0.00000           0.549390           14.94968
   7388       0.00000           0.550122           14.96958
   7389       0.00000           0.550595           14.98246
   7390       0.00000           0.550648           14.98389
   7391       0.00000           0.550907           14.99095
   7392       0.00000           0.551114           14.99656
   7393       0.00000           0.551634           15.01071
   7394       0.00000           0.551833           15.01613
   7395       0.00000           0.552300           15.02885
   7396       0.00000           0.552554           15.03576
   7397       0.00000           0.552824           15.04312
   7398       0.00000           0.552861           15.04412
   7399       0.00000           0.553101           15.05065
   7400       0.00000           0.553304           15.05618
   7401       0.00000           0.553476           15.06084
   7402       0.00000           0.553995           15.07496
   7403       0.00000           0.554127           15.07857
   7404       0.00000           0.554902           15.09966
   7405       0.00000           0.554969           15.10148
   7406       0.00000           0.555780           15.12354
   7407       0.00000           0.556567           15.14497
   7408       0.00000           0.556720           15.14911
   7409       0.00000           0.556895           15.15389
   7410       0.00000           0.557900           15.18122
   7411       0.00000           0.558320           15.19266
   7412       0.00000           0.558324           15.19278
   7413       0.00000           0.560715           15.25783
   7414       0.00000           0.560995           15.26545
   7415       0.00000           0.561014           15.26598
   7416       0.00000           0.561147           15.26958
   7417       0.00000           0.561401           15.27649
   7418       0.00000           0.561728           15.28541
   7419       0.00000           0.563026           15.32071
   7420       0.00000           0.563245           15.32667
   7421       0.00000           0.563626           15.33705
   7422       0.00000           0.564909           15.37196
   7423       0.00000           0.564943           15.37288
   7424       0.00000           0.565090           15.37688
   7425       0.00000           0.565981           15.40112
   7426       0.00000           0.566183           15.40662
   7427       0.00000           0.566269           15.40897
   7428       0.00000           0.566470           15.41443
   7429       0.00000           0.566965           15.42789
   7430       0.00000           0.568126           15.45950
   7431       0.00000           0.568158           15.46036
   7432       0.00000           0.568530           15.47049
   7433       0.00000           0.568672           15.47434
   7434       0.00000           0.568745           15.47634
   7435       0.00000           0.568850           15.47919
   7436       0.00000           0.569150           15.48736
   7437       0.00000           0.569167           15.48783
   7438       0.00000           0.569572           15.49884
   7439       0.00000           0.569862           15.50674
   7440       0.00000           0.570370           15.52057
   7441       0.00000           0.570725           15.53022
   7442       0.00000           0.571783           15.55899
   7443       0.00000           0.572355           15.57457
   7444       0.00000           0.572611           15.58153
   7445       0.00000           0.573418           15.60349
   7446       0.00000           0.573800           15.61388
   7447       0.00000           0.574120           15.62260
   7448       0.00000           0.574266           15.62657
   7449       0.00000           0.574809           15.64136
   7450       0.00000           0.576415           15.68505
   7451       0.00000           0.576616           15.69053
   7452       0.00000           0.577007           15.70116
   7453       0.00000           0.577050           15.70234
   7454       0.00000           0.577212           15.70675
   7455       0.00000           0.577255           15.70792
   7456       0.00000           0.577372           15.71108
   7457       0.00000           0.578209           15.73387
   7458       0.00000           0.579426           15.76698
   7459       0.00000           0.579578           15.77113
   7460       0.00000           0.580329           15.79154
   7461       0.00000           0.580920           15.80764
   7462       0.00000           0.581452           15.82210
   7463       0.00000           0.581667           15.82795
   7464       0.00000           0.581706           15.82904
   7465       0.00000           0.582447           15.84918
   7466       0.00000           0.583027           15.86497
   7467       0.00000           0.583467           15.87693
   7468       0.00000           0.583523           15.87847
   7469       0.00000           0.583806           15.88617
   7470       0.00000           0.584291           15.89936
   7471       0.00000           0.584625           15.90846
   7472       0.00000           0.584777           15.91260
   7473       0.00000           0.585056           15.92018
   7474       0.00000           0.585208           15.92431
   7475       0.00000           0.586104           15.94869
   7476       0.00000           0.586127           15.94934
   7477       0.00000           0.586461           15.95841
   7478       0.00000           0.586895           15.97022
   7479       0.00000           0.587262           15.98022
   7480       0.00000           0.587351           15.98263
   7481       0.00000           0.587767           15.99395
   7482       0.00000           0.587917           15.99805
   7483       0.00000           0.588451           16.01258
   7484       0.00000           0.588800           16.02205
   7485       0.00000           0.588829           16.02286
   7486       0.00000           0.588901           16.02482
   7487       0.00000           0.589033           16.02841
   7488       0.00000           0.589173           16.03221
   7489       0.00000           0.589208           16.03315
   7490       0.00000           0.589632           16.04469
   7491       0.00000           0.589737           16.04756
   7492       0.00000           0.589795           16.04914
   7493       0.00000           0.589926           16.05269
   7494       0.00000           0.589963           16.05371
   7495       0.00000           0.590080           16.05691
   7496       0.00000           0.590120           16.05799
   7497       0.00000           0.590322           16.06347
   7498       0.00000           0.590602           16.07109
   7499       0.00000           0.590772           16.07572
   7500       0.00000           0.591431           16.09365
   7501       0.00000           0.592074           16.11117
   7502       0.00000           0.592231           16.11542
   7503       0.00000           0.592440           16.12110
   7504       0.00000           0.592953           16.13508
   7505       0.00000           0.592989           16.13604
   7506       0.00000           0.594217           16.16947
   7507       0.00000           0.594277           16.17111
   7508       0.00000           0.594306           16.17188
   7509       0.00000           0.595501           16.20441
   7510       0.00000           0.595786           16.21215
   7511       0.00000           0.595787           16.21218
   7512       0.00000           0.595827           16.21328
   7513       0.00000           0.596011           16.21829
   7514       0.00000           0.596396           16.22877
   7515       0.00000           0.597367           16.25519
   7516       0.00000           0.597829           16.26774
   7517       0.00000           0.598008           16.27262
   7518       0.00000           0.598260           16.27947
   7519       0.00000           0.598966           16.29870
   7520       0.00000           0.599440           16.31159
   7521       0.00000           0.599598           16.31588
   7522       0.00000           0.599599           16.31591
   7523       0.00000           0.600216           16.33270
   7524       0.00000           0.600253           16.33371
   7525       0.00000           0.600650           16.34452
   7526       0.00000           0.600732           16.34674
   7527       0.00000           0.601532           16.36851
   7528       0.00000           0.604581           16.45148
   7529       0.00000           0.605555           16.47800
   7530       0.00000           0.605589           16.47890
   7531       0.00000           0.606504           16.50381
   7532       0.00000           0.607314           16.52585
   7533       0.00000           0.608858           16.56786
   7534       0.00000           0.609865           16.59527
   7535       0.00000           0.609936           16.59720
   7536       0.00000           0.610010           16.59922
   7537       0.00000           0.610392           16.60961
   7538       0.00000           0.610693           16.61781
   7539       0.00000           0.610725           16.61867
   7540       0.00000           0.611134           16.62980
   7541       0.00000           0.611230           16.63242
   7542       0.00000           0.612272           16.66077
   7543       0.00000           0.613010           16.68086
   7544       0.00000           0.614102           16.71056
   7545       0.00000           0.614376           16.71802
   7546       0.00000           0.615463           16.74761
   7547       0.00000           0.615609           16.75156
   7548       0.00000           0.615680           16.75351
   7549       0.00000           0.616227           16.76838
   7550       0.00000           0.616810           16.78426
   7551       0.00000           0.617121           16.79271
   7552       0.00000           0.617245           16.79609
   7553       0.00000           0.617477           16.80240
   7554       0.00000           0.617997           16.81655
   7555       0.00000           0.619284           16.85157
   7556       0.00000           0.620414           16.88231
   7557       0.00000           0.621031           16.89912
   7558       0.00000           0.621356           16.90797
   7559       0.00000           0.622741           16.94564
   7560       0.00000           0.622870           16.94916
   7561       0.00000           0.623152           16.95682
   7562       0.00000           0.623334           16.96179
   7563       0.00000           0.623575           16.96833
   7564       0.00000           0.624005           16.98004
   7565       0.00000           0.624526           16.99422
   7566       0.00000           0.624771           17.00087
   7567       0.00000           0.625079           17.00927
   7568       0.00000           0.627268           17.06882
   7569       0.00000           0.627495           17.07502
   7570       0.00000           0.627691           17.08034
   7571       0.00000           0.628021           17.08933
   7572       0.00000           0.629205           17.12155
   7573       0.00000           0.629678           17.13442
   7574       0.00000           0.630231           17.14946
   7575       0.00000           0.630916           17.16811
   7576       0.00000           0.631810           17.19243
   7577       0.00000           0.631889           17.19457
   7578       0.00000           0.631991           17.19734
   7579       0.00000           0.632573           17.21319
   7580       0.00000           0.634320           17.26071
   7581       0.00000           0.634398           17.26286
   7582       0.00000           0.635023           17.27986
   7583       0.00000           0.635144           17.28315
   7584       0.00000           0.635863           17.30272
   7585       0.00000           0.636094           17.30899
   7586       0.00000           0.636227           17.31262
   7587       0.00000           0.636637           17.32378
   7588       0.00000           0.636988           17.33332
   7589       0.00000           0.637317           17.34229
   7590       0.00000           0.637479           17.34669
   7591       0.00000           0.638315           17.36943
   7592       0.00000           0.639581           17.40390
   7593       0.00000           0.640211           17.42102
   7594       0.00000           0.640369           17.42533
   7595       0.00000           0.640768           17.43620
   7596       0.00000           0.641127           17.44596
   7597       0.00000           0.642644           17.48723
   7598       0.00000           0.643012           17.49723
   7599       0.00000           0.643290           17.50482
   7600       0.00000           0.644314           17.53267
   7601       0.00000           0.646132           17.58213
   7602       0.00000           0.646472           17.59141
   7603       0.00000           0.646960           17.60469
   7604       0.00000           0.647656           17.62361
   7605       0.00000           0.647997           17.63288
   7606       0.00000           0.648477           17.64596
   7607       0.00000           0.648784           17.65430
   7608       0.00000           0.649019           17.66070
   7609       0.00000           0.649153           17.66435
   7610       0.00000           0.649331           17.66920
   7611       0.00000           0.649648           17.67782
   7612       0.00000           0.650398           17.69823
   7613       0.00000           0.651293           17.72259
   7614       0.00000           0.651321           17.72335
   7615       0.00000           0.651582           17.73044
   7616       0.00000           0.652609           17.75840
   7617       0.00000           0.653468           17.78177
   7618       0.00000           0.654176           17.80103
   7619       0.00000           0.654321           17.80497
   7620       0.00000           0.654765           17.81705
   7621       0.00000           0.654778           17.81741
   7622       0.00000           0.654843           17.81918
   7623       0.00000           0.655651           17.84117
   7624       0.00000           0.656032           17.85153
   7625       0.00000           0.656608           17.86721
   7626       0.00000           0.656664           17.86873
   7627       0.00000           0.656847           17.87373
   7628       0.00000           0.657814           17.90002
   7629       0.00000           0.657818           17.90014
   7630       0.00000           0.658118           17.90829
   7631       0.00000           0.658776           17.92621
   7632       0.00000           0.659093           17.93483
   7633       0.00000           0.659385           17.94278
   7634       0.00000           0.659502           17.94595
   7635       0.00000           0.659883           17.95633
   7636       0.00000           0.660675           17.97789
   7637       0.00000           0.661155           17.99093
   7638       0.00000           0.661214           17.99255
   7639       0.00000           0.661613           18.00340
   7640       0.00000           0.661909           18.01147
   7641       0.00000           0.662056           18.01545
   7642       0.00000           0.662392           18.02460
   7643       0.00000           0.662959           18.04004
   7644       0.00000           0.663516           18.05518
   7645       0.00000           0.663843           18.06409
   7646       0.00000           0.663951           18.06703
   7647       0.00000           0.664439           18.08030
   7648       0.00000           0.664684           18.08698
   7649       0.00000           0.664750           18.08877
   7650       0.00000           0.664941           18.09395
   7651       0.00000           0.666593           18.13891
   7652       0.00000           0.666618           18.13959
   7653       0.00000           0.668699           18.19622
   7654       0.00000           0.669926           18.22960
   7655       0.00000           0.670462           18.24419
   7656       0.00000           0.670545           18.24645
   7657       0.00000           0.671008           18.25906
   7658       0.00000           0.672548           18.30096
   7659       0.00000           0.673160           18.31763
   7660       0.00000           0.674130           18.34400
   7661       0.00000           0.674264           18.34766
   7662       0.00000           0.674871           18.36416
   7663       0.00000           0.675447           18.37984
   7664       0.00000           0.675500           18.38129
   7665       0.00000           0.675501           18.38133
   7666       0.00000           0.676018           18.39538
   7667       0.00000           0.676254           18.40180
   7668       0.00000           0.676499           18.40848
   7669       0.00000           0.677641           18.43954
   7670       0.00000           0.677789           18.44358
   7671       0.00000           0.678082           18.45156
   7672       0.00000           0.679058           18.47810
   7673       0.00000           0.679093           18.47907
   7674       0.00000           0.679237           18.48298
   7675       0.00000           0.679496           18.49002
   7676       0.00000           0.680673           18.52206
   7677       0.00000           0.681255           18.53788
   7678       0.00000           0.681649           18.54860
   7679       0.00000           0.682321           18.56690
   7680       0.00000           0.683676           18.60376
   7681       0.00000           0.684919           18.63760
   7682       0.00000           0.684920           18.63762
   7683       0.00000           0.685683           18.65837
   7684       0.00000           0.687019           18.69474
   7685       0.00000           0.687421           18.70569
   7686       0.00000           0.687934           18.71963
   7687       0.00000           0.688331           18.73043
   7688       0.00000           0.689369           18.75869
   7689       0.00000           0.690173           18.78056
   7690       0.00000           0.690605           18.79232
   7691       0.00000           0.691231           18.80937
   7692       0.00000           0.692418           18.84165
   7693       0.00000           0.692545           18.84512
   7694       0.00000           0.693887           18.88161
   7695       0.00000           0.695405           18.92293
   7696       0.00000           0.695933           18.93731
   7697       0.00000           0.696659           18.95705
   7698       0.00000           0.696877           18.96298
   7699       0.00000           0.697784           18.98768
   7700       0.00000           0.698080           18.99571
   7701       0.00000           0.698258           19.00057
   7702       0.00000           0.698867           19.01714
   7703       0.00000           0.699558           19.03596
   7704       0.00000           0.699701           19.03984
   7705       0.00000           0.699808           19.04274
   7706       0.00000           0.700864           19.07147
   7707       0.00000           0.701604           19.09163
   7708       0.00000           0.702266           19.10964
   7709       0.00000           0.702947           19.12816
   7710       0.00000           0.703071           19.13154
   7711       0.00000           0.703276           19.13711
   7712       0.00000           0.704357           19.16652
   7713       0.00000           0.704401           19.16771
   7714       0.00000           0.704525           19.17111
   7715       0.00000           0.704601           19.17317
   7716       0.00000           0.705159           19.18836
   7717       0.00000           0.705359           19.19380
   7718       0.00000           0.705419           19.19542
   7719       0.00000           0.706928           19.23649
   7720       0.00000           0.707157           19.24273
   7721       0.00000           0.707292           19.24640

  Highest occupied state (VBM) at     -4.28634054 eV (relative to internal zero)
  | Occupation number:      1.10998382
  | K-point:       1 at    0.000000    0.000000    0.000000 (in units of recip. lattice)

  Lowest unoccupied state (CBM) at    -4.28522955 eV (relative to internal zero)
  | Occupation number:      0.98497379
  | K-point:       1 at    0.000000    0.000000    0.000000 (in units of recip. lattice)

  This system has fractional occupation numbers. Since we use a finite k-point grid,
  this material is metallic within the approximate finite broadening function (occupation_type)
  applied to determine the occupation numbers. We conclude: there is no gap in this system.
  ESTIMATED overall HOMO-LUMO gap:      0.00000000 eV.
  Calculating total energy contributions from superposition of free atom densities.

  Total energy components:
  | Sum of eigenvalues            :     -837037.52635104 Ha   -22776949.97046709 eV
  | XC energy correction          :      -38716.33784601 Ha    -1053525.15555966 eV
  | XC potential correction       :       50491.66265812 Ha     1373948.04663434 eV
  | Free-atom electrostatic energy:     -555403.57735452 Ha   -15113300.29606947 eV
  | Hartree energy correction     :          -0.00000000 Ha          -0.00000000 eV
  | vdW energy correction         :           0.00000000 Ha           0.00000000 eV
  | Entropy correction            :          -0.00023910 Ha          -0.00650630 eV
  | ---------------------------
  | Total energy                  :    -1380665.77889346 Ha   -37569827.37546188 eV
  | Total energy, T -> 0          :    -1380665.77913256 Ha   -37569827.38196818 eV  <-- do not rely on this value for anything but (periodic) metals
  | Electronic free energy        :    -1380665.77937166 Ha   -37569827.38847447 eV

  Derived energy quantities:
  | Kinetic energy                :     1434652.30797621 Ha    39038875.57615317 eV
  | Electrostatic energy          :    -2776601.74902366 Ha   -75555177.79605538 eV
  | Energy correction for multipole
  | error in Hartree potential    :           0.00000000 Ha           0.00000000 eV
  | Sum of eigenvalues per atom                           :      -72769.80821235 eV
  | Total energy (T->0) per atom                          :     -120031.39738648 eV  <-- do not rely on this value for anything but (periodic) metals
  | Electronic free energy per atom                       :     -120031.39740727 eV
  Initialize hartree_potential_storage
  Max. number of atoms included in rho_multipole:          313

  End scf initialization - timings             :  max(cpu_time)    wall_clock(cpu1)
  | Time for scf. initialization                :       11.250 s          11.353 s
  | Boundary condition initialization           :        0.095 s           0.096 s
  | Relaxation initialization                   :        0.113 s           0.118 s
  | Integration                                 :        2.074 s           2.088 s
  | Solution of K.-S. eqns.                     :        6.613 s           6.679 s
  | Grid partitioning                           :        1.057 s           1.064 s
  | Preloading free-atom quantities on grid     :        0.499 s           0.501 s
  | Free-atom superposition energy              :        0.065 s           0.065 s
  | Total energy evaluation                     :        0.002 s           0.002 s

  Partial memory accounting:
  | Current value for overall tracked memory usage:
  |   Minimum:       11.751 MB (on task 125)
  |   Maximum:       16.874 MB (on task 104)
  |   Average:       14.294 MB
  | Peak value for overall tracked memory usage:
  |   Minimum:       15.384 MB (on task 125 after allocating wave)
  |   Maximum:       37.408 MB (on task 178 after allocating wave)
  |   Average:       28.269 MB
  | Largest tracked array allocation so far:
  |   Minimum:        3.445 MB (ovlp on task 189)
  |   Maximum:       11.030 MB (ham_ovlp_work on task 178)
  |   Average:        6.705 MB
  Note:  These values currently only include a subset of arrays which are explicitly tracked.
  The "true" memory usage will be greater.
------------------------------------------------------------
  Available memory after initialize_scf [GB]:    228.78
  Time for density update prior                :  max(cpu_time)    wall_clock(cpu1)
  | self-consistency iterative process          :        2.358 s           2.437 s
------------------------------------------------------------
Convergence:    q app. |  density  | eigen (eV) | Etot (eV) | forces (eV/A) |       CPU time |     Clock time
  SCF    1 : -0.16E-11 |  0.23E+01 |  -0.34E+04 |  0.33E+02 |             . |        8.879 s |        8.969 s
  SCF    2 :  0.21E-11 |  0.19E+01 |  -0.75E+04 |  0.42E+02 |             . |        8.894 s |        8.937 s
  SCF    3 :  0.15E-11 |  0.12E+01 |  -0.37E+04 |  0.13E+02 |             . |        8.859 s |        8.906 s
  SCF    4 :  0.15E-11 |  0.88E+00 |  -0.36E+04 |  0.21E+01 |             . |        8.846 s |        8.891 s
  SCF    5 : -0.17E-11 |  0.83E+00 |   0.32E+03 |  0.14E+01 |             . |        8.832 s |        8.873 s
  SCF    6 :  0.40E-13 |  0.73E+00 |   0.47E+04 |  0.66E+01 |             . |        8.880 s |        8.930 s
  SCF    7 :  0.97E-12 |  0.56E+00 |   0.16E+04 | -0.80E+00 |             . |        8.825 s |        8.868 s
  SCF    8 :  0.11E-12 |  0.54E+00 |  -0.94E+03 |  0.20E+01 |             . |        8.914 s |        8.952 s
  SCF    9 :  0.30E-11 |  0.51E+00 |   0.51E+03 |  0.21E+01 |             . |        8.850 s |        8.894 s
  SCF   10 :  0.56E-11 |  0.43E+00 |   0.18E+04 |  0.24E+00 |             . |        8.865 s |        8.909 s
  SCF   11 :  0.44E-12 |  0.34E+00 |   0.18E+04 | -0.12E+01 |             . |        8.852 s |        8.902 s
  SCF   12 : -0.20E-11 |  0.29E+00 |   0.51E+03 | -0.28E+00 |             . |        8.837 s |        8.881 s
  SCF   13 : -0.16E-11 |  0.25E+00 |  -0.65E+03 |  0.24E+01 |             . |        8.855 s |        8.899 s
  SCF   14 : -0.28E-11 |  0.18E+00 |  -0.51E+03 |  0.20E+00 |             . |        8.826 s |        8.866 s
  SCF   15 : -0.11E-11 |  0.18E+00 |   0.55E+03 |  0.97E-01 |             . |        8.846 s |        8.886 s
  SCF   16 :  0.78E-12 |  0.15E+00 |   0.48E+03 |  0.34E+00 |             . |        8.847 s |        8.895 s
  SCF   17 : -0.26E-11 |  0.13E+00 |   0.40E+03 |  0.17E+00 |             . |        8.832 s |        8.880 s
  SCF   18 :  0.24E-12 |  0.11E+00 |  -0.21E+03 |  0.13E+00 |             . |        8.863 s |        8.903 s
  SCF   19 : -0.22E-12 |  0.90E-01 |   0.12E+03 |  0.47E-01 |             . |        8.876 s |        8.918 s
  SCF   20 :  0.59E-12 |  0.79E-01 |  -0.25E+03 |  0.39E-01 |             . |        8.841 s |        8.883 s
  SCF   21 : -0.35E-11 |  0.75E-01 |  -0.32E+03 | -0.76E-02 |             . |        8.895 s |        8.939 s
  SCF   22 : -0.31E-11 |  0.68E-01 |   0.19E+03 |  0.11E-01 |             . |        8.835 s |        8.893 s
  SCF   23 : -0.68E-11 |  0.61E-01 |  -0.15E+03 |  0.44E-01 |             . |        8.844 s |        8.887 s
  SCF   24 :  0.17E-11 |  0.46E-01 |   0.19E+03 | -0.57E-02 |             . |        8.856 s |        8.891 s
  SCF   25 : -0.17E-11 |  0.45E-01 |  -0.65E+02 |  0.24E-01 |             . |        8.843 s |        8.886 s
  SCF   26 : -0.41E-11 |  0.40E-01 |   0.32E+03 |  0.48E-01 |             . |        8.861 s |        8.905 s
  SCF   27 :  0.14E-12 |  0.21E-01 |   0.32E+02 |  0.21E-02 |             . |        8.869 s |        8.906 s
  SCF   28 : -0.57E-11 |  0.20E-01 |  -0.22E+02 |  0.78E-02 |             . |        8.839 s |        8.884 s
  SCF   29 : -0.17E-11 |  0.15E-01 |  -0.38E+02 | -0.55E-03 |             . |        8.852 s |        8.902 s
  SCF   30 : -0.18E-11 |  0.14E-01 |  -0.85E+02 |  0.52E-02 |             . |        8.851 s |        8.896 s
  SCF   31 : -0.75E-12 |  0.12E-01 |   0.19E+02 | -0.26E-02 |             . |        8.859 s |        8.901 s
  SCF   32 : -0.15E-11 |  0.11E-01 |   0.58E+01 |  0.21E-02 |             . |        8.858 s |        8.892 s
  SCF   33 :  0.75E-12 |  0.86E-02 |   0.11E+02 | -0.60E-03 |             . |        8.845 s |        8.888 s
  SCF   34 : -0.11E-11 |  0.76E-02 |   0.58E+02 | -0.21E-02 |             . |        8.840 s |        8.877 s
  SCF   35 :  0.32E-11 |  0.85E-02 |  -0.11E+02 |  0.67E-02 |             . |        8.840 s |        8.881 s
  SCF   36 :  0.51E-12 |  0.20E-02 |   0.55E+01 |  0.63E-03 |             . |        8.837 s |        8.876 s
  SCF   37 : -0.20E-11 |  0.14E-02 |  -0.31E+01 |  0.48E-04 |             . |        8.840 s |        8.882 s
  SCF   38 : -0.17E-11 |  0.12E-02 |  -0.40E+01 | -0.16E-04 |             . |        8.849 s |        8.897 s
  SCF   39 :  0.13E-11 |  0.11E-02 |  -0.78E+01 | -0.10E-03 |             . |        8.918 s |        8.962 s
  SCF   40 :  0.80E-12 |  0.68E-03 |   0.52E+00 | -0.13E-03 |             . |        8.840 s |        8.880 s
  SCF   41 :  0.32E-11 |  0.63E-03 |   0.74E+00 | -0.19E-03 |             . |        8.839 s |        8.888 s
  SCF   42 : -0.78E-11 |  0.55E-03 |   0.41E+00 | -0.37E-04 |             . |        8.839 s |        8.899 s
  SCF   43 : -0.23E-11 |  0.49E-03 |   0.67E+00 |  0.14E-03 |             . |        8.861 s |        8.902 s
  SCF   44 : -0.49E-12 |  0.37E-03 |   0.91E-01 |  0.49E-05 |             . |        8.844 s |        8.904 s
  SCF   45 : -0.30E-11 |  0.35E-03 |   0.74E+00 | -0.15E-03 |             . |        8.841 s |        8.886 s
  SCF   46 :  0.17E-11 |  0.13E-03 |  -0.14E+00 |  0.93E-05 |             . |        8.864 s |        8.909 s
  SCF   47 : -0.25E-12 |  0.12E-03 |  -0.48E+00 |  0.21E-04 |             . |        8.862 s |        8.903 s
  SCF   48 : -0.23E-11 |  0.85E-04 |  -0.43E+00 |  0.21E-05 |             . |        8.838 s |        8.884 s
  SCF   49 :  0.19E-11 |  0.60E-04 |   0.18E-01 | -0.44E-06 |             . |        8.842 s |        8.890 s
  SCF   50 : -0.18E-11 |  0.57E-04 |   0.41E+00 |  0.57E-05 |             . |        8.865 s |        8.912 s
  SCF   51 : -0.11E-11 |  0.31E-04 |   0.29E-01 |  0.61E-05 |             . |        8.836 s |        8.887 s
  SCF   52 : -0.60E-11 |  0.27E-04 |   0.65E-01 |  0.37E-06 |             . |        8.876 s |        8.920 s
  SCF   53 :  0.19E-11 |  0.21E-04 |  -0.10E-02 | -0.58E-05 |             . |        8.947 s |        8.992 s
  SCF   54 :  0.72E-11 |  0.17E-04 |  -0.41E-01 |  0.79E-06 |             . |        8.868 s |        8.907 s
  SCF   55 :  0.41E-11 |  0.14E-04 |  -0.14E-01 |  0.27E-06 |             . |        8.863 s |        8.912 s
  SCF   56 :  0.17E-11 |  0.13E-04 |  -0.92E-02 | -0.17E-05 |             . |        8.868 s |        8.910 s
  SCF   57 : -0.80E-12 |  0.12E-04 |  -0.33E-02 | -0.31E-06 |             . |        8.867 s |        8.916 s
  SCF   58 : -0.19E-11 |  0.11E-04 |  -0.41E-01 | -0.13E-05 |             . |        8.878 s |        8.917 s
  SCF   59 :  0.17E-11 |  0.66E-05 |  -0.20E-01 | -0.38E-07 |             . |        8.845 s |        8.898 s
  SCF   60 :  0.38E-11 |  0.56E-05 |  -0.16E-01 | -0.72E-06 |             . |        8.857 s |        8.907 s
  SCF   61 : -0.48E-12 |  0.45E-05 |   0.97E-02 | -0.13E-05 |             . |        8.889 s |        8.930 s
  SCF   62 : -0.64E-12 |  0.29E-05 |  -0.28E-02 |  0.34E-06 |             . |        8.877 s |        8.915 s
  SCF   63 : -0.21E-11 |  0.24E-05 |   0.23E-02 |  0.55E-06 |             . |        8.933 s |        8.985 s
  SCF   64 :  0.16E-11 |  0.19E-05 |   0.18E-02 | -0.18E-06 |             . |        8.846 s |        8.891 s
  SCF   65 : -0.25E-11 |  0.16E-05 |   0.21E-02 | -0.15E-06 |             . |        8.852 s |        8.897 s
  SCF   66 :  0.22E-11 |  0.14E-05 |   0.20E-02 |  0.63E-07 |             . |        8.873 s |        8.924 s
  SCF   67 :  0.94E-12 |  0.10E-05 |  -0.14E-02 | -0.23E-06 |             . |        8.848 s |        8.891 s
  SCF   68 : -0.15E-11 |  0.93E-06 |  -0.31E-03 |  0.13E-07 |             . |        8.841 s |        8.889 s
  SCF   69 : -0.54E-11 |  0.71E-06 |   0.11E-02 | -0.10E-06 |             . |        8.850 s |        8.894 s
  SCF   70 :  0.20E-11 |  0.54E-06 |  -0.57E-05 | -0.25E-07 |             . |        9.030 s |        9.075 s
  SCF   71 :  0.37E-11 |  0.48E-06 |  -0.18E-03 | -0.89E-07 |             . |        9.100 s |        9.151 s
  SCF   72 :  0.11E-11 |  0.36E-06 |   0.81E-03 | -0.38E-07 |             . |        8.857 s |        8.902 s
  SCF   73 :  0.15E-11 |  0.32E-06 |   0.17E-02 | -0.63E-08 |             . |        8.856 s |        8.901 s
  SCF   74 : -0.19E-11 |  0.25E-06 |   0.23E-03 |  0.25E-07 |             . |        8.847 s |        8.887 s
  SCF   75 :  0.11E-11 |  0.23E-06 |  -0.49E-03 | -0.70E-07 |             . |        8.849 s |        8.889 s
  SCF   76 :  0.10E-11 |  0.21E-06 |  -0.52E-03 | -0.11E-06 |             . |        8.862 s |        8.911 s
  SCF   77 :  0.13E-11 |  0.18E-06 |  -0.12E-03 |  0.19E-06 |             . |        8.873 s |        8.912 s
  SCF   78 :  0.49E-12 |  0.15E-06 |  -0.48E-03 |  0.32E-07 |             . |        8.927 s |        8.966 s
  SCF   79 :  0.15E-11 |  0.11E-06 |  -0.23E-04 | -0.12E-06 |             . |        8.838 s |        8.877 s
  SCF   80 :  0.23E-12 |  0.86E-07 |   0.13E-03 | -0.13E-07 |             . |        8.854 s |        8.888 s
  SCF   81 :  0.20E-11 |  0.74E-07 |   0.13E-03 |  0.82E-07 |             . |        8.868 s |        8.908 s
  SCF   82 : -0.39E-12 |  0.66E-07 |   0.41E-04 | -0.25E-07 |             . |        8.848 s |        8.896 s
  SCF   83 :  0.79E-12 |  0.56E-07 |  -0.63E-05 |  0.57E-07 |             . |        8.848 s |        8.892 s
  SCF   84 :  0.32E-11 |  0.46E-07 |   0.22E-03 |  0.51E-07 |             . |        8.846 s |        8.904 s
  SCF   85 :  0.39E-11 |  0.36E-07 |   0.21E-03 | -0.16E-06 |             . |        8.846 s |        8.900 s
  SCF   86 :  0.25E-11 |  0.31E-07 |   0.11E-03 |  0.13E-07 |             . |        8.854 s |        8.898 s
  SCF   87 :  0.27E-11 |  0.28E-07 |   0.16E-03 | -0.82E-07 |             . |        8.852 s |        8.893 s
  SCF   88 :  0.16E-11 |  0.23E-07 |   0.10E-04 |  0.25E-06 |             . |        8.836 s |        8.875 s
  SCF   89 :  0.82E-12 |  0.21E-07 |  -0.87E-04 | -0.18E-06 |             . |        8.856 s |        8.896 s
  SCF   90 : -0.16E-12 |  0.16E-07 |  -0.14E-04 | -0.63E-08 |             . |        8.872 s |        8.936 s
  SCF   91 :  0.55E-11 |  0.15E-07 |  -0.12E-04 |  0.13E-06 |             . |        8.864 s |        8.906 s
  SCF   92 : -0.23E-11 |  0.12E-07 |   0.13E-04 |  0.38E-07 |             . |        8.862 s |        8.904 s
  SCF   93 :  0.13E-11 |  0.93E-08 |   0.18E-04 |  0.70E-07 |             . |        8.868 s |        8.906 s
  SCF   94 :  0.48E-11 |  0.71E-08 |  -0.13E-04 | -0.18E-06 |             . |        8.851 s |        8.886 s
  SCF   95 : -0.28E-11 |  0.61E-08 |  -0.13E-04 | -0.15E-06 |             . |        8.844 s |        8.880 s
  SCF   96 :  0.64E-13 |  0.52E-08 |  -0.14E-04 |  0.27E-06 |             . |        8.882 s |        8.919 s
  SCF   97 :  0.19E-11 |  0.45E-08 |  -0.87E-05 | -0.23E-06 |             . |        8.864 s |        8.916 s
  SCF   98 :  0.20E-11 |  0.37E-08 |   0.16E-04 |  0.13E-06 |             . |        8.878 s |        8.930 s
  SCF   99 :  0.15E-12 |  0.27E-08 |   0.16E-04 |  0.13E-07 |             . |        8.886 s |        8.918 s
  SCF  100 :  0.20E-11 |  0.19E-08 |   0.89E-05 |  0.63E-08 |             . |        8.860 s |        8.902 s
  SCF  101 : -0.12E-11 |  0.15E-08 |   0.17E-05 | -0.25E-07 |             . |        8.831 s |        8.880 s
  SCF  102 :  0.28E-11 |  0.14E-08 |  -0.13E-05 |  0.89E-07 |             . |        8.847 s |        8.886 s
  SCF  103 : -0.23E-11 |  0.12E-08 |  -0.24E-05 |  0.51E-07 |             . |        8.855 s |        8.905 s
  SCF  104 : -0.11E-12 |  0.98E-09 |  -0.37E-06 | -0.82E-07 |             . |        8.849 s |        8.890 s
  SCF  105 :  0.11E-11 |  0.85E-09 |   0.22E-05 |  0.63E-08 |      0.20E+00 |       22.666 s |       22.798 s

  Total energy components:
  | Sum of eigenvalues            :     -837326.79244338 Ha   -22784821.30132863 eV
  | XC energy correction          :      -38696.23354750 Ha    -1052978.08976291 eV
  | XC potential correction       :       50465.35618325 Ha     1373232.21103184 eV
  | Free-atom electrostatic energy:     -555403.57735452 Ha   -15113300.29606947 eV
  | Hartree energy correction     :         299.30078908 Ha        8144.38885289 eV
  | vdW energy correction         :           0.00000000 Ha           0.00000000 eV
  | Entropy correction            :          -0.00107429 Ha          -0.02923290 eV
  | ---------------------------
  | Total energy                  :    -1380661.94637308 Ha   -37569723.08727627 eV
  | Total energy, T -> 0          :    -1380661.94744737 Ha   -37569723.11650917 eV  <-- do not rely on this value for anything but (periodic) metals
  | Electronic free energy        :    -1380661.94852166 Ha   -37569723.14574207 eV

  Derived energy quantities:
  | Kinetic energy                :     1434566.20807665 Ha    39036532.67868074 eV
  | Electrostatic energy          :    -2776531.92090223 Ha   -75553277.67619410 eV
  | Energy correction for multipole
  | error in Hartree potential    :           0.68482022 Ha          18.63490635 eV
  | Sum of eigenvalues per atom                           :      -72794.95623428 eV
  | Total energy (T->0) per atom                          :     -120031.06427000 eV  <-- do not rely on this value for anything but (periodic) metals
  | Electronic free energy per atom                       :     -120031.06436339 eV
  Highest occupied state (VBM) at     -3.98471039 eV (relative to internal zero)
  | Occupation number:      1.13561953
  | K-point:       1 at    0.000000    0.000000    0.000000 (in units of recip. lattice)

  Lowest unoccupied state (CBM) at    -3.97129723 eV (relative to internal zero)
  | Occupation number:      0.83477566
  | K-point:       1 at    0.000000    0.000000    0.000000 (in units of recip. lattice)

  This system has fractional occupation numbers. Since we use a finite k-point grid,
  this material is metallic within the approximate finite broadening function (occupation_type)
  applied to determine the occupation numbers. We conclude: there is no gap in this system.
  ESTIMATED overall HOMO-LUMO gap:      0.00000000 eV.

  | Chemical Potential                          :    -3.97867167 eV
  | Note that, for insulating systems, the printed 'chemical potential' value is not uniquely defined.
  | It can be anywhere in the energy gap, as long as it correctly separates occupied and unoccupied states.
  | In systems with a gap, the physically relevant chemical potential is the VBM or HOMO.
  | Potential vacuum level, "upper" slab surface    :    -0.04644364 eV
  | Potential vacuum level, "lower" slab surface    :    -0.06638292 eV
  | Work function ("upper" slab surface)            :     3.93222803 eV
  | Work function ("lower" slab surface)            :     3.91228875 eV
  | VBM (reference: upper vacuum level)             :     3.93826675 eV
  | CBM (reference: upper vacuum level)             :     3.92485359 eV

  Self-consistency cycle converged.


  Converging periodic supercell size for vdw calculation.
  Convergence accuracy (and time!) can be adjusted using the vdw_convergence_threshold keyword.

  Total energy components:
  | Sum of eigenvalues            :     -837326.79244338 Ha   -22784821.30132863 eV
  | XC energy correction          :      -38696.23354750 Ha    -1052978.08976291 eV
  | XC potential correction       :       50465.35618325 Ha     1373232.21103184 eV
  | Free-atom electrostatic energy:     -555403.57735452 Ha   -15113300.29606947 eV
  | Hartree energy correction     :         299.30078908 Ha        8144.38885289 eV
  | vdW energy correction         :          -2.91015763 Ha         -79.18941810 eV
  | Entropy correction            :          -0.00107429 Ha          -0.02923290 eV
  | ---------------------------
  | Total energy                  :    -1380664.85653071 Ha   -37569802.27669437 eV
  | Total energy, T -> 0          :    -1380664.85760499 Ha   -37569802.30592727 eV  <-- do not rely on this value for anything but (periodic) metals
  | Electronic free energy        :    -1380664.85867928 Ha   -37569802.33516017 eV

  Derived energy quantities:
  | Kinetic energy                :     1434566.20807665 Ha    39036532.67868074 eV
  | Electrostatic energy          :    -2776531.92090223 Ha   -75553277.67619410 eV
  | Energy correction for multipole
  | error in Hartree potential    :           0.68482022 Ha          18.63490635 eV
  | Sum of eigenvalues per atom                           :      -72794.95623428 eV
  | Total energy (T->0) per atom                          :     -120031.31727133 eV  <-- do not rely on this value for anything but (periodic) metals
  | Electronic free energy per atom                       :     -120031.31736473 eV

  Energy and forces in a compact form:
  | Total energy uncorrected      :         -0.375698022766944E+08 eV
  | Total energy corrected        :         -0.375698023059273E+08 eV  <-- do not rely on this value for anything but (periodic) metals
  | Electronic free energy        :         -0.375698023351602E+08 eV
  Total atomic forces (unitary forces were cleaned, then relaxation constraints were applied) [eV/Ang]:
  |    1         -0.466378582767346E-06         -0.211434366609884E-06          0.679864982730114E-06
  |    2         -0.218173408716710E-06         -0.639928790692915E-06         -0.167655531396161E-05
  |    3         -0.132686952445013E-05         -0.112718654227685E-06          0.106932231480052E-05
  |    4          0.197043329305701E-06         -0.200543007709071E-06          0.349545186820777E-06
  |    5          0.864325869684565E-06         -0.143676000609444E-06          0.477674457930359E-06
  |    6         -0.569098944767510E-06         -0.841445619379711E-06         -0.209506878591443E-05
  |    7         -0.104662413920687E-05          0.152500149610481E-06          0.353668126474792E-06
  |    8          0.390514239235464E-07         -0.588755133233040E-07         -0.199889563750696E-07
  |    9          0.125137010997796E-05          0.651777109401841E-06         -0.100108940300748E-06
  |   10          0.591543703694967E-06         -0.133552539377092E-06         -0.136882713227632E-05
  |   11         -0.341147085735171E-06         -0.864245024504607E-06          0.100478844346814E-05
  |   12          0.482879229123316E-06         -0.617152163022063E-08         -0.181620923316162E-06
  |   13          0.307606234130452E-06         -0.637481004280283E-07          0.619467234591892E-06
  |   14         -0.231265262130889E-07          0.127889041222680E-05         -0.119981961739395E-06
  |   15          0.821985530093320E-06          0.225586183899745E-05          0.108360566751375E-05
  |   16          0.300314356776957E-06         -0.784775435649100E-06         -0.594364982851143E-06
  |   17         -0.133624000603387E-05         -0.136445284688550E-08          0.489837527655904E-06
  |   18          0.135862419229674E-05          0.443647890816133E-06         -0.673652861288802E-07
  |   19         -0.329248085644295E-06         -0.731480052519286E-06          0.118483304852875E-05
  |   20         -0.148015352529116E-05         -0.117502547528717E-05          0.428249542029099E-06
  |   21         -0.133423647809318E-05         -0.554922726807722E-04          0.897622755571505E-06
  |   22         -0.546761231581255E-04         -0.829066936124297E-07          0.617814940662702E-06
  |   23         -0.879808721117053E-06         -0.562438304852466E-04          0.290148205648139E-05
  |   24         -0.544762000414387E-04          0.241796824218407E-05          0.620745485642380E-06
  |   25          0.252916574788946E-06         -0.287435443980903E-06         -0.489467794776625E-05
  |   26          0.112312131258945E-03          0.108634165009325E-03          0.245461842674094E-05
  |   27         -0.239320297161365E-06          0.248012185718716E-06          0.722761918584664E-05
  |   28          0.359536418820926E-06          0.300470687088226E-06          0.607383114735504E-06
  |   29         -0.683293406323782E-06          0.618754959612551E-06          0.436663830613905E-06
  |   30         -0.929003270906852E-06         -0.304867370568169E-06          0.320377830359649E-05
  |   31          0.730203988155044E-06         -0.135402675347789E-06         -0.379498390414811E-05
  |   32         -0.239368542035772E-07          0.461471919626285E-06          0.137579626791081E-06
  |   33         -0.310125334795237E-06          0.376035650070264E-06          0.781811559878817E-06
  |   34         -0.439326854122685E-06         -0.177301328339255E-05          0.365242517896343E-05
  |   35         -0.741865579732900E-07         -0.233022720382843E-06         -0.507495896281067E-05
  |   36         -0.120067084730308E-05         -0.752906664249372E-07         -0.537032285919038E-06
  |   37         -0.100552163386750E-05         -0.863725233083228E-06         -0.518883746755684E-06
  |   38          0.220561109269176E-06         -0.759908309468356E-06         -0.222813746605717E-05
  |   39         -0.279318640003152E-06          0.123223051701061E-05          0.267894644643721E-05
  |   40         -0.113215494535516E-05          0.193209845532377E-08         -0.458168546276637E-06
  |   41         -0.832831684190508E-06         -0.802281520642901E-06         -0.107356276745335E-06
  |   42         -0.427133475908757E-06         -0.118379203684920E-06          0.265564102416355E-05
  |   43         -0.526169349620212E-06          0.547437917876217E-06         -0.166470132211759E-05
  |   44          0.936214660170632E-07         -0.245369084741490E-08         -0.459045302743965E-06
  |   45         -0.184498036141826E-06          0.484062898812127E-07          0.799164402545928E-06
  |   46         -0.241406896927902E-06         -0.489958682293366E-06         -0.221420596484447E-05
  |   47          0.103763723023640E-06         -0.345955723790643E-06          0.657892499897881E-06
  |   48         -0.334027821052120E-07         -0.239769546513597E-06         -0.497241974114496E-06
  |   49         -0.305673099467592E-06         -0.315950583470550E-06          0.340722202696008E-06
  |   50         -0.531856322791928E-07         -0.579695181259702E-06         -0.446803307921008E-05
  |   51         -0.181351642099965E-06          0.356299269676615E-06          0.388693304839802E-05
  |   52          0.556480234474589E-06         -0.164505891384007E-06         -0.535114655218829E-06
  |   53          0.166009268076333E-06         -0.780986534916774E-06         -0.194317423620714E-05
  |   54          0.734725051476071E-06          0.207662863302493E-06          0.244401579377034E-05
  |   55         -0.463916903697548E-06         -0.219748244138188E-06         -0.346764329872294E-05
  |   56         -0.251512041682981E-06         -0.924706344015070E-06         -0.528419301520076E-07
  |   57          0.540385951380487E-07         -0.295050495610896E-06          0.654188740889204E-07
  |   58          0.000000000000000E+00          0.000000000000000E+00          0.000000000000000E+00
  |   59          0.000000000000000E+00          0.000000000000000E+00          0.000000000000000E+00
  |   60          0.000000000000000E+00          0.000000000000000E+00          0.000000000000000E+00
  |   61          0.000000000000000E+00          0.000000000000000E+00          0.000000000000000E+00
  |   62          0.000000000000000E+00          0.000000000000000E+00          0.000000000000000E+00
  |   63          0.000000000000000E+00          0.000000000000000E+00          0.000000000000000E+00
  |   64          0.000000000000000E+00          0.000000000000000E+00          0.000000000000000E+00
  |   65          0.000000000000000E+00          0.000000000000000E+00          0.000000000000000E+00
  |   66          0.000000000000000E+00          0.000000000000000E+00          0.000000000000000E+00
  |   67          0.000000000000000E+00          0.000000000000000E+00          0.000000000000000E+00
  |   68          0.000000000000000E+00          0.000000000000000E+00          0.000000000000000E+00
  |   69          0.000000000000000E+00          0.000000000000000E+00          0.000000000000000E+00
  |   70          0.000000000000000E+00          0.000000000000000E+00          0.000000000000000E+00
  |   71          0.000000000000000E+00          0.000000000000000E+00          0.000000000000000E+00
  |   72          0.000000000000000E+00          0.000000000000000E+00          0.000000000000000E+00
  |   73          0.000000000000000E+00          0.000000000000000E+00          0.000000000000000E+00
  |   74          0.000000000000000E+00          0.000000000000000E+00          0.000000000000000E+00
  |   75          0.000000000000000E+00          0.000000000000000E+00          0.000000000000000E+00
  |   76          0.000000000000000E+00          0.000000000000000E+00          0.000000000000000E+00
  |   77          0.000000000000000E+00          0.000000000000000E+00          0.000000000000000E+00
  |   78          0.000000000000000E+00          0.000000000000000E+00          0.000000000000000E+00
  |   79          0.000000000000000E+00          0.000000000000000E+00          0.000000000000000E+00
  |   80          0.000000000000000E+00          0.000000000000000E+00          0.000000000000000E+00
  |   81          0.000000000000000E+00          0.000000000000000E+00          0.000000000000000E+00
  |   82          0.000000000000000E+00          0.000000000000000E+00          0.000000000000000E+00
  |   83          0.000000000000000E+00          0.000000000000000E+00          0.000000000000000E+00
  |   84          0.000000000000000E+00          0.000000000000000E+00          0.000000000000000E+00
  |   85          0.000000000000000E+00          0.000000000000000E+00          0.000000000000000E+00
  |   86          0.000000000000000E+00          0.000000000000000E+00          0.000000000000000E+00
  |   87          0.000000000000000E+00          0.000000000000000E+00          0.000000000000000E+00
  |   88          0.000000000000000E+00          0.000000000000000E+00          0.000000000000000E+00
  |   89          0.000000000000000E+00          0.000000000000000E+00          0.000000000000000E+00
  |   90          0.000000000000000E+00          0.000000000000000E+00          0.000000000000000E+00
  |   91          0.000000000000000E+00          0.000000000000000E+00          0.000000000000000E+00
  |   92          0.000000000000000E+00          0.000000000000000E+00          0.000000000000000E+00
  |   93          0.000000000000000E+00          0.000000000000000E+00          0.000000000000000E+00
  |   94          0.000000000000000E+00          0.000000000000000E+00          0.000000000000000E+00
  |   95          0.000000000000000E+00          0.000000000000000E+00          0.000000000000000E+00
  |   96          0.000000000000000E+00          0.000000000000000E+00          0.000000000000000E+00
  |   97          0.000000000000000E+00          0.000000000000000E+00          0.000000000000000E+00
  |   98          0.000000000000000E+00          0.000000000000000E+00          0.000000000000000E+00
  |   99          0.000000000000000E+00          0.000000000000000E+00          0.000000000000000E+00
  |  100          0.000000000000000E+00          0.000000000000000E+00          0.000000000000000E+00
  |  101          0.000000000000000E+00          0.000000000000000E+00          0.000000000000000E+00
  |  102          0.000000000000000E+00          0.000000000000000E+00          0.000000000000000E+00
  |  103          0.000000000000000E+00          0.000000000000000E+00          0.000000000000000E+00
  |  104          0.000000000000000E+00          0.000000000000000E+00          0.000000000000000E+00
  |  105          0.000000000000000E+00          0.000000000000000E+00          0.000000000000000E+00
  |  106          0.000000000000000E+00          0.000000000000000E+00          0.000000000000000E+00
  |  107          0.000000000000000E+00          0.000000000000000E+00          0.000000000000000E+00
  |  108          0.000000000000000E+00          0.000000000000000E+00          0.000000000000000E+00
  |  109          0.000000000000000E+00          0.000000000000000E+00          0.000000000000000E+00
  |  110          0.000000000000000E+00          0.000000000000000E+00          0.000000000000000E+00
  |  111          0.000000000000000E+00          0.000000000000000E+00          0.000000000000000E+00
  |  112          0.000000000000000E+00          0.000000000000000E+00          0.000000000000000E+00
  |  113          0.000000000000000E+00          0.000000000000000E+00          0.000000000000000E+00
  |  114          0.000000000000000E+00          0.000000000000000E+00          0.000000000000000E+00
  |  115          0.000000000000000E+00          0.000000000000000E+00          0.000000000000000E+00
  |  116          0.000000000000000E+00          0.000000000000000E+00          0.000000000000000E+00
  |  117          0.000000000000000E+00          0.000000000000000E+00          0.000000000000000E+00
  |  118          0.000000000000000E+00          0.000000000000000E+00          0.000000000000000E+00
  |  119          0.000000000000000E+00          0.000000000000000E+00          0.000000000000000E+00
  |  120          0.000000000000000E+00          0.000000000000000E+00          0.000000000000000E+00
  |  121          0.000000000000000E+00          0.000000000000000E+00          0.000000000000000E+00
  |  122          0.000000000000000E+00          0.000000000000000E+00          0.000000000000000E+00
  |  123          0.000000000000000E+00          0.000000000000000E+00          0.000000000000000E+00
  |  124          0.000000000000000E+00          0.000000000000000E+00          0.000000000000000E+00
  |  125          0.000000000000000E+00          0.000000000000000E+00          0.000000000000000E+00
  |  126          0.000000000000000E+00          0.000000000000000E+00          0.000000000000000E+00
  |  127          0.000000000000000E+00          0.000000000000000E+00          0.000000000000000E+00
  |  128          0.000000000000000E+00          0.000000000000000E+00          0.000000000000000E+00
  |  129          0.000000000000000E+00          0.000000000000000E+00          0.000000000000000E+00
  |  130          0.000000000000000E+00          0.000000000000000E+00          0.000000000000000E+00
  |  131          0.000000000000000E+00          0.000000000000000E+00          0.000000000000000E+00
  |  132          0.000000000000000E+00          0.000000000000000E+00          0.000000000000000E+00
  |  133          0.000000000000000E+00          0.000000000000000E+00          0.000000000000000E+00
  |  134          0.000000000000000E+00          0.000000000000000E+00          0.000000000000000E+00
  |  135          0.000000000000000E+00          0.000000000000000E+00          0.000000000000000E+00
  |  136          0.000000000000000E+00          0.000000000000000E+00          0.000000000000000E+00
  |  137          0.000000000000000E+00          0.000000000000000E+00          0.000000000000000E+00
  |  138          0.000000000000000E+00          0.000000000000000E+00          0.000000000000000E+00
  |  139          0.000000000000000E+00          0.000000000000000E+00          0.000000000000000E+00
  |  140          0.000000000000000E+00          0.000000000000000E+00          0.000000000000000E+00
  |  141          0.000000000000000E+00          0.000000000000000E+00          0.000000000000000E+00
  |  142          0.000000000000000E+00          0.000000000000000E+00          0.000000000000000E+00
  |  143          0.000000000000000E+00          0.000000000000000E+00          0.000000000000000E+00
  |  144          0.000000000000000E+00          0.000000000000000E+00          0.000000000000000E+00
  |  145          0.000000000000000E+00          0.000000000000000E+00          0.000000000000000E+00
  |  146          0.000000000000000E+00          0.000000000000000E+00          0.000000000000000E+00
  |  147          0.000000000000000E+00          0.000000000000000E+00          0.000000000000000E+00
  |  148          0.000000000000000E+00          0.000000000000000E+00          0.000000000000000E+00
  |  149          0.000000000000000E+00          0.000000000000000E+00          0.000000000000000E+00
  |  150          0.000000000000000E+00          0.000000000000000E+00          0.000000000000000E+00
  |  151          0.000000000000000E+00          0.000000000000000E+00          0.000000000000000E+00
  |  152          0.000000000000000E+00          0.000000000000000E+00          0.000000000000000E+00
  |  153          0.000000000000000E+00          0.000000000000000E+00          0.000000000000000E+00
  |  154          0.000000000000000E+00          0.000000000000000E+00          0.000000000000000E+00
  |  155          0.000000000000000E+00          0.000000000000000E+00          0.000000000000000E+00
  |  156          0.000000000000000E+00          0.000000000000000E+00          0.000000000000000E+00
  |  157          0.000000000000000E+00          0.000000000000000E+00          0.000000000000000E+00
  |  158          0.000000000000000E+00          0.000000000000000E+00          0.000000000000000E+00
  |  159          0.000000000000000E+00          0.000000000000000E+00          0.000000000000000E+00
  |  160          0.000000000000000E+00          0.000000000000000E+00          0.000000000000000E+00
  |  161          0.000000000000000E+00          0.000000000000000E+00          0.000000000000000E+00
  |  162          0.000000000000000E+00          0.000000000000000E+00          0.000000000000000E+00
  |  163          0.000000000000000E+00          0.000000000000000E+00          0.000000000000000E+00
  |  164          0.000000000000000E+00          0.000000000000000E+00          0.000000000000000E+00
  |  165          0.000000000000000E+00          0.000000000000000E+00          0.000000000000000E+00
  |  166          0.000000000000000E+00          0.000000000000000E+00          0.000000000000000E+00
  |  167          0.000000000000000E+00          0.000000000000000E+00          0.000000000000000E+00
  |  168          0.000000000000000E+00          0.000000000000000E+00          0.000000000000000E+00
  |  169          0.000000000000000E+00          0.000000000000000E+00          0.000000000000000E+00
  |  170          0.000000000000000E+00          0.000000000000000E+00          0.000000000000000E+00
  |  171          0.000000000000000E+00          0.000000000000000E+00          0.000000000000000E+00
  |  172          0.000000000000000E+00          0.000000000000000E+00          0.000000000000000E+00
  |  173          0.000000000000000E+00          0.000000000000000E+00          0.000000000000000E+00
  |  174          0.000000000000000E+00          0.000000000000000E+00          0.000000000000000E+00
  |  175          0.000000000000000E+00          0.000000000000000E+00          0.000000000000000E+00
  |  176          0.000000000000000E+00          0.000000000000000E+00          0.000000000000000E+00
  |  177          0.000000000000000E+00          0.000000000000000E+00          0.000000000000000E+00
  |  178          0.000000000000000E+00          0.000000000000000E+00          0.000000000000000E+00
  |  179          0.000000000000000E+00          0.000000000000000E+00          0.000000000000000E+00
  |  180          0.000000000000000E+00          0.000000000000000E+00          0.000000000000000E+00
  |  181          0.000000000000000E+00          0.000000000000000E+00          0.000000000000000E+00
  |  182          0.000000000000000E+00          0.000000000000000E+00          0.000000000000000E+00
  |  183          0.000000000000000E+00          0.000000000000000E+00          0.000000000000000E+00
  |  184          0.000000000000000E+00          0.000000000000000E+00          0.000000000000000E+00
  |  185          0.000000000000000E+00          0.000000000000000E+00          0.000000000000000E+00
  |  186         -0.958276424111842E-06          0.117170604446541E-05          0.859554654235766E-06
  |  187          0.938299571865861E-06          0.777866388161651E-06         -0.334471310470896E-05
  |  188         -0.222557154475753E-05         -0.377395659315192E-05         -0.669214737229155E-06
  |  189          0.387762232027346E-05         -0.963216223309653E-06         -0.305874489398402E-06
  |  190         -0.214627245755240E-05          0.645990118179330E-06         -0.280117142243943E-05
  |  191          0.242337351823164E-05          0.136807476999244E-05         -0.145563557840098E-05
  |  192          0.484486072663517E-06          0.976998560308011E-06         -0.406134384667951E-05
  |  193          0.153667033588430E-05         -0.333941260731621E-05          0.184232578343037E-05
  |  194         -0.225599875723996E-06         -0.111034919000845E-05         -0.246141564661480E-05
  |  195         -0.652611753937149E-06         -0.740075988133163E-05          0.104898339183654E-05
  |  196          0.783041796409380E-07          0.840461243759597E-05         -0.358507593871086E-05
  |  197          0.286543324449831E-05          0.371220419287456E-05          0.194799010821663E-05
  |  198         -0.458043960645623E-06         -0.920883986978551E-05          0.120195089087492E-05
  |  199         -0.341298314322186E-05          0.441523939325379E-06          0.598763400239497E-05
  |  200          0.308434150854900E-05          0.698468964826845E-06          0.154288746426759E-05
  |  201         -0.327282917979433E-05          0.518441916263416E-05         -0.298563043099674E-05
  |  202         -0.704913494163008E-05          0.356376067729204E-05         -0.133961764995455E-05
  |  203          0.586415496881388E-06          0.478342610121200E-06          0.905321197632081E-06
  |  204         -0.357186721767554E-05         -0.308567955626588E-05         -0.422244186923500E-05
  |  205          0.396287899152846E-05         -0.291040807376465E-06          0.339455327229934E-05
  |  206         -0.221198323617206E-05          0.355700225110525E-05         -0.130860178086206E-06
  |  207          0.923568374937201E-06          0.171236273182491E-05          0.287898611271569E-05
  |  208         -0.803770184293119E-06          0.261714937349801E-08          0.180167971445291E-05
  |  209          0.107672631620423E-05          0.108404469364252E-05          0.107056764443761E-05
  |  210         -0.413268489865067E-05         -0.102997728917535E-05          0.238305136567942E-06
  |  211          0.118784767766610E-05          0.854091243808699E-07          0.552515766529290E-05
  |  212          0.339628350958373E-05         -0.306217159226389E-07          0.186987728860962E-05
  |  213         -0.532798800364977E-05         -0.341694880597605E-06         -0.140516417870850E-05
  |  214          0.135336446000082E-05         -0.121759224963619E-05          0.114105345083750E-07
  |  215          0.198387430149839E-05          0.365217171100118E-05         -0.101997844347297E-05
  |  216         -0.325623977820583E-05         -0.401797162010048E-06          0.267995215600217E-05
  |  217          0.440402100648324E-05         -0.318124569612849E-05         -0.555148425356609E-05
  |  218         -0.105879906048720E-05         -0.131022441807079E-05         -0.229453317349491E-05
  |  219          0.680570787800522E-06         -0.108418925813467E-05          0.203046463392835E-05
  |  220         -0.196292371991350E-05          0.129511007017188E-05          0.218010043030321E-05
  |  221          0.580449371566937E-06          0.614278799602511E-06          0.342577082398294E-05
  |  222          0.256451842436222E-05         -0.280795900487782E-06          0.135474831719566E-05
  |  223         -0.381908550584769E-05         -0.515651677843648E-06          0.199064467537652E-05
  |  224          0.143037355624541E-05         -0.329178757768616E-05          0.417544253182303E-05
  |  225          0.148798648615610E-05          0.313484586547080E-05         -0.243423983690486E-05
  |  226          0.442050418756624E-06          0.291911985165515E-05         -0.311961302267544E-05
  |  227         -0.333258916151572E-05         -0.159917991497991E-06          0.400006212425998E-06
  |  228          0.307169667737796E-05         -0.345164617787643E-05          0.331083968933008E-05
  |  229         -0.153567500373504E-05          0.230942490548214E-05         -0.304326997363530E-05
  |  230          0.252821588401394E-05          0.155852206357544E-05          0.485560641910395E-05
  |  231         -0.816551193743930E-05         -0.304564461357291E-05          0.242045051899397E-05
  |  232          0.208199964408058E-05          0.214061556625026E-05          0.259054496451571E-05
  |  233         -0.163814380168863E-05         -0.140145995668045E-05         -0.455108407520882E-05
  |  234          0.849252466402616E-05         -0.146850662880208E-05          0.250748582386633E-05
  |  235         -0.596281254383191E-05          0.294504180096275E-05         -0.455777980309336E-05
  |  236          0.235320050377634E-05          0.565478798955888E-05          0.271067946905092E-05
  |  237          0.123159055318907E-05         -0.154205227946813E-05          0.375977369299249E-06
  |  238         -0.174978763638675E-05         -0.344768725286487E-05         -0.929701930567236E-06
  |  239          0.336992218075260E-05          0.184453635172400E-05         -0.459991291025958E-06
  |  240         -0.406272633581942E-05         -0.518922114404432E-05          0.360636206979502E-05
  |  241          0.135931775547765E-05         -0.733515398511748E-05          0.209104680798237E-05
  |  242         -0.389264818257157E-05         -0.155165410948127E-06         -0.346579058671147E-06
  |  243          0.547237992219870E-05         -0.152135943665736E-06         -0.953681601810930E-06
  |  244         -0.217123728900758E-05         -0.140499773339187E-05          0.259838083944052E-05
  |  245         -0.309775999922701E-05          0.223212257936352E-05         -0.560895058283084E-06
  |  246          0.389616783664097E-05          0.134022246735631E-05         -0.231085400683413E-05
  |  247         -0.606331728775060E-05         -0.308400879704008E-05         -0.138912019613671E-05
  |  248          0.104527540238094E-05          0.816353441753957E-06          0.563757454297484E-06
  |  249          0.483825353983746E-06          0.330653315116175E-05          0.537812032739589E-06
  |  250         -0.428196751599093E-06          0.423389790557738E-05         -0.196460070998676E-05
  |  251         -0.809637115056180E-06         -0.196833133164384E-05          0.266649858417963E-05
  |  252          0.213022624112730E-05         -0.326776613645567E-05         -0.265245215919538E-05
  |  253         -0.146702466948827E-05         -0.647768250797911E-05         -0.327471102303067E-06
  |  254         -0.467585038879872E-06          0.216331600560731E-05          0.245204432566986E-06
  |  255          0.239951508844844E-06         -0.202399374797548E-05          0.452455447787550E-06
  |  256         -0.228492277004477E-05          0.371417651292572E-06          0.272775037109198E-05
  |  257         -0.466556540710666E-05         -0.296658294755968E-05          0.812582321708720E-06
  |  258          0.298136390930407E-05         -0.279296215913505E-05          0.142707456169640E-05
  |  259         -0.269197071761691E-06          0.244758158936506E-05          0.381614779724322E-07
  |  260         -0.114686070593868E-05          0.191263924706285E-05          0.270202841068229E-05
  |  261          0.196596795080893E-05          0.248093621653325E-06          0.479996785414438E-05
  |  262         -0.201265162834817E-05          0.114227076881473E-05         -0.151055148736970E-05
  |  263          0.294475961415943E-05          0.529274749442099E-05         -0.228312085332138E-05
  |  264         -0.450471165175546E-05          0.160801887517984E-05          0.768300617985563E-06
  |  265         -0.135441630397917E-05          0.169592303334758E-05          0.414944947906234E-06
  |  266         -0.273995474883786E-05          0.129040327289935E-05          0.688763671256278E-06
  |  267          0.495977719225961E-05         -0.120230446319150E-05          0.275805434223874E-05
  |  268         -0.452452822351091E-05         -0.193162195965723E-05          0.149426712684413E-05
  |  269          0.242935207158200E-05         -0.207912188999725E-05          0.194351037230406E-05
  |  270         -0.397837707336291E-05          0.117059504505355E-05         -0.222437349602787E-06
  |  271          0.189299882348205E-05         -0.425521091515340E-05          0.672050480685716E-06
  |  272          0.156235462268494E-05          0.167750841596856E-06         -0.113535767865509E-05
  |  273         -0.183734995533529E-05         -0.476470277058086E-06         -0.154379750570729E-05
  |  274          0.106077489591843E-05          0.452424299483233E-06         -0.346702791953342E-05
  |  275          0.192211127962894E-05          0.227744708442967E-05          0.196901056755694E-06
  |  276         -0.265914066610950E-05          0.222864501351710E-05          0.652033386915822E-06
  |  277          0.154942498864693E-05          0.153629662665300E-05         -0.770885898631993E-06
  |  278          0.204144598865329E-06         -0.229915290278714E-05         -0.133266820959990E-05
  |  279         -0.283667428070544E-05          0.170091233779531E-05          0.751924056338709E-06
  |  280          0.291875344693019E-05          0.920374893237401E-06         -0.208498103449805E-05
  |  281         -0.344093982841717E-05         -0.192054029889306E-06         -0.281998784748858E-07
  |  282          0.394902190821476E-05          0.312113290619162E-06         -0.499945183569230E-06
  |  283          0.342864511660910E-05         -0.104935252279052E-05          0.240086486291113E-05
  |  284         -0.358120973502445E-05         -0.657344990940896E-06          0.143742061250361E-06
  |  285          0.646712570905385E-07          0.333665124157618E-07         -0.575856464303604E-05
  |  286          0.127833269746889E-05          0.337262075682408E-05          0.141888232308114E-05
  |  287         -0.174795518858482E-05          0.147493354261124E-05         -0.208041278234297E-05
  |  288          0.323620851318495E-05         -0.691227417725596E-06         -0.811835972556805E-06
  |  289         -0.337832189301412E-05          0.610279656705119E-06          0.105106173063201E-05
  |  290         -0.185852368618036E-05         -0.307412541291259E-05         -0.381363297610190E-06
  |  291          0.853660834857580E-05         -0.122682986435029E-05          0.779880438927296E-06
  |  292         -0.384190203866696E-06         -0.386632453010409E-06          0.141491851363870E-06
  |  293         -0.107283771792571E-06          0.594729673917806E-06         -0.188357167002600E-05
  |  294         -0.798255881000339E-06         -0.268023866847265E-05         -0.169298414295816E-05
  |  295          0.207985808723026E-05         -0.575867050539234E-06         -0.288499520591960E-05
  |  296         -0.337522565315826E-06         -0.130385136025074E-06          0.370321709313155E-06
  |  297         -0.173707453622568E-05          0.757352136107983E-06         -0.175153436353432E-05
  |  298         -0.207977306158941E-06          0.409732999999024E-05         -0.367419139604741E-06
  |  299         -0.319881314330277E-05          0.134693762269395E-05         -0.287268693267289E-05
  |  300          0.221549318290299E-05         -0.533065584290544E-05          0.257894302524660E-05
  |  301         -0.512297000310748E-07         -0.116477744174130E-05         -0.261326364354723E-05
  |  302          0.130665149416446E-05          0.949227081350897E-06         -0.428822818183127E-05
  |  303         -0.268198192347970E-05         -0.289543746907417E-05         -0.148520549536248E-05
  |  304          0.392048660414948E-05          0.103145426815982E-05         -0.385353693288409E-06
  |  305         -0.300544775914539E-05          0.943934843537248E-06         -0.401638299864121E-06
  |  306          0.864874137380113E-06         -0.148715230356421E-05          0.713423130489652E-06
  |  307         -0.272908192658643E-05         -0.189552093337343E-05          0.629252225146473E-06
  |  308          0.416582261673687E-05          0.571293917405745E-05         -0.306215520249683E-05
  |  309         -0.387008333949834E-05          0.251339149038532E-05         -0.182669521620971E-05
  |  310          0.882940342169565E-06         -0.175426410969038E-05          0.101534443265709E-05
  |  311          0.212838052763714E-05          0.221853409010351E-05         -0.183775676472686E-06
  |  312         -0.210640044836819E-05         -0.115874405830379E-05          0.843588252774322E-06
  |  313         -0.370345561309937E-07          0.213287693360753E-05          0.210412032421923E-05


  Writing energy levels:
  Relaxation / MD: End force evaluation.       :  max(cpu_time)    wall_clock(cpu1)
  | Time for this force evaluation              :      957.380 s         967.812 s

------------------------------------------------------------
  Geometry optimization: Attempting to predict improved coordinates.

  Net remaining forces (excluding translations, rotations) in present geometry:
  || Forces on atoms   || =   0.112312E-03 eV/A.
  Maximum force component is  0.112312E-03 eV/A.
  Present geometry is not yet converged.

  Relaxation step number      1: Predicting new coordinates.

  Advancing geometry using trust radius method.
  Allocating        3.611 MB for eigenvec_stored
  | Hessian eigenvalues (eV/A^2): 2.00E+00 ... 2.45E+02
  | Use Quasi-Newton step of length |H^-1 F| = 1.74E-05 A.
  Finished advancing geometry
  | Time :      0.137 s
  Updated atomic structure:
                         x [A]             y [A]             z [A]
  lattice_vector        23.51554312        0.00000000        0.00000000
  lattice_vector         0.00000000       23.51554312        0.00000000
  lattice_vector         0.00000000        0.00000000      106.23550000

            atom        -3.81198767        1.86620072       -0.03073806  C
            atom        -2.36747926        1.87049140        0.06101896  C
            atom        -0.29597211        3.00201470        0.10610220  C
            atom         0.50650345        4.22908672        0.07657996  C
            atom        -4.21519300        0.49818537       -0.05533783  C
            atom        -3.00458427       -0.29247374        0.02786988  C
            atom        -1.87300089       -2.36437195        0.10676424  C
            atom        -1.86166608       -3.83188147        0.08232242  C
            atom        -1.62111149        2.99565436        0.08068180  N
            atom        -2.98345117       -1.64361571        0.05533744  N
            atom         1.86172282        3.83186510        0.08230511  C
            atom         1.87305811        2.36435550        0.10674223  C
            atom         3.00464072        0.29245993        0.02785164  C
            atom         4.21524954       -0.49820091       -0.05534405  C
            atom         2.36753474       -1.87050362        0.06101583  C
            atom         3.81204335       -1.86621486       -0.03073311  C
            atom        -0.50644635       -4.22910430        0.07658659  C
            atom         0.29603075       -3.00203344        0.10610876  C
            atom         2.98351047        1.64360189        0.05531178  N
            atom         1.62116986       -2.99566865        0.08068159  N
            atom        -1.92555495        0.56681651        0.09544702  N
            atom         0.56510397        1.91827776        0.13029048  N
            atom         1.92560971       -0.56682706        0.09543041  N
            atom        -0.56504483       -1.91829730        0.13030606  N
            atom         0.14937404        5.58103939        0.00223944  C
            atom         0.00001894       -0.00001576       -0.03562848  Zn
            atom         2.89046910        4.77696722        0.01696290  C
            atom         1.18027020        6.52792717       -0.05781117  C
            atom         2.53555027        6.13164998       -0.05792735  C
            atom        -0.89960951        5.88073547        0.01755209  H
            atom         3.93529095        4.46369968        0.02066973  H
            atom         3.31529276        6.89483525       -0.08390257  H
            atom         0.93779118        7.59034906       -0.10821322  H
            atom         5.57607328       -0.15298338       -0.14586053  C
            atom         4.76163969       -2.89875655       -0.10211585  C
            atom         6.51543685       -1.18680048       -0.20930138  C
            atom         6.11348551       -2.54997300       -0.19944545  C
            atom         5.88568774        0.89303624       -0.11334778  H
            atom         4.44885187       -3.94322130       -0.06351243  H
            atom         6.87609290       -3.33058259       -0.19961776  H
            atom         7.57974923       -0.95058731       -0.24822870  H
            atom        -5.57601614        0.15296629       -0.14585631  C
            atom        -4.76158497        2.89874064       -0.10213338  C
            atom        -6.51538036        1.18678158       -0.20931255  C
            atom        -6.11343028        2.54995511       -0.19946791  C
            atom        -5.88562952       -0.89305342       -0.11333568  H
            atom        -4.44879908        3.94320628       -0.06353779  H
            atom        -6.87603837        3.33056411       -0.19964673  H
            atom        -7.57969243        0.95056761       -0.24824181  H
            atom        -0.14931909       -5.58105728        0.00223919  C
            atom        -2.89041316       -4.77698289        0.01698485  C
            atom        -1.18021651       -6.52794390       -0.05780906  C
            atom        -2.53549628       -6.13166535       -0.05791362  C
            atom         0.89966422       -5.88075462        0.01754372  H
            atom        -3.93523472       -4.46371459        0.02069911  H
            atom        -3.31523940       -6.89485009       -0.08388652  H
            atom        -0.93773890       -7.59036597       -0.10821508  H
            atom        -7.34860747      -10.28809054       -9.05914426  Ag
            atom        -4.40916458      -10.28809054       -9.05914426  Ag
            atom        -1.46972169      -10.28809054       -9.05914426  Ag
            atom         1.46972120      -10.28809054       -9.05914426  Ag
            atom         4.40916409      -10.28809054       -9.05914426  Ag
            atom         7.34860698      -10.28809054       -9.05914426  Ag
            atom        10.28804987      -10.28809054       -9.05914426  Ag
            atom        13.22749276      -10.28809054       -9.05914426  Ag
            atom        -7.34860747       -7.34864765       -9.05914426  Ag
            atom        -4.40916458       -7.34864765       -9.05914426  Ag
            atom        -1.46972169       -7.34864765       -9.05914426  Ag
            atom         1.46972120       -7.34864765       -9.05914426  Ag
            atom         4.40916409       -7.34864765       -9.05914426  Ag
            atom         7.34860698       -7.34864765       -9.05914426  Ag
            atom        10.28804987       -7.34864765       -9.05914426  Ag
            atom        13.22749276       -7.34864765       -9.05914426  Ag
            atom        -7.34860747       -4.40920476       -9.05914426  Ag
            atom        -4.40916458       -4.40920476       -9.05914426  Ag
            atom        -1.46972169       -4.40920476       -9.05914426  Ag
            atom         1.46972120       -4.40920476       -9.05914426  Ag
            atom         4.40916409       -4.40920476       -9.05914426  Ag
            atom         7.34860698       -4.40920476       -9.05914426  Ag
            atom        10.28804987       -4.40920476       -9.05914426  Ag
            atom        13.22749276       -4.40920476       -9.05914426  Ag
            atom        -7.34860747       -1.46976187       -9.05914426  Ag
            atom        -4.40916458       -1.46976187       -9.05914426  Ag
            atom        -1.46972169       -1.46976187       -9.05914426  Ag
            atom         1.46972120       -1.46976187       -9.05914426  Ag
            atom         4.40916409       -1.46976187       -9.05914426  Ag
            atom         7.34860698       -1.46976187       -9.05914426  Ag
            atom        10.28804987       -1.46976187       -9.05914426  Ag
            atom        13.22749276       -1.46976187       -9.05914426  Ag
            atom        -7.34860747        1.46968102       -9.05914426  Ag
            atom        -4.40916458        1.46968102       -9.05914426  Ag
            atom        -1.46972169        1.46968102       -9.05914426  Ag
            atom         1.46972120        1.46968102       -9.05914426  Ag
            atom         4.40916409        1.46968102       -9.05914426  Ag
            atom         7.34860698        1.46968102       -9.05914426  Ag
            atom        10.28804987        1.46968102       -9.05914426  Ag
            atom        13.22749276        1.46968102       -9.05914426  Ag
            atom        -7.34860747        4.40912391       -9.05914426  Ag
            atom        -4.40916458        4.40912391       -9.05914426  Ag
            atom        -1.46972169        4.40912391       -9.05914426  Ag
            atom         1.46972120        4.40912391       -9.05914426  Ag
            atom         4.40916409        4.40912391       -9.05914426  Ag
            atom         7.34860698        4.40912391       -9.05914426  Ag
            atom        10.28804987        4.40912391       -9.05914426  Ag
            atom        13.22749276        4.40912391       -9.05914426  Ag
            atom        -7.34860747        7.34856680       -9.05914426  Ag
            atom        -4.40916458        7.34856680       -9.05914426  Ag
            atom        -1.46972169        7.34856680       -9.05914426  Ag
            atom         1.46972120        7.34856680       -9.05914426  Ag
            atom         4.40916409        7.34856680       -9.05914426  Ag
            atom         7.34860698        7.34856680       -9.05914426  Ag
            atom        10.28804987        7.34856680       -9.05914426  Ag
            atom        13.22749276        7.34856680       -9.05914426  Ag
            atom        -7.34860747       10.28800969       -9.05914426  Ag
            atom        -4.40916458       10.28800969       -9.05914426  Ag
            atom        -1.46972169       10.28800969       -9.05914426  Ag
            atom         1.46972120       10.28800969       -9.05914426  Ag
            atom         4.40916409       10.28800969       -9.05914426  Ag
            atom         7.34860698       10.28800969       -9.05914426  Ag
            atom        10.28804987       10.28800969       -9.05914426  Ag
            atom        13.22749276       10.28800969       -9.05914426  Ag
            atom        -8.81832891      -11.75781198       -6.98064458  Ag
            atom        -5.87888602      -11.75781198       -6.98064458  Ag
            atom        -2.93944313      -11.75781198       -6.98064458  Ag
            atom        -0.00000024      -11.75781198       -6.98064458  Ag
            atom         2.93944265      -11.75781198       -6.98064458  Ag
            atom         5.87888554      -11.75781198       -6.98064458  Ag
            atom         8.81832843      -11.75781198       -6.98064458  Ag
            atom        11.75777132      -11.75781198       -6.98064458  Ag
            atom        -8.81832891       -8.81836909       -6.98064458  Ag
            atom        -5.87888602       -8.81836909       -6.98064458  Ag
            atom        -2.93944313       -8.81836909       -6.98064458  Ag
            atom        -0.00000024       -8.81836909       -6.98064458  Ag
            atom         2.93944265       -8.81836909       -6.98064458  Ag
            atom         5.87888554       -8.81836909       -6.98064458  Ag
            atom         8.81832843       -8.81836909       -6.98064458  Ag
            atom        11.75777132       -8.81836909       -6.98064458  Ag
            atom        -8.81832891       -5.87892620       -6.98064458  Ag
            atom        -5.87888602       -5.87892620       -6.98064458  Ag
            atom        -2.93944313       -5.87892620       -6.98064458  Ag
            atom        -0.00000024       -5.87892620       -6.98064458  Ag
            atom         2.93944265       -5.87892620       -6.98064458  Ag
            atom         5.87888554       -5.87892620       -6.98064458  Ag
            atom         8.81832843       -5.87892620       -6.98064458  Ag
            atom        11.75777132       -5.87892620       -6.98064458  Ag
            atom        -8.81832891       -2.93948331       -6.98064458  Ag
            atom        -5.87888602       -2.93948331       -6.98064458  Ag
            atom        -2.93944313       -2.93948331       -6.98064458  Ag
            atom        -0.00000024       -2.93948331       -6.98064458  Ag
            atom         2.93944265       -2.93948331       -6.98064458  Ag
            atom         5.87888554       -2.93948331       -6.98064458  Ag
            atom         8.81832843       -2.93948331       -6.98064458  Ag
            atom        11.75777132       -2.93948331       -6.98064458  Ag
            atom        -8.81832891       -0.00004042       -6.98064458  Ag
            atom        -5.87888602       -0.00004042       -6.98064458  Ag
            atom        -2.93944313       -0.00004042       -6.98064458  Ag
            atom        -0.00000024       -0.00004042       -6.98064458  Ag
            atom         2.93944265       -0.00004042       -6.98064458  Ag
            atom         5.87888554       -0.00004042       -6.98064458  Ag
            atom         8.81832843       -0.00004042       -6.98064458  Ag
            atom        11.75777132       -0.00004042       -6.98064458  Ag
            atom        -8.81832891        2.93940247       -6.98064458  Ag
            atom        -5.87888602        2.93940247       -6.98064458  Ag
            atom        -2.93944313        2.93940247       -6.98064458  Ag
            atom        -0.00000024        2.93940247       -6.98064458  Ag
            atom         2.93944265        2.93940247       -6.98064458  Ag
            atom         5.87888554        2.93940247       -6.98064458  Ag
            atom         8.81832843        2.93940247       -6.98064458  Ag
            atom        11.75777132        2.93940247       -6.98064458  Ag
            atom        -8.81832891        5.87884536       -6.98064458  Ag
            atom        -5.87888602        5.87884536       -6.98064458  Ag
            atom        -2.93944313        5.87884536       -6.98064458  Ag
            atom        -0.00000024        5.87884536       -6.98064458  Ag
            atom         2.93944265        5.87884536       -6.98064458  Ag
            atom         5.87888554        5.87884536       -6.98064458  Ag
            atom         8.81832843        5.87884536       -6.98064458  Ag
            atom        11.75777132        5.87884536       -6.98064458  Ag
            atom        -8.81832891        8.81828825       -6.98064458  Ag
            atom        -5.87888602        8.81828825       -6.98064458  Ag
            atom        -2.93944313        8.81828825       -6.98064458  Ag
            atom        -0.00000024        8.81828825       -6.98064458  Ag
            atom         2.93944265        8.81828825       -6.98064458  Ag
            atom         5.87888554        8.81828825       -6.98064458  Ag
            atom         8.81832843        8.81828825       -6.98064458  Ag
            atom        11.75777132        8.81828825       -6.98064458  Ag
            atom        -7.34856687      -10.28693978       -4.98262062  Ag
            atom        -4.41071277      -10.28777214       -4.98681698  Ag
            atom        -1.46821682      -10.28742240       -4.98611033  Ag
            atom         1.47166044      -10.28885130       -4.98672182  Ag
            atom         4.40789377      -10.28766013       -4.98272201  Ag
            atom         7.34897539      -10.28764682       -4.98374714  Ag
            atom        10.28860166      -10.28815621       -4.98290509  Ag
            atom        13.22690017      -10.28894994       -4.98340178  Ag
            atom        -7.34740964       -7.34944191       -4.98475084  Ag
            atom        -4.40525638       -7.34557818       -4.98205354  Ag
            atom        -1.47031806       -7.33951323       -4.97765130  Ag
            atom         1.46723542       -7.34444329       -4.98216201  Ag
            atom         4.40825848       -7.34633536       -4.98536448  Ag
            atom         7.34790828       -7.34726851       -4.98480976  Ag
            atom        10.28678071       -7.34964580       -4.98321119  Ag
            atom        13.22815277       -7.34930683       -4.98317122  Ag
            atom        -7.34781954       -4.40967282       -4.98616545  Ag
            atom        -4.40763636       -4.41176334       -4.98557816  Ag
            atom        -1.47459133       -4.41912433       -4.97789009  Ag
            atom         1.46972401       -4.41681211       -4.99051572  Ag
            atom         4.41275331       -4.40293241       -4.97899583  Ag
            atom         7.34193622       -4.40332103       -4.98052701  Ag
            atom        10.28831070       -4.41271827       -4.98843399  Ag
            atom        13.22876491       -4.40943514       -4.98362017  Ag
            atom        -7.34255183       -1.46512189       -4.98236659  Ag
            atom        -4.42067202       -1.46347457       -4.98817382  Ag
            atom        -1.47180421       -1.47129642       -5.00317747  Ag
            atom         1.47461072       -1.46976119       -5.00073690  Ag
            atom         4.42462281       -1.47669560       -4.96918044  Ag
            atom         7.33380293       -1.47222578       -4.97142651  Ag
            atom        10.28730387       -1.46907682       -4.98996941  Ag
            atom        13.22701269       -1.47326121       -4.98860675  Ag
            atom        -7.33380461        1.47214575       -4.97142730  Ag
            atom        -4.42462310        1.47661449       -4.96918081  Ag
            atom        -1.47461353        1.46967909       -5.00073593  Ag
            atom         1.47180348        1.47121556       -5.00317732  Ag
            atom         4.42067225        1.46339355       -4.98817436  Ag
            atom         7.34255040        1.46504091       -4.98236643  Ag
            atom        10.28853024        1.47317925       -4.98860590  Ag
            atom        13.22823757        1.46899584       -4.98997003  Ag
            atom        -7.34193689        4.40324073       -4.98052816  Ag
            atom        -4.41275494        4.40285195       -4.97899556  Ag
            atom        -1.46972341        4.41672980       -4.99051516  Ag
            atom         1.47459025        4.41904301       -4.97788799  Ag
            atom         4.40763575        4.41168267       -4.98557765  Ag
            atom         7.34781539        4.40959205       -4.98616500  Ag
            atom        10.28677781        4.40935463       -4.98362013  Ag
            atom        13.22723092        4.41263676       -4.98843523  Ag
            atom        -7.34790889        7.34718693       -4.98481041  Ag
            atom        -4.40826010        7.34625337       -4.98536522  Ag
            atom        -1.46723497        7.34436296       -4.98216186  Ag
            atom         1.47031781        7.33943217       -4.97765014  Ag
            atom         4.40525546        7.34549443       -4.98205464  Ag
            atom         7.34740940        7.34936098       -4.98475087  Ag
            atom        10.28738818        7.34922637       -4.98317069  Ag
            atom        13.22876213        7.34956291       -4.98321086  Ag
            atom        -7.34897706       10.28756501       -4.98374734  Ag
            atom        -4.40789390       10.28757862       -4.98272164  Ag
            atom        -1.47166089       10.28876913       -4.98672145  Ag
            atom         1.46821500       10.28734049       -4.98611094  Ag
            atom         4.41071326       10.28769119       -4.98681747  Ag
            atom         7.34856451       10.28685765       -4.98262136  Ag
            atom        10.28864228       10.28886768       -4.98340273  Ag
            atom        13.22694032       10.28807516       -4.98290426  Ag
            atom        -8.81858454      -11.75759310       -3.00997906  Ag
            atom        -5.87775039      -11.75736714       -3.01410515  Ag
            atom        -2.93718360      -11.75908366       -3.01169326  Ag
            atom        -0.00000050      -11.75781442       -3.00718591  Ag
            atom         2.93718329      -11.75654293       -3.01169254  Ag
            atom         5.87774932      -11.75825980       -3.01410516  Ag
            atom         8.81858260      -11.75803455       -3.00997825  Ag
            atom        11.75776849      -11.75781372       -3.00536805  Ag
            atom        -8.81670671       -8.81826227       -3.00997098  Ag
            atom        -5.87272460       -8.81226802       -3.00951922  Ag
            atom        -2.93531734       -8.82223973       -3.01686510  Ag
            atom         0.00197474       -8.82255855       -3.02072365  Ag
            atom         2.93512216       -8.81165120       -3.01108590  Ag
            atom         5.87607346       -8.81626352       -3.01154845  Ag
            atom         8.81646668       -8.81587291       -3.01058865  Ag
            atom        11.75836859       -8.81961396       -3.00977359  Ag
            atom        -8.81652434       -5.87781209       -3.01165571  Ag
            atom        -5.88133444       -5.87738889       -3.00663188  Ag
            atom        -2.95420875       -5.87457061       -3.00132495  Ag
            atom         0.01306152       -5.87120090       -3.00678720  Ag
            atom         2.94489742       -5.87554099       -3.00478404  Ag
            atom         5.87678897       -5.88628695       -3.00497622  Ag
            atom         8.81216858       -5.87221123       -3.01104189  Ag
            atom        11.75560173       -5.87843413       -3.01466275  Ag
            atom        -8.81153636       -2.93509823       -3.01360393  Ag
            atom        -5.87594434       -2.95022286       -3.00855316  Ag
            atom        -2.95057147       -2.92554094       -3.03667909  Ag
            atom        -0.00323702       -2.91799133       -3.06666355  Ag
            atom         2.91958590       -2.94544025       -3.03055645  Ag
            atom         5.88112800       -2.96631644       -2.97964121  Ag
            atom         8.83095427       -2.93684185       -3.02205557  Ag
            atom        11.76056443       -2.93704464       -3.01353742  Ag
            atom        -8.82764267       -0.00277765       -3.02733949  Ag
            atom        -5.87709999       -0.01924593       -2.99160973  Ag
            atom        -2.92177635       -0.00164081       -3.06315720  Ag
            atom        -0.00000114       -0.00004115       -3.01384935  Ag
            atom         2.92177341        0.00155813       -3.06316039  Ag
            atom         5.87709936        0.01916724       -2.99160840  Ag
            atom         8.82764249        0.00269661       -3.02734044  Ag
            atom        11.75776914       -0.00004048       -3.01110937  Ag
            atom        -8.83095686        2.93676041       -3.02205502  Ag
            atom        -5.88113061        2.96623558       -2.97964143  Ag
            atom        -2.91958789        2.94535589       -3.03055744  Ag
            atom         0.00323534        2.91790878       -3.06666331  Ag
            atom         2.95057056        2.92545881       -3.03667918  Ag
            atom         5.87594405        2.95014382       -3.00855423  Ag
            atom         8.81153501        2.93501705       -3.01360267  Ag
            atom        11.75497515        2.93696326       -3.01353778  Ag
            atom        -8.81216955        5.87212981       -3.01104145  Ag
            atom        -5.87679010        5.88620492       -3.00497733  Ag
            atom        -2.94489830        5.87545838       -3.00478260  Ag
            atom        -0.01306226        5.87111821       -3.00678684  Ag
            atom         2.95420959        5.87449052       -3.00132517  Ag
            atom         5.88133461        5.87730773       -3.00663270  Ag
            atom         8.81652375        5.87773069       -3.01165604  Ag
            atom        11.75993854        5.87835266       -3.01466278  Ag
            atom        -8.81646855        8.81579002       -3.01058817  Ag
            atom        -5.87607434        8.81618191       -3.01154791  Ag
            atom        -2.93512206        8.81157001       -3.01108561  Ag
            atom        -0.00197569        8.82247693       -3.02072558  Ag
            atom         2.93531684        8.82215964       -3.01686748  Ag
            atom         5.87272383        8.81218677       -3.00951902  Ag
            atom         8.81670534        8.81817898       -3.00997082  Ag
            atom        11.75717159        8.81953231       -3.00977329  Ag

  Fractional coordinates:
                         L1                L2                L3
       atom_frac        -0.16210502        0.07936031       -0.00028934  C
       atom_frac        -0.10067721        0.07954277        0.00057437  C
       atom_frac        -0.01258623        0.12766087        0.00099875  C
       atom_frac         0.02153909        0.17984219        0.00072085  C
       atom_frac        -0.17925136        0.02118537       -0.00052090  C
       atom_frac        -0.12777014       -0.01243746        0.00026234  C
       atom_frac        -0.07964948       -0.10054507        0.00100498  C
       atom_frac        -0.07916747       -0.16295101        0.00077491  C
       atom_frac        -0.06893787        0.12739040        0.00075946  N
       atom_frac        -0.12687146       -0.06989486        0.00052089  N
       atom_frac         0.07916988        0.16295031        0.00077474  C
       atom_frac         0.07965192        0.10054437        0.00100477  C
       atom_frac         0.12777254        0.01243688        0.00026217  C
       atom_frac         0.17925376       -0.02118603       -0.00052096  C
       atom_frac         0.10067957       -0.07954329        0.00057434  C
       atom_frac         0.16210739       -0.07936091       -0.00028929  C
       atom_frac        -0.02153666       -0.17984294        0.00072091  C
       atom_frac         0.01258873       -0.12766167        0.00099881  C
       atom_frac         0.12687398        0.06989428        0.00052065  N
       atom_frac         0.06894035       -0.12739100        0.00075946  N
       atom_frac        -0.08188435        0.02410391        0.00089845  N
       atom_frac         0.02403108        0.08157489        0.00122643  N
       atom_frac         0.08188668       -0.02410436        0.00089829  N
       atom_frac        -0.02402857       -0.08157572        0.00122658  N
       atom_frac         0.00635214        0.23733406        0.00002108  C
       atom_frac         0.00000081       -0.00000067       -0.00033537  Zn
       atom_frac         0.12291739        0.20314084        0.00015967  C
       atom_frac         0.05019107        0.27760053       -0.00054418  C
       atom_frac         0.10782444        0.26074881       -0.00054527  C
       atom_frac        -0.03825595        0.25007866        0.00016522  H
       atom_frac         0.16734850        0.18981912        0.00019457  H
       atom_frac         0.14098304        0.29320332       -0.00078978  H
       atom_frac         0.03987963        0.32278009       -0.00101862  H
       atom_frac         0.23712288       -0.00650563       -0.00137299  C
       atom_frac         0.20248904       -0.12326981       -0.00096122  C
       atom_frac         0.27706938       -0.05046877       -0.00197016  C
       atom_frac         0.25997637       -0.10843777       -0.00187739  C
       atom_frac         0.25028925        0.03797642       -0.00106695  H
       atom_frac         0.18918772       -0.16768574       -0.00059785  H
       atom_frac         0.29240630       -0.14163324       -0.00187901  H
       atom_frac         0.32232933       -0.04042379       -0.00233659  H
       atom_frac        -0.23712045        0.00650490       -0.00137295  C
       atom_frac        -0.20248671        0.12326913       -0.00096139  C
       atom_frac        -0.27706697        0.05046796       -0.00197027  C
       atom_frac        -0.25997402        0.10843701       -0.00187760  C
       atom_frac        -0.25028678       -0.03797715       -0.00106683  H
       atom_frac        -0.18918547        0.16768510       -0.00059808  H
       atom_frac        -0.29240398        0.14163246       -0.00187928  H
       atom_frac        -0.32232691        0.04042295       -0.00233671  H
       atom_frac        -0.00634980       -0.23733482        0.00002108  C
       atom_frac        -0.12291501       -0.20314151        0.00015988  C
       atom_frac        -0.05018878       -0.27760124       -0.00054416  C
       atom_frac        -0.10782214       -0.26074947       -0.00054514  C
       atom_frac         0.03825828       -0.25007947        0.00016514  H
       atom_frac        -0.16734611       -0.18981975        0.00019484  H
       atom_frac        -0.14098077       -0.29320395       -0.00078963  H
       atom_frac        -0.03987741       -0.32278081       -0.00101863  H
       atom_frac        -0.31250001       -0.43750172       -0.08527417  Ag
       atom_frac        -0.18750001       -0.43750172       -0.08527417  Ag
       atom_frac        -0.06250001       -0.43750172       -0.08527417  Ag
       atom_frac         0.06249999       -0.43750172       -0.08527417  Ag
       atom_frac         0.18749999       -0.43750172       -0.08527417  Ag
       atom_frac         0.31249999       -0.43750172       -0.08527417  Ag
       atom_frac         0.43749999       -0.43750172       -0.08527417  Ag
       atom_frac         0.56249999       -0.43750172       -0.08527417  Ag
       atom_frac        -0.31250001       -0.31250172       -0.08527417  Ag
       atom_frac        -0.18750001       -0.31250172       -0.08527417  Ag
       atom_frac        -0.06250001       -0.31250172       -0.08527417  Ag
       atom_frac         0.06249999       -0.31250172       -0.08527417  Ag
       atom_frac         0.18749999       -0.31250172       -0.08527417  Ag
       atom_frac         0.31249999       -0.31250172       -0.08527417  Ag
       atom_frac         0.43749999       -0.31250172       -0.08527417  Ag
       atom_frac         0.56249999       -0.31250172       -0.08527417  Ag
       atom_frac        -0.31250001       -0.18750172       -0.08527417  Ag
       atom_frac        -0.18750001       -0.18750172       -0.08527417  Ag
       atom_frac        -0.06250001       -0.18750172       -0.08527417  Ag
       atom_frac         0.06249999       -0.18750172       -0.08527417  Ag
       atom_frac         0.18749999       -0.18750172       -0.08527417  Ag
       atom_frac         0.31249999       -0.18750172       -0.08527417  Ag
       atom_frac         0.43749999       -0.18750172       -0.08527417  Ag
       atom_frac         0.56249999       -0.18750172       -0.08527417  Ag
       atom_frac        -0.31250001       -0.06250172       -0.08527417  Ag
       atom_frac        -0.18750001       -0.06250172       -0.08527417  Ag
       atom_frac        -0.06250001       -0.06250172       -0.08527417  Ag
       atom_frac         0.06249999       -0.06250172       -0.08527417  Ag
       atom_frac         0.18749999       -0.06250172       -0.08527417  Ag
       atom_frac         0.31249999       -0.06250172       -0.08527417  Ag
       atom_frac         0.43749999       -0.06250172       -0.08527417  Ag
       atom_frac         0.56249999       -0.06250172       -0.08527417  Ag
       atom_frac        -0.31250001        0.06249828       -0.08527417  Ag
       atom_frac        -0.18750001        0.06249828       -0.08527417  Ag
       atom_frac        -0.06250001        0.06249828       -0.08527417  Ag
       atom_frac         0.06249999        0.06249828       -0.08527417  Ag
       atom_frac         0.18749999        0.06249828       -0.08527417  Ag
       atom_frac         0.31249999        0.06249828       -0.08527417  Ag
       atom_frac         0.43749999        0.06249828       -0.08527417  Ag
       atom_frac         0.56249999        0.06249828       -0.08527417  Ag
       atom_frac        -0.31250001        0.18749828       -0.08527417  Ag
       atom_frac        -0.18750001        0.18749828       -0.08527417  Ag
       atom_frac        -0.06250001        0.18749828       -0.08527417  Ag
       atom_frac         0.06249999        0.18749828       -0.08527417  Ag
       atom_frac         0.18749999        0.18749828       -0.08527417  Ag
       atom_frac         0.31249999        0.18749828       -0.08527417  Ag
       atom_frac         0.43749999        0.18749828       -0.08527417  Ag
       atom_frac         0.56249999        0.18749828       -0.08527417  Ag
       atom_frac        -0.31250001        0.31249828       -0.08527417  Ag
       atom_frac        -0.18750001        0.31249828       -0.08527417  Ag
       atom_frac        -0.06250001        0.31249828       -0.08527417  Ag
       atom_frac         0.06249999        0.31249828       -0.08527417  Ag
       atom_frac         0.18749999        0.31249828       -0.08527417  Ag
       atom_frac         0.31249999        0.31249828       -0.08527417  Ag
       atom_frac         0.43749999        0.31249828       -0.08527417  Ag
       atom_frac         0.56249999        0.31249828       -0.08527417  Ag
       atom_frac        -0.31250001        0.43749828       -0.08527417  Ag
       atom_frac        -0.18750001        0.43749828       -0.08527417  Ag
       atom_frac        -0.06250001        0.43749828       -0.08527417  Ag
       atom_frac         0.06249999        0.43749828       -0.08527417  Ag
       atom_frac         0.18749999        0.43749828       -0.08527417  Ag
       atom_frac         0.31249999        0.43749828       -0.08527417  Ag
       atom_frac         0.43749999        0.43749828       -0.08527417  Ag
       atom_frac         0.56249999        0.43749828       -0.08527417  Ag
       atom_frac        -0.37500001       -0.50000172       -0.06570915  Ag
       atom_frac        -0.25000001       -0.50000172       -0.06570915  Ag
       atom_frac        -0.12500001       -0.50000172       -0.06570915  Ag
       atom_frac        -0.00000001       -0.50000172       -0.06570915  Ag
       atom_frac         0.12499999       -0.50000172       -0.06570915  Ag
       atom_frac         0.24999999       -0.50000172       -0.06570915  Ag
       atom_frac         0.37499999       -0.50000172       -0.06570915  Ag
       atom_frac         0.49999999       -0.50000172       -0.06570915  Ag
       atom_frac        -0.37500001       -0.37500172       -0.06570915  Ag
       atom_frac        -0.25000001       -0.37500172       -0.06570915  Ag
       atom_frac        -0.12500001       -0.37500172       -0.06570915  Ag
       atom_frac        -0.00000001       -0.37500172       -0.06570915  Ag
       atom_frac         0.12499999       -0.37500172       -0.06570915  Ag
       atom_frac         0.24999999       -0.37500172       -0.06570915  Ag
       atom_frac         0.37499999       -0.37500172       -0.06570915  Ag
       atom_frac         0.49999999       -0.37500172       -0.06570915  Ag
       atom_frac        -0.37500001       -0.25000172       -0.06570915  Ag
       atom_frac        -0.25000001       -0.25000172       -0.06570915  Ag
       atom_frac        -0.12500001       -0.25000172       -0.06570915  Ag
       atom_frac        -0.00000001       -0.25000172       -0.06570915  Ag
       atom_frac         0.12499999       -0.25000172       -0.06570915  Ag
       atom_frac         0.24999999       -0.25000172       -0.06570915  Ag
       atom_frac         0.37499999       -0.25000172       -0.06570915  Ag
       atom_frac         0.49999999       -0.25000172       -0.06570915  Ag
       atom_frac        -0.37500001       -0.12500172       -0.06570915  Ag
       atom_frac        -0.25000001       -0.12500172       -0.06570915  Ag
       atom_frac        -0.12500001       -0.12500172       -0.06570915  Ag
       atom_frac        -0.00000001       -0.12500172       -0.06570915  Ag
       atom_frac         0.12499999       -0.12500172       -0.06570915  Ag
       atom_frac         0.24999999       -0.12500172       -0.06570915  Ag
       atom_frac         0.37499999       -0.12500172       -0.06570915  Ag
       atom_frac         0.49999999       -0.12500172       -0.06570915  Ag
       atom_frac        -0.37500001       -0.00000172       -0.06570915  Ag
       atom_frac        -0.25000001       -0.00000172       -0.06570915  Ag
       atom_frac        -0.12500001       -0.00000172       -0.06570915  Ag
       atom_frac        -0.00000001       -0.00000172       -0.06570915  Ag
       atom_frac         0.12499999       -0.00000172       -0.06570915  Ag
       atom_frac         0.24999999       -0.00000172       -0.06570915  Ag
       atom_frac         0.37499999       -0.00000172       -0.06570915  Ag
       atom_frac         0.49999999       -0.00000172       -0.06570915  Ag
       atom_frac        -0.37500001        0.12499828       -0.06570915  Ag
       atom_frac        -0.25000001        0.12499828       -0.06570915  Ag
       atom_frac        -0.12500001        0.12499828       -0.06570915  Ag
       atom_frac        -0.00000001        0.12499828       -0.06570915  Ag
       atom_frac         0.12499999        0.12499828       -0.06570915  Ag
       atom_frac         0.24999999        0.12499828       -0.06570915  Ag
       atom_frac         0.37499999        0.12499828       -0.06570915  Ag
       atom_frac         0.49999999        0.12499828       -0.06570915  Ag
       atom_frac        -0.37500001        0.24999828       -0.06570915  Ag
       atom_frac        -0.25000001        0.24999828       -0.06570915  Ag
       atom_frac        -0.12500001        0.24999828       -0.06570915  Ag
       atom_frac        -0.00000001        0.24999828       -0.06570915  Ag
       atom_frac         0.12499999        0.24999828       -0.06570915  Ag
       atom_frac         0.24999999        0.24999828       -0.06570915  Ag
       atom_frac         0.37499999        0.24999828       -0.06570915  Ag
       atom_frac         0.49999999        0.24999828       -0.06570915  Ag
       atom_frac        -0.37500001        0.37499828       -0.06570915  Ag
       atom_frac        -0.25000001        0.37499828       -0.06570915  Ag
       atom_frac        -0.12500001        0.37499828       -0.06570915  Ag
       atom_frac        -0.00000001        0.37499828       -0.06570915  Ag
       atom_frac         0.12499999        0.37499828       -0.06570915  Ag
       atom_frac         0.24999999        0.37499828       -0.06570915  Ag
       atom_frac         0.37499999        0.37499828       -0.06570915  Ag
       atom_frac         0.49999999        0.37499828       -0.06570915  Ag
       atom_frac        -0.31249828       -0.43745278       -0.04690165  Ag
       atom_frac        -0.18756585       -0.43748818       -0.04694115  Ag
       atom_frac        -0.06243602       -0.43747331       -0.04693450  Ag
       atom_frac         0.06258246       -0.43753407       -0.04694026  Ag
       atom_frac         0.18744597       -0.43748342       -0.04690261  Ag
       atom_frac         0.31251566       -0.43748285       -0.04691226  Ag
       atom_frac         0.43752345       -0.43750451       -0.04690433  Ag
       atom_frac         0.56247479       -0.43753827       -0.04690901  Ag
       atom_frac        -0.31244907       -0.31253550       -0.04692171  Ag
       atom_frac        -0.18733381       -0.31237119       -0.04689632  Ag
       atom_frac        -0.06252537       -0.31211328       -0.04685488  Ag
       atom_frac         0.06239428       -0.31232293       -0.04689734  Ag
       atom_frac         0.18746148       -0.31240339       -0.04692748  Ag
       atom_frac         0.31247028       -0.31244307       -0.04692226  Ag
       atom_frac         0.43744602       -0.31254417       -0.04690721  Ag
       atom_frac         0.56252806       -0.31252975       -0.04690684  Ag
       atom_frac        -0.31246650       -0.18752162       -0.04693502  Ag
       atom_frac        -0.18743502       -0.18761052       -0.04692949  Ag
       atom_frac        -0.06270709       -0.18792355       -0.04685712  Ag
       atom_frac         0.06250011       -0.18782522       -0.04697597  Ag
       atom_frac         0.18765262       -0.18723499       -0.04686753  Ag
       atom_frac         0.31221631       -0.18725151       -0.04688195  Ag
       atom_frac         0.43751108       -0.18765113       -0.04695638  Ag
       atom_frac         0.56255409       -0.18751152       -0.04691106  Ag
       atom_frac        -0.31224249       -0.06230440       -0.04689926  Ag
       atom_frac        -0.18798937       -0.06223435       -0.04695393  Ag
       atom_frac        -0.06258857       -0.06256698       -0.04709516  Ag
       atom_frac         0.06270792       -0.06250169       -0.04707218  Ag
       atom_frac         0.18815737       -0.06279658       -0.04677514  Ag
       atom_frac         0.31187045       -0.06260650       -0.04679628  Ag
       atom_frac         0.43746827       -0.06247259       -0.04697083  Ag
       atom_frac         0.56247957       -0.06265053       -0.04695800  Ag
       atom_frac        -0.31187052        0.06260309       -0.04679629  Ag
       atom_frac        -0.18815738        0.06279313       -0.04677514  Ag
       atom_frac        -0.06270804        0.06249820       -0.04707217  Ag
       atom_frac         0.06258854        0.06256354       -0.04709515  Ag
       atom_frac         0.18798938        0.06223091       -0.04695393  Ag
       atom_frac         0.31224243        0.06230096       -0.04689926  Ag
       atom_frac         0.43752042        0.06264704       -0.04695799  Ag
       atom_frac         0.56253166        0.06246914       -0.04697083  Ag
       atom_frac        -0.31221634        0.18724810       -0.04688196  Ag
       atom_frac        -0.18765269        0.18723157       -0.04686753  Ag
       atom_frac        -0.06250008        0.18782172       -0.04697597  Ag
       atom_frac         0.06270705        0.18792009       -0.04685711  Ag
       atom_frac         0.18743500        0.18760709       -0.04692949  Ag
       atom_frac         0.31246633        0.18751819       -0.04693502  Ag
       atom_frac         0.43744589        0.18750809       -0.04691106  Ag
       atom_frac         0.56248885        0.18764767       -0.04695639  Ag
       atom_frac        -0.31247030        0.31243960       -0.04692227  Ag
       atom_frac        -0.18746155        0.31239990       -0.04692749  Ag
       atom_frac        -0.06239426        0.31231951       -0.04689734  Ag
       atom_frac         0.06252536        0.31210983       -0.04685487  Ag
       atom_frac         0.18733377        0.31236763       -0.04689633  Ag
       atom_frac         0.31244906        0.31253205       -0.04692171  Ag
       atom_frac         0.43747185        0.31252633       -0.04690683  Ag
       atom_frac         0.56255397        0.31254064       -0.04690721  Ag
       atom_frac        -0.31251573        0.43747937       -0.04691226  Ag
       atom_frac        -0.18744597        0.43747995       -0.04690260  Ag
       atom_frac        -0.06258248        0.43753058       -0.04694025  Ag
       atom_frac         0.06243594        0.43746982       -0.04693451  Ag
       atom_frac         0.18756587        0.43748474       -0.04694116  Ag
       atom_frac         0.31249818        0.43744929       -0.04690166  Ag
       atom_frac         0.43752518        0.43753477       -0.04690902  Ag
       atom_frac         0.56247650        0.43750107       -0.04690432  Ag
       atom_frac        -0.37501088       -0.49999241       -0.02833308  Ag
       atom_frac        -0.24995172       -0.49998280       -0.02837192  Ag
       atom_frac        -0.12490392       -0.50005580       -0.02834922  Ag
       atom_frac        -0.00000002       -0.50000182       -0.02830679  Ag
       atom_frac         0.12490391       -0.49994775       -0.02834921  Ag
       atom_frac         0.24995167       -0.50002076       -0.02837192  Ag
       atom_frac         0.37501080       -0.50001118       -0.02833307  Ag
       atom_frac         0.49999987       -0.50000179       -0.02828968  Ag
       atom_frac        -0.37493103       -0.37499718       -0.02833301  Ag
       atom_frac        -0.24973800       -0.37474227       -0.02832875  Ag
       atom_frac        -0.12482456       -0.37516632       -0.02839790  Ag
       atom_frac         0.00008398       -0.37517988       -0.02843422  Ag
       atom_frac         0.12481626       -0.37471604       -0.02834350  Ag
       atom_frac         0.24988041       -0.37491218       -0.02834785  Ag
       atom_frac         0.37492082       -0.37489557       -0.02833882  Ag
       atom_frac         0.50002539       -0.37505466       -0.02833115  Ag
       atom_frac        -0.37492327       -0.24995434       -0.02834886  Ag
       atom_frac        -0.25010413       -0.24993634       -0.02830157  Ag
       atom_frac        -0.12562792       -0.24981650       -0.02825162  Ag
       atom_frac         0.00055544       -0.24967320       -0.02830304  Ag
       atom_frac         0.12523195       -0.24985776       -0.02828418  Ag
       atom_frac         0.24991083       -0.25031474       -0.02828599  Ag
       atom_frac         0.37473804       -0.24971616       -0.02834309  Ag
       atom_frac         0.49990773       -0.24998079       -0.02837717  Ag
       atom_frac        -0.37471116       -0.12481524       -0.02836720  Ag
       atom_frac        -0.24987492       -0.12545842       -0.02831966  Ag
       atom_frac        -0.12547324       -0.12440882       -0.02858441  Ag
       atom_frac        -0.00013765       -0.12408777       -0.02886666  Ag
       atom_frac         0.12415558       -0.12525504       -0.02852678  Ag
       atom_frac         0.25009535       -0.12614280       -0.02804751  Ag
       atom_frac         0.37553690       -0.12488939       -0.02844676  Ag
       atom_frac         0.50011877       -0.12489801       -0.02836658  Ag
       atom_frac        -0.37539608       -0.00011812       -0.02849650  Ag
       atom_frac        -0.24992406       -0.00081843       -0.02816017  Ag
       atom_frac        -0.12424873       -0.00006978       -0.02883365  Ag
       atom_frac        -0.00000005       -0.00000175       -0.02836951  Ag
       atom_frac         0.12424860        0.00006626       -0.02883368  Ag
       atom_frac         0.24992403        0.00081509       -0.02816016  Ag
       atom_frac         0.37539607        0.00011467       -0.02849650  Ag
       atom_frac         0.49999990       -0.00000172       -0.02834372  Ag
       atom_frac        -0.37553701        0.12488593       -0.02844675  Ag
       atom_frac        -0.25009546        0.12613936       -0.02804751  Ag
       atom_frac        -0.12415567        0.12525145       -0.02852679  Ag
       atom_frac         0.00013758        0.12408426       -0.02886665  Ag
       atom_frac         0.12547321        0.12440533       -0.02858441  Ag
       atom_frac         0.24987490        0.12545506       -0.02831967  Ag
       atom_frac         0.37471110        0.12481179       -0.02836719  Ag
       atom_frac         0.49988108        0.12489455       -0.02836658  Ag
       atom_frac        -0.37473808        0.24971270       -0.02834308  Ag
       atom_frac        -0.24991088        0.25031125       -0.02828600  Ag
       atom_frac        -0.12523199        0.24985425       -0.02828417  Ag
       atom_frac        -0.00055547        0.24966968       -0.02830303  Ag
       atom_frac         0.12562795        0.24981309       -0.02825162  Ag
       atom_frac         0.25010414        0.24993289       -0.02830158  Ag
       atom_frac         0.37492325        0.24995088       -0.02834887  Ag
       atom_frac         0.50009215        0.24997733       -0.02837717  Ag
       atom_frac        -0.37492090        0.37489204       -0.02833881  Ag
       atom_frac        -0.24988044        0.37490871       -0.02834785  Ag
       atom_frac        -0.12481626        0.37471259       -0.02834350  Ag
       atom_frac        -0.00008402        0.37517640       -0.02843424  Ag
       atom_frac         0.12482454        0.37516291       -0.02839792  Ag
       atom_frac         0.24973796        0.37473882       -0.02832875  Ag
       atom_frac         0.37493097        0.37499363       -0.02833300  Ag
       atom_frac         0.49997449        0.37505118       -0.02833114  Ag
------------------------------------------------------------
  Writing the current geometry to file "geometry.in.next_step".
  Writing estimated Hessian matrix to file 'hessian.aims'

------------------------------------------------------------
          Begin self-consistency loop: Re-initialization.

  Date     :  20260304, Time     :  140302.549
------------------------------------------------------------

  Initializing index lists of integration centers etc. from given atomic structure:
  Mapping all atomic coordinates to central unit cell.

  Initializing the k-points
  Using symmetry for reducing the k-points
  | k-points reduced from:        1 to        1
  | Number of k-points                             :         1
  The eigenvectors in the calculations are REAL.
  | Number of basis functions in the Hamiltonian integrals       :     18798
  | Number of basis functions in a single unit cell              :     10914
  | Number of centers in hartree potential                       :      1684
  | Number of centers in hartree multipole                       :       995
  | Number of centers in electron density summation              :       869
  | Number of centers in basis integrals                         :       880
  | Number of centers in integrals                               :       587
  | Number of centers in hamiltonian                             :       869
  | Number of centers in partition table from touching 0-cell    :       587
  | Number of centers in partition table total                   :       880
  | Consuming          0 KiB for k_phase.
  | Number of super-cells (origin) [n_cells]                     :          75
  | Number of super-cells (after PM_index) [n_cells]             :          10
  | Number of super-cells in hamiltonian [n_cells_in_hamiltonian]:          10
  | Size of matrix packed + index [n_hamiltonian_matrix_size]    :    14516546
  Partitioning the integration grid into batches with parallel hashing+maxmin method.
  Initializing partition tables, free-atom densities, potentials, etc. across the integration grid (initialize_grid_storage).
  | Species        1: outer_partition_radius set to              5.058069901110960 AA .
  | Species        2: outer_partition_radius set to              5.019602836301480 AA .
  | Species        3: outer_partition_radius set to              5.054417573612229 AA .
  | Species        4: outer_partition_radius set to              5.043624274424571 AA .
  | Species        5: outer_partition_radius set to              5.041031794424897 AA .
  | Net number of integration points:  2299958
  | of which are non-zero points    :  2012174
  Renormalizing the initial density to the exact electron count on the 3D integration grid.
  | Initial density: Formal number of electrons (from input files) :   12326.0000000000
  | Integrated number of electrons on 3D grid     :   12325.9688522375
  | Charge integration error                      :      -0.0311477625
  | Normalization factor for density and gradient :       1.0000025270
  Renormalizing the free-atom superposition density to the exact electron count on the 3D integration grid.
  | Formal number of electrons (from input files) :   12326.0000000000
  | Integrated number of electrons on 3D grid     :   12325.9688522375
  | Charge integration error                      :      -0.0311477625
  | Normalization factor for density and gradient :       1.0000025270
  Calculating total energy contributions from superposition of free atom densities.
  use_local_index: Max. local matrix size =      1474338
  Initialize hartree_potential_storage
  Max. number of atoms included in rho_multipole:          313
  Integrating overlap matrix.
  Time summed over all CPUs for integration: real work      153.544 s, elapsed      228.825 s
  Normalizing  ScaLAPACK eigenvectors

  End scf reinitialization - timings           :  max(cpu_time)    wall_clock(cpu1)
  | Time for scf. reinitialization              :        6.523 s           6.597 s
  | Boundary condition initialization           :        0.087 s           0.087 s
  | Integration                                 :        2.402 s           2.419 s
  | Grid partitioning                           :        1.017 s           1.020 s
  | Preloading free-atom quantities on grid     :        0.487 s           0.490 s
  | Free-atom superposition energy              :        0.062 s           0.062 s
  | K.-S. eigenvector reorthonormalization      :        1.782 s           1.816 s
------------------------------------------------------------
  Time for density update prior                :  max(cpu_time)    wall_clock(cpu1)
  | self-consistency iterative process          :        2.336 s           2.348 s
------------------------------------------------------------
Convergence:    q app. |  density  | eigen (eV) | Etot (eV) | forces (eV/A) |       CPU time |     Clock time
  SCF    1 :  0.33E-11 |  0.11E+01 |  -0.23E+08 | -0.38E+08 |             . |       10.422 s |       10.492 s
  SCF    2 :  0.19E-11 |  0.20E-05 |  -0.18E-03 |  0.38E-07 |             . |        8.872 s |        8.911 s
  SCF    3 :  0.69E-11 |  0.18E-05 |   0.14E-03 |  0.51E-07 |             . |        8.846 s |        8.892 s
  SCF    4 :  0.26E-11 |  0.13E-05 |   0.72E-03 | -0.51E-07 |             . |        8.851 s |        8.892 s
  SCF    5 :  0.36E-11 |  0.87E-06 |  -0.23E-03 |  0.13E-07 |             . |        8.842 s |        8.884 s
  SCF    6 :  0.80E-11 |  0.58E-06 |  -0.35E-03 |  0.44E-07 |             . |        8.864 s |        8.912 s
  SCF    7 :  0.40E-11 |  0.39E-06 |  -0.94E-04 |  0.70E-07 |             . |        8.869 s |        8.913 s
  SCF    8 :  0.52E-11 |  0.27E-06 |   0.14E-03 | -0.13E-07 |             . |        8.846 s |        8.884 s
  SCF    9 :  0.22E-11 |  0.20E-06 |   0.68E-04 | -0.38E-07 |             . |        8.870 s |        8.914 s
  SCF   10 :  0.38E-11 |  0.18E-06 |   0.82E-04 | -0.19E-07 |             . |        8.852 s |        8.898 s
  SCF   11 :  0.10E-10 |  0.12E-06 |  -0.14E-03 | -0.63E-07 |             . |        8.837 s |        8.875 s
  SCF   12 :  0.40E-11 |  0.76E-07 |  -0.31E-04 |  0.63E-08 |             . |        8.875 s |        8.919 s
  SCF   13 :  0.64E-11 |  0.64E-07 |  -0.27E-04 |  0.38E-07 |             . |        8.888 s |        8.943 s
  SCF   14 :  0.64E-11 |  0.40E-07 |   0.21E-04 | -0.25E-07 |             . |        8.851 s |        8.902 s
  SCF   15 :  0.59E-11 |  0.36E-07 |   0.68E-04 | -0.32E-07 |             . |        8.888 s |        8.935 s
  SCF   16 :  0.41E-11 |  0.25E-07 |   0.28E-06 |  0.57E-07 |             . |        8.875 s |        8.922 s
  SCF   17 :  0.89E-11 |  0.21E-07 |  -0.12E-04 |  0.38E-07 |             . |        8.857 s |        8.898 s
  SCF   18 :  0.33E-11 |  0.18E-07 |  -0.11E-04 | -0.13E-07 |             . |        8.888 s |        8.943 s
  SCF   19 :  0.58E-11 |  0.13E-07 |  -0.11E-04 |  0.19E-06 |             . |        8.878 s |        8.919 s
  SCF   20 :  0.90E-11 |  0.11E-07 |   0.62E-06 | -0.29E-06 |             . |        8.844 s |        8.896 s
  SCF   21 :  0.85E-13 |  0.10E-07 |   0.14E-04 |  0.70E-07 |             . |        8.889 s |        8.946 s
  SCF   22 :  0.54E-11 |  0.64E-08 |  -0.24E-05 |  0.13E-07 |             . |        8.902 s |        8.941 s
  SCF   23 :  0.79E-11 |  0.53E-08 |  -0.27E-05 | -0.76E-07 |             . |        8.850 s |        8.890 s
  SCF   24 :  0.70E-11 |  0.46E-08 |  -0.37E-05 |  0.63E-08 |             . |        8.866 s |        8.917 s
  SCF   25 :  0.35E-11 |  0.34E-08 |  -0.13E-05 |  0.82E-07 |             . |        8.871 s |        8.909 s
  SCF   26 :  0.79E-11 |  0.27E-08 |   0.43E-05 | -0.63E-07 |             . |        8.850 s |        8.890 s
  SCF   27 :  0.67E-11 |  0.22E-08 |   0.25E-05 | -0.63E-07 |             . |        8.865 s |        8.903 s
  SCF   28 :  0.76E-11 |  0.18E-08 |  -0.35E-07 |  0.38E-07 |             . |        8.880 s |        8.922 s
  SCF   29 :  0.44E-11 |  0.15E-08 |   0.46E-06 |  0.13E-07 |             . |        8.853 s |        8.898 s
  SCF   30 :  0.50E-11 |  0.13E-08 |  -0.12E-05 | -0.32E-07 |             . |        8.967 s |        9.033 s
  SCF   31 :  0.47E-11 |  0.12E-08 |  -0.55E-06 | -0.25E-07 |             . |        8.869 s |        8.912 s
  SCF   32 :  0.35E-11 |  0.10E-08 |  -0.17E-06 | -0.70E-07 |             . |        8.877 s |        8.925 s
  SCF   33 :  0.44E-11 |  0.90E-09 |   0.11E-06 |  0.10E-06 |             . |        8.835 s |        8.877 s
  SCF   34 :  0.49E-11 |  0.79E-09 |   0.25E-06 | -0.11E-06 |      0.20E+00 |       22.625 s |       22.755 s

  Total energy components:
  | Sum of eigenvalues            :     -837326.79243814 Ha   -22784821.30118597 eV
  | XC energy correction          :      -38696.23354797 Ha    -1052978.08977564 eV
  | XC potential correction       :       50465.35618391 Ha     1373232.21104982 eV
  | Free-atom electrostatic energy:     -555403.57735043 Ha   -15113300.29595813 eV
  | Hartree energy correction     :         299.30077955 Ha        8144.38859354 eV
  | vdW energy correction         :           0.00000000 Ha           0.00000000 eV
  | Entropy correction            :          -0.00107429 Ha          -0.02923290 eV
  | ---------------------------
  | Total energy                  :    -1380661.94637308 Ha   -37569723.08727638 eV
  | Total energy, T -> 0          :    -1380661.94744737 Ha   -37569723.11650928 eV  <-- do not rely on this value for anything but (periodic) metals
  | Electronic free energy        :    -1380661.94852166 Ha   -37569723.14574219 eV

  Derived energy quantities:
  | Kinetic energy                :     1434566.20807992 Ha    39036532.67876972 eV
  | Electrostatic energy          :    -2776531.92090503 Ha   -75553277.67627047 eV
  | Energy correction for multipole
  | error in Hartree potential    :           0.68482024 Ha          18.63490677 eV
  | Sum of eigenvalues per atom                           :      -72794.95623382 eV
  | Total energy (T->0) per atom                          :     -120031.06427000 eV  <-- do not rely on this value for anything but (periodic) metals
  | Electronic free energy per atom                       :     -120031.06436339 eV
  Highest occupied state (VBM) at     -3.98471038 eV (relative to internal zero)
  | Occupation number:      1.13562013
  | K-point:       1 at    0.000000    0.000000    0.000000 (in units of recip. lattice)

  Lowest unoccupied state (CBM) at    -3.97129716 eV (relative to internal zero)
  | Occupation number:      0.83477495
  | K-point:       1 at    0.000000    0.000000    0.000000 (in units of recip. lattice)

  This system has fractional occupation numbers. Since we use a finite k-point grid,
  this material is metallic within the approximate finite broadening function (occupation_type)
  applied to determine the occupation numbers. We conclude: there is no gap in this system.
  ESTIMATED overall HOMO-LUMO gap:      0.00000000 eV.

  | Chemical Potential                          :    -3.97867163 eV
  | Note that, for insulating systems, the printed 'chemical potential' value is not uniquely defined.
  | It can be anywhere in the energy gap, as long as it correctly separates occupied and unoccupied states.
  | In systems with a gap, the physically relevant chemical potential is the VBM or HOMO.
  | Potential vacuum level, "upper" slab surface    :    -0.04644366 eV
  | Potential vacuum level, "lower" slab surface    :    -0.06638291 eV
  | Work function ("upper" slab surface)            :     3.93222797 eV
  | Work function ("lower" slab surface)            :     3.91228872 eV
  | VBM (reference: upper vacuum level)             :     3.93826672 eV
  | CBM (reference: upper vacuum level)             :     3.92485350 eV

  Self-consistency cycle converged.


  Converging periodic supercell size for vdw calculation.
  Convergence accuracy (and time!) can be adjusted using the vdw_convergence_threshold keyword.

  Total energy components:
  | Sum of eigenvalues            :     -837326.79243814 Ha   -22784821.30118597 eV
  | XC energy correction          :      -38696.23354797 Ha    -1052978.08977564 eV
  | XC potential correction       :       50465.35618391 Ha     1373232.21104982 eV
  | Free-atom electrostatic energy:     -555403.57735043 Ha   -15113300.29595813 eV
  | Hartree energy correction     :         299.30077955 Ha        8144.38859354 eV
  | vdW energy correction         :          -2.91015763 Ha         -79.18941820 eV
  | Entropy correction            :          -0.00107429 Ha          -0.02923290 eV
  | ---------------------------
  | Total energy                  :    -1380664.85653071 Ha   -37569802.27669459 eV
  | Total energy, T -> 0          :    -1380664.85760500 Ha   -37569802.30592749 eV  <-- do not rely on this value for anything but (periodic) metals
  | Electronic free energy        :    -1380664.85867929 Ha   -37569802.33516038 eV

  Derived energy quantities:
  | Kinetic energy                :     1434566.20807992 Ha    39036532.67876972 eV
  | Electrostatic energy          :    -2776531.92090503 Ha   -75553277.67627047 eV
  | Energy correction for multipole
  | error in Hartree potential    :           0.68482024 Ha          18.63490677 eV
  | Sum of eigenvalues per atom                           :      -72794.95623382 eV
  | Total energy (T->0) per atom                          :     -120031.31727133 eV  <-- do not rely on this value for anything but (periodic) metals
  | Electronic free energy per atom                       :     -120031.31736473 eV

  Energy and forces in a compact form:
  | Total energy uncorrected      :         -0.375698022766946E+08 eV
  | Total energy corrected        :         -0.375698023059275E+08 eV  <-- do not rely on this value for anything but (periodic) metals
  | Electronic free energy        :         -0.375698023351604E+08 eV
  Total atomic forces (unitary forces were cleaned, then relaxation constraints were applied) [eV/Ang]:
  |    1          0.511103237077553E-06         -0.869909517245075E-06          0.219486932642057E-05
  |    2          0.679243635748966E-06         -0.837504450350584E-07         -0.135448612269067E-05
  |    3         -0.558991004484825E-06          0.313996563939523E-05          0.333198620785282E-05
  |    4          0.319197276615502E-06         -0.103007123002779E-05         -0.150442186862953E-05
  |    5          0.365906668574895E-06          0.170047282931610E-05         -0.843558600736075E-06
  |    6          0.184570504407490E-05          0.250111204084318E-05          0.100361065124848E-05
  |    7          0.569379037960229E-05         -0.693707107091171E-06          0.901935762546077E-06
  |    8          0.135353855386792E-05         -0.120216238960085E-05         -0.145214021635497E-05
  |    9         -0.196873148691631E-05         -0.775726837877931E-06         -0.662465443553849E-06
  |   10         -0.592443144294997E-05         -0.170785130866060E-05         -0.166517044413183E-05
  |   11          0.110412326335673E-05         -0.128616776836364E-05          0.173604537157851E-06
  |   12          0.707996636570168E-05         -0.907730786560714E-06          0.204593905401843E-06
  |   13          0.241911106579299E-05          0.258536098648729E-05          0.133939809674390E-05
  |   14         -0.246740275121020E-06          0.257395317735949E-05         -0.897572992468259E-06
  |   15          0.190768191320503E-05          0.162988865587461E-05          0.174298330090461E-05
  |   16         -0.557170522099557E-06         -0.637692830376222E-06         -0.842100872129364E-06
  |   17         -0.730663818095073E-06         -0.619662417864844E-06          0.124017937952163E-05
  |   18          0.125866070294849E-05          0.365493707551147E-05         -0.250625831695288E-05
  |   19         -0.675521951008060E-05         -0.126876997180081E-05          0.174974173052304E-05
  |   20         -0.400843788688042E-05         -0.202380725587414E-05          0.933559614005328E-06
  |   21         -0.126647153030584E-04         -0.356663024540051E-04         -0.179805669925796E-05
  |   22         -0.367723042113585E-04         -0.113523894968206E-04         -0.708639015629164E-06
  |   23         -0.132467214487210E-04         -0.361723385090713E-04          0.157072674350673E-05
  |   24         -0.360543758438783E-04         -0.942892028424701E-05          0.727448712907309E-06
  |   25          0.274677007523752E-06          0.708150278663223E-06         -0.250612979127333E-06
  |   26          0.900076042954918E-04          0.859460753200373E-04          0.187068408145591E-05
  |   27         -0.118479191327537E-05          0.378259537343082E-06          0.690059267924905E-05
  |   28          0.626070881087197E-06          0.375151579833817E-06         -0.118087310554987E-05
  |   29         -0.102716230744683E-05         -0.207680668241706E-06          0.100854709540455E-05
  |   30         -0.474707182768730E-06          0.568868532200596E-06          0.791627934816351E-06
  |   31         -0.125598581864224E-06          0.445310280487982E-06         -0.387032293751148E-05
  |   32         -0.224637024655929E-06          0.224371727612107E-06         -0.356031645031811E-07
  |   33         -0.208989455241367E-06          0.549387596484216E-06          0.731982038918035E-06
  |   34          0.526964248897551E-08         -0.251235772928650E-05          0.394160940708865E-06
  |   35          0.104875177236199E-06         -0.575963324883621E-06          0.108802530629134E-05
  |   36         -0.483113928896755E-06          0.102362769476646E-06         -0.335050413158099E-06
  |   37          0.772944381689626E-06         -0.839960721966317E-06         -0.161008720947535E-05
  |   38          0.188283766329646E-06         -0.826572813159592E-06         -0.140647070088202E-06
  |   39         -0.127281015442354E-06         -0.138829435466315E-06         -0.511575525600871E-06
  |   40         -0.178528045408327E-06         -0.481030711182464E-06         -0.678163568462736E-06
  |   41         -0.231461963532597E-06         -0.744194016862579E-06         -0.592083745531774E-06
  |   42          0.107662773460749E-06         -0.107991495184007E-05         -0.128649699735695E-05
  |   43          0.377447021838305E-06          0.572798195796024E-06         -0.584088114233784E-06
  |   44         -0.626494150568142E-07         -0.167748687403270E-06          0.561874007479157E-06
  |   45          0.619689432172021E-06         -0.340683063936726E-06          0.260798658768577E-06
  |   46         -0.320643810717948E-06         -0.547735667244792E-06         -0.176089904003848E-06
  |   47          0.424664209953614E-06         -0.656450181837963E-06          0.292197520777344E-06
  |   48          0.396227089989087E-06         -0.335085991368998E-06         -0.238473246940611E-06
  |   49          0.607379885801276E-07         -0.312640820129321E-06          0.281964510996258E-06
  |   50          0.747496211711817E-06          0.434975205435758E-06         -0.174341344899429E-05
  |   51         -0.687044493201958E-06          0.739663140268121E-06          0.289492548446444E-05
  |   52          0.451816377448358E-06          0.498406883054052E-06         -0.134512686030418E-05
  |   53         -0.260027273354057E-06         -0.462516539010436E-06         -0.862136657996619E-06
  |   54         -0.172520668097508E-07          0.551208162041371E-06          0.983790010510207E-06
  |   55         -0.791262638486077E-06         -0.697438299398945E-06         -0.315579051669592E-05
  |   56         -0.632219086335215E-07         -0.361636339990606E-06         -0.165136874575848E-06
  |   57          0.207525431204128E-06          0.211544595534798E-06          0.321028528494230E-06
  |   58          0.000000000000000E+00          0.000000000000000E+00          0.000000000000000E+00
  |   59          0.000000000000000E+00          0.000000000000000E+00          0.000000000000000E+00
  |   60          0.000000000000000E+00          0.000000000000000E+00          0.000000000000000E+00
  |   61          0.000000000000000E+00          0.000000000000000E+00          0.000000000000000E+00
  |   62          0.000000000000000E+00          0.000000000000000E+00          0.000000000000000E+00
  |   63          0.000000000000000E+00          0.000000000000000E+00          0.000000000000000E+00
  |   64          0.000000000000000E+00          0.000000000000000E+00          0.000000000000000E+00
  |   65          0.000000000000000E+00          0.000000000000000E+00          0.000000000000000E+00
  |   66          0.000000000000000E+00          0.000000000000000E+00          0.000000000000000E+00
  |   67          0.000000000000000E+00          0.000000000000000E+00          0.000000000000000E+00
  |   68          0.000000000000000E+00          0.000000000000000E+00          0.000000000000000E+00
  |   69          0.000000000000000E+00          0.000000000000000E+00          0.000000000000000E+00
  |   70          0.000000000000000E+00          0.000000000000000E+00          0.000000000000000E+00
  |   71          0.000000000000000E+00          0.000000000000000E+00          0.000000000000000E+00
  |   72          0.000000000000000E+00          0.000000000000000E+00          0.000000000000000E+00
  |   73          0.000000000000000E+00          0.000000000000000E+00          0.000000000000000E+00
  |   74          0.000000000000000E+00          0.000000000000000E+00          0.000000000000000E+00
  |   75          0.000000000000000E+00          0.000000000000000E+00          0.000000000000000E+00
  |   76          0.000000000000000E+00          0.000000000000000E+00          0.000000000000000E+00
  |   77          0.000000000000000E+00          0.000000000000000E+00          0.000000000000000E+00
  |   78          0.000000000000000E+00          0.000000000000000E+00          0.000000000000000E+00
  |   79          0.000000000000000E+00          0.000000000000000E+00          0.000000000000000E+00
  |   80          0.000000000000000E+00          0.000000000000000E+00          0.000000000000000E+00
  |   81          0.000000000000000E+00          0.000000000000000E+00          0.000000000000000E+00
  |   82          0.000000000000000E+00          0.000000000000000E+00          0.000000000000000E+00
  |   83          0.000000000000000E+00          0.000000000000000E+00          0.000000000000000E+00
  |   84          0.000000000000000E+00          0.000000000000000E+00          0.000000000000000E+00
  |   85          0.000000000000000E+00          0.000000000000000E+00          0.000000000000000E+00
  |   86          0.000000000000000E+00          0.000000000000000E+00          0.000000000000000E+00
  |   87          0.000000000000000E+00          0.000000000000000E+00          0.000000000000000E+00
  |   88          0.000000000000000E+00          0.000000000000000E+00          0.000000000000000E+00
  |   89          0.000000000000000E+00          0.000000000000000E+00          0.000000000000000E+00
  |   90          0.000000000000000E+00          0.000000000000000E+00          0.000000000000000E+00
  |   91          0.000000000000000E+00          0.000000000000000E+00          0.000000000000000E+00
  |   92          0.000000000000000E+00          0.000000000000000E+00          0.000000000000000E+00
  |   93          0.000000000000000E+00          0.000000000000000E+00          0.000000000000000E+00
  |   94          0.000000000000000E+00          0.000000000000000E+00          0.000000000000000E+00
  |   95          0.000000000000000E+00          0.000000000000000E+00          0.000000000000000E+00
  |   96          0.000000000000000E+00          0.000000000000000E+00          0.000000000000000E+00
  |   97          0.000000000000000E+00          0.000000000000000E+00          0.000000000000000E+00
  |   98          0.000000000000000E+00          0.000000000000000E+00          0.000000000000000E+00
  |   99          0.000000000000000E+00          0.000000000000000E+00          0.000000000000000E+00
  |  100          0.000000000000000E+00          0.000000000000000E+00          0.000000000000000E+00
  |  101          0.000000000000000E+00          0.000000000000000E+00          0.000000000000000E+00
  |  102          0.000000000000000E+00          0.000000000000000E+00          0.000000000000000E+00
  |  103          0.000000000000000E+00          0.000000000000000E+00          0.000000000000000E+00
  |  104          0.000000000000000E+00          0.000000000000000E+00          0.000000000000000E+00
  |  105          0.000000000000000E+00          0.000000000000000E+00          0.000000000000000E+00
  |  106          0.000000000000000E+00          0.000000000000000E+00          0.000000000000000E+00
  |  107          0.000000000000000E+00          0.000000000000000E+00          0.000000000000000E+00
  |  108          0.000000000000000E+00          0.000000000000000E+00          0.000000000000000E+00
  |  109          0.000000000000000E+00          0.000000000000000E+00          0.000000000000000E+00
  |  110          0.000000000000000E+00          0.000000000000000E+00          0.000000000000000E+00
  |  111          0.000000000000000E+00          0.000000000000000E+00          0.000000000000000E+00
  |  112          0.000000000000000E+00          0.000000000000000E+00          0.000000000000000E+00
  |  113          0.000000000000000E+00          0.000000000000000E+00          0.000000000000000E+00
  |  114          0.000000000000000E+00          0.000000000000000E+00          0.000000000000000E+00
  |  115          0.000000000000000E+00          0.000000000000000E+00          0.000000000000000E+00
  |  116          0.000000000000000E+00          0.000000000000000E+00          0.000000000000000E+00
  |  117          0.000000000000000E+00          0.000000000000000E+00          0.000000000000000E+00
  |  118          0.000000000000000E+00          0.000000000000000E+00          0.000000000000000E+00
  |  119          0.000000000000000E+00          0.000000000000000E+00          0.000000000000000E+00
  |  120          0.000000000000000E+00          0.000000000000000E+00          0.000000000000000E+00
  |  121          0.000000000000000E+00          0.000000000000000E+00          0.000000000000000E+00
  |  122          0.000000000000000E+00          0.000000000000000E+00          0.000000000000000E+00
  |  123          0.000000000000000E+00          0.000000000000000E+00          0.000000000000000E+00
  |  124          0.000000000000000E+00          0.000000000000000E+00          0.000000000000000E+00
  |  125          0.000000000000000E+00          0.000000000000000E+00          0.000000000000000E+00
  |  126          0.000000000000000E+00          0.000000000000000E+00          0.000000000000000E+00
  |  127          0.000000000000000E+00          0.000000000000000E+00          0.000000000000000E+00
  |  128          0.000000000000000E+00          0.000000000000000E+00          0.000000000000000E+00
  |  129          0.000000000000000E+00          0.000000000000000E+00          0.000000000000000E+00
  |  130          0.000000000000000E+00          0.000000000000000E+00          0.000000000000000E+00
  |  131          0.000000000000000E+00          0.000000000000000E+00          0.000000000000000E+00
  |  132          0.000000000000000E+00          0.000000000000000E+00          0.000000000000000E+00
  |  133          0.000000000000000E+00          0.000000000000000E+00          0.000000000000000E+00
  |  134          0.000000000000000E+00          0.000000000000000E+00          0.000000000000000E+00
  |  135          0.000000000000000E+00          0.000000000000000E+00          0.000000000000000E+00
  |  136          0.000000000000000E+00          0.000000000000000E+00          0.000000000000000E+00
  |  137          0.000000000000000E+00          0.000000000000000E+00          0.000000000000000E+00
  |  138          0.000000000000000E+00          0.000000000000000E+00          0.000000000000000E+00
  |  139          0.000000000000000E+00          0.000000000000000E+00          0.000000000000000E+00
  |  140          0.000000000000000E+00          0.000000000000000E+00          0.000000000000000E+00
  |  141          0.000000000000000E+00          0.000000000000000E+00          0.000000000000000E+00
  |  142          0.000000000000000E+00          0.000000000000000E+00          0.000000000000000E+00
  |  143          0.000000000000000E+00          0.000000000000000E+00          0.000000000000000E+00
  |  144          0.000000000000000E+00          0.000000000000000E+00          0.000000000000000E+00
  |  145          0.000000000000000E+00          0.000000000000000E+00          0.000000000000000E+00
  |  146          0.000000000000000E+00          0.000000000000000E+00          0.000000000000000E+00
  |  147          0.000000000000000E+00          0.000000000000000E+00          0.000000000000000E+00
  |  148          0.000000000000000E+00          0.000000000000000E+00          0.000000000000000E+00
  |  149          0.000000000000000E+00          0.000000000000000E+00          0.000000000000000E+00
  |  150          0.000000000000000E+00          0.000000000000000E+00          0.000000000000000E+00
  |  151          0.000000000000000E+00          0.000000000000000E+00          0.000000000000000E+00
  |  152          0.000000000000000E+00          0.000000000000000E+00          0.000000000000000E+00
  |  153          0.000000000000000E+00          0.000000000000000E+00          0.000000000000000E+00
  |  154          0.000000000000000E+00          0.000000000000000E+00          0.000000000000000E+00
  |  155          0.000000000000000E+00          0.000000000000000E+00          0.000000000000000E+00
  |  156          0.000000000000000E+00          0.000000000000000E+00          0.000000000000000E+00
  |  157          0.000000000000000E+00          0.000000000000000E+00          0.000000000000000E+00
  |  158          0.000000000000000E+00          0.000000000000000E+00          0.000000000000000E+00
  |  159          0.000000000000000E+00          0.000000000000000E+00          0.000000000000000E+00
  |  160          0.000000000000000E+00          0.000000000000000E+00          0.000000000000000E+00
  |  161          0.000000000000000E+00          0.000000000000000E+00          0.000000000000000E+00
  |  162          0.000000000000000E+00          0.000000000000000E+00          0.000000000000000E+00
  |  163          0.000000000000000E+00          0.000000000000000E+00          0.000000000000000E+00
  |  164          0.000000000000000E+00          0.000000000000000E+00          0.000000000000000E+00
  |  165          0.000000000000000E+00          0.000000000000000E+00          0.000000000000000E+00
  |  166          0.000000000000000E+00          0.000000000000000E+00          0.000000000000000E+00
  |  167          0.000000000000000E+00          0.000000000000000E+00          0.000000000000000E+00
  |  168          0.000000000000000E+00          0.000000000000000E+00          0.000000000000000E+00
  |  169          0.000000000000000E+00          0.000000000000000E+00          0.000000000000000E+00
  |  170          0.000000000000000E+00          0.000000000000000E+00          0.000000000000000E+00
  |  171          0.000000000000000E+00          0.000000000000000E+00          0.000000000000000E+00
  |  172          0.000000000000000E+00          0.000000000000000E+00          0.000000000000000E+00
  |  173          0.000000000000000E+00          0.000000000000000E+00          0.000000000000000E+00
  |  174          0.000000000000000E+00          0.000000000000000E+00          0.000000000000000E+00
  |  175          0.000000000000000E+00          0.000000000000000E+00          0.000000000000000E+00
  |  176          0.000000000000000E+00          0.000000000000000E+00          0.000000000000000E+00
  |  177          0.000000000000000E+00          0.000000000000000E+00          0.000000000000000E+00
  |  178          0.000000000000000E+00          0.000000000000000E+00          0.000000000000000E+00
  |  179          0.000000000000000E+00          0.000000000000000E+00          0.000000000000000E+00
  |  180          0.000000000000000E+00          0.000000000000000E+00          0.000000000000000E+00
  |  181          0.000000000000000E+00          0.000000000000000E+00          0.000000000000000E+00
  |  182          0.000000000000000E+00          0.000000000000000E+00          0.000000000000000E+00
  |  183          0.000000000000000E+00          0.000000000000000E+00          0.000000000000000E+00
  |  184          0.000000000000000E+00          0.000000000000000E+00          0.000000000000000E+00
  |  185          0.000000000000000E+00          0.000000000000000E+00          0.000000000000000E+00
  |  186         -0.157346631256367E-05         -0.126574264147419E-05         -0.741892304298029E-06
  |  187         -0.152647608653735E-05         -0.254763436158564E-05          0.491033234803561E-05
  |  188          0.433598001221664E-05          0.714092403120898E-05          0.263992530455574E-05
  |  189         -0.630285762227737E-05          0.187599435459227E-05          0.142749999791001E-05
  |  190          0.388717124057873E-05         -0.222739049746528E-05          0.436062381445890E-05
  |  191         -0.111707364447995E-05         -0.244202409396199E-05          0.972477236725167E-06
  |  192         -0.790609717348016E-06         -0.318354758604368E-07          0.531842992019994E-05
  |  193         -0.319735134319008E-05          0.535607880231559E-05          0.115277510807325E-05
  |  194          0.144107953797134E-05         -0.625766026989494E-06          0.352867660874202E-05
  |  195          0.215949925354014E-06          0.112404193357427E-04         -0.190443292572175E-05
  |  196          0.676339068253215E-06         -0.774128574863401E-05          0.732785607935824E-05
  |  197         -0.411510585363869E-05         -0.500364059785770E-05         -0.238303707737289E-05
  |  198         -0.521168853839822E-06          0.731283280605745E-05         -0.131891168587772E-05
  |  199          0.688693171364803E-05          0.387646286200318E-05         -0.805033643972469E-05
  |  200         -0.441589836742078E-05         -0.100333241567624E-05         -0.218286814124408E-05
  |  201          0.377754814330815E-05         -0.688314280301327E-05          0.336327035130927E-05
  |  202          0.132856036070303E-04         -0.516496739482285E-05          0.303043866516594E-05
  |  203         -0.393562910063669E-05         -0.199190360075715E-05         -0.952218524875382E-06
  |  204          0.280847912480124E-05          0.379683056463058E-05          0.662669077858694E-05
  |  205         -0.578417938356086E-05          0.643997915090430E-06         -0.450984401871898E-05
  |  206          0.440093615008305E-05         -0.637469153901565E-05          0.488866733042321E-06
  |  207         -0.268181606547887E-05          0.202701350660685E-07         -0.125574417856432E-05
  |  208          0.404777686337223E-06          0.357262012305958E-07         -0.407107522689461E-05
  |  209         -0.379540568221156E-05          0.910212925609132E-07         -0.521495725131162E-06
  |  210          0.489307429531374E-05          0.229877635956832E-05         -0.146544803551651E-05
  |  211         -0.177097954448757E-05         -0.329254933313030E-06         -0.724103251914880E-05
  |  212         -0.510279165591789E-05         -0.280051756096974E-06         -0.181205169521138E-05
  |  213          0.712597851084377E-05          0.665066507675560E-06          0.751086941503435E-06
  |  214         -0.281047406564353E-05          0.237960245690927E-05         -0.817048448597939E-06
  |  215          0.362074011707758E-05         -0.377848626875084E-05         -0.687157610040816E-06
  |  216          0.521529242956837E-05          0.377275472782491E-06         -0.451524931478714E-05
  |  217         -0.644108434001382E-05          0.489574275964130E-05          0.410702513485548E-05
  |  218          0.330732896564151E-05          0.225151087011213E-05          0.375114570314451E-05
  |  219         -0.139024954343619E-05         -0.445859419034022E-06         -0.341185804692980E-05
  |  220          0.878459063570333E-06         -0.189590572371660E-05         -0.309096498103469E-05
  |  221          0.321257108523338E-08          0.667611287567224E-06         -0.576073890039475E-05
  |  222         -0.355599471806364E-05          0.360359919463863E-07         -0.330237114541865E-05
  |  223          0.544259591773123E-05          0.699841297820346E-07         -0.241719720514379E-05
  |  224         -0.165226701535768E-05          0.396455375399773E-05         -0.538304107932357E-05
  |  225         -0.166384153686161E-05         -0.490436695634870E-05          0.251947594966926E-05
  |  226         -0.900950561075827E-06         -0.521688732567621E-05          0.344714526039225E-05
  |  227          0.423676989912916E-05          0.147911963566322E-05         -0.119215805168356E-05
  |  228         -0.474782060276730E-05          0.479525133707745E-05         -0.486410889646891E-05
  |  229          0.196778000831646E-05         -0.268352021636836E-05         -0.190427013552040E-06
  |  230         -0.453968556340802E-05         -0.317296090632335E-05         -0.559401149020367E-05
  |  231          0.110694054150072E-04          0.307845802453391E-05         -0.268449904631968E-05
  |  232         -0.526854367144022E-05         -0.443234443020038E-05         -0.415426959559633E-05
  |  233          0.245614188335456E-05          0.555973063397889E-06          0.504583174809160E-05
  |  234         -0.104075108731347E-04          0.348868713211851E-05         -0.599949686639254E-05
  |  235          0.969050556252918E-05          0.134285712579133E-05          0.536363580333757E-05
  |  236         -0.443425889305476E-05         -0.291655498727306E-05         -0.291300374075082E-05
  |  237         -0.120239860559993E-05          0.342108644693946E-05         -0.530312581393719E-06
  |  238          0.324665301219329E-05          0.632257856253061E-05          0.818665314462053E-06
  |  239         -0.769200000380899E-05         -0.645473830376721E-05          0.731508999930392E-06
  |  240          0.443383380795152E-05         -0.481905266614884E-06         -0.402794188412135E-05
  |  241         -0.115133589815783E-05          0.773176126482300E-05         -0.572172655937742E-06
  |  242          0.379842608358206E-05          0.418606038343795E-06          0.681717537664259E-06
  |  243         -0.841982872370612E-05          0.113794667914552E-05          0.688009957167283E-06
  |  244          0.305127669444905E-05          0.206128035064042E-05         -0.770002042481408E-05
  |  245          0.476842125831839E-05         -0.262341636672569E-05         -0.223583840679525E-06
  |  246         -0.621786734940422E-05         -0.187661577221431E-05          0.265111711375012E-05
  |  247          0.883087019565198E-05          0.345645661889359E-05         -0.103916737676214E-05
  |  248         -0.341348921018923E-05         -0.247021475947814E-05          0.484636922565971E-06
  |  249         -0.127908583669574E-05         -0.593897856746677E-05          0.766927786159146E-06
  |  250         -0.209109831209573E-06         -0.369139851506698E-05          0.377157281270132E-05
  |  251          0.133787384288082E-05          0.144347261915197E-05         -0.430065320676607E-05
  |  252         -0.284964592300539E-05          0.434197336964584E-05          0.323472581446324E-05
  |  253          0.122748004070317E-05          0.124548693203294E-05         -0.631965670701893E-07
  |  254          0.655058977596984E-06         -0.212529992173352E-05         -0.118034365558048E-05
  |  255         -0.473399838086042E-06          0.325920618703319E-05         -0.133823262828965E-05
  |  256         -0.126690725696022E-05         -0.159139864515821E-05         -0.334120676335461E-05
  |  257          0.412454262896977E-05          0.229104650588133E-06          0.456995301779281E-06
  |  258         -0.277855962368044E-05          0.435737097351207E-05         -0.140635210744030E-05
  |  259         -0.299371229629884E-06         -0.225959475353532E-05          0.410762061421773E-06
  |  260          0.395895604408134E-05         -0.196825271341802E-05         -0.267425715461537E-05
  |  261         -0.318341502465013E-05         -0.203399972642295E-05         -0.707574099099530E-05
  |  262          0.422553923401913E-06         -0.884169802754352E-06          0.267951202713498E-05
  |  263         -0.271730003761886E-05         -0.608062533673076E-05          0.392605462497770E-05
  |  264          0.288113801362578E-05         -0.135700506310190E-05         -0.385269635751763E-06
  |  265          0.239761832043995E-05         -0.188975519550524E-05         -0.131196870719999E-05
  |  266          0.229905534232324E-05         -0.234575862852963E-05         -0.215713735068329E-06
  |  267         -0.475748516318817E-05          0.195282101066549E-05         -0.423275924394454E-05
  |  268          0.291187703941921E-05          0.801739126347157E-06         -0.146832649084417E-06
  |  269         -0.363388856561130E-05          0.176187622214432E-05          0.928771839308979E-06
  |  270          0.541077198886944E-05         -0.105868320174212E-05          0.115060134674840E-05
  |  271         -0.418200294948927E-05          0.509423287332677E-05         -0.140720545960681E-05
  |  272         -0.249055030572603E-06          0.529510363083037E-06          0.260097010451657E-05
  |  273          0.133786620373377E-05          0.731173790856543E-06          0.185647475178369E-05
  |  274         -0.183384258205298E-05          0.110801826705078E-05          0.437369313056547E-05
  |  275         -0.197437114885491E-05         -0.262515621396205E-05         -0.498110125686194E-06
  |  276          0.347886574974237E-05         -0.285409961585252E-05          0.685799172899664E-06
  |  277         -0.235006742983964E-05         -0.379304916434250E-05          0.131497075191607E-06
  |  278         -0.589365176631978E-06          0.385709519128519E-05          0.195123556014700E-05
  |  279          0.211397029946900E-05         -0.301259183286247E-05          0.678459051461808E-06
  |  280         -0.346592428214373E-05         -0.186494967363533E-06          0.218726444767121E-05
  |  281          0.318800181471679E-05          0.192533553986647E-05         -0.560749665347522E-06
  |  282         -0.263485377429030E-05          0.294886324174786E-06         -0.114950352444110E-05
  |  283         -0.274565506469854E-05          0.810580414640871E-06          0.216050514340467E-06
  |  284          0.287805060200705E-05          0.287392276791287E-06          0.237313201393783E-05
  |  285         -0.123319769856009E-06          0.213470867088141E-05          0.447422004544811E-05
  |  286         -0.764278445676832E-06         -0.419599369388812E-05         -0.169651035984230E-05
  |  287          0.971421939346357E-06         -0.181400435624286E-05          0.132397778752499E-05
  |  288         -0.293190864966901E-05          0.119035302417573E-05          0.249719381128111E-05
  |  289          0.831143017113523E-05         -0.187384805846884E-05         -0.309691323453412E-05
  |  290          0.317400736064855E-05          0.306944170172401E-05         -0.209279889165486E-05
  |  291         -0.529317678993980E-05          0.787271801176082E-06         -0.153032418456244E-05
  |  292          0.730269365906047E-06          0.210271521112762E-05          0.191442145223110E-05
  |  293          0.153368447275155E-05         -0.385214966841046E-06          0.256975101835301E-05
  |  294         -0.131413978384034E-06          0.255085145905098E-05          0.871214622261272E-06
  |  295         -0.110820429009025E-05         -0.186085894543102E-06          0.561713589168335E-05
  |  296          0.147431661363940E-06          0.400077034931115E-06         -0.134746266661621E-05
  |  297          0.217984274682932E-05          0.120693913426168E-08          0.781426149371202E-06
  |  298         -0.101638834092224E-05         -0.395026625524682E-05         -0.192328057445675E-06
  |  299          0.281082362135693E-05         -0.312561835768486E-05          0.258387028204636E-05
  |  300         -0.242756725056036E-05          0.419622370473715E-05         -0.424586280657931E-05
  |  301          0.724970617639414E-06          0.125036952683198E-05          0.226708490696684E-05
  |  302         -0.245597482477357E-05         -0.134239972189039E-05          0.257101261948639E-05
  |  303          0.287207222207748E-05          0.377111691845865E-05          0.231043452937221E-05
  |  304         -0.507350903580611E-05         -0.137956846163015E-05          0.124984741352043E-05
  |  305          0.282068061406455E-05          0.103373792695928E-06          0.197979556936921E-05
  |  306         -0.182320855656423E-05          0.114225644616915E-05         -0.101083834917405E-05
  |  307          0.278914611033048E-05          0.368738411148972E-05          0.220448988650562E-06
  |  308         -0.516943360581614E-05         -0.598636120663143E-05          0.219025592167025E-05
  |  309          0.489334045126032E-05         -0.232239742355232E-05          0.203656310873379E-05
  |  310         -0.127395961584773E-07          0.271692877525357E-05         -0.232749540544301E-05
  |  311         -0.245714250083516E-05         -0.324234166110748E-05         -0.694692153893222E-06
  |  312          0.906954528922819E-06          0.234185187721511E-05          0.122012560001362E-05
  |  313          0.114662705938929E-05         -0.157997649156926E-05         -0.230897636712178E-05


  Writing energy levels:
  Relaxation / MD: End force evaluation.       :  max(cpu_time)    wall_clock(cpu1)
  | Time for this force evaluation              :      326.989 s         330.513 s

------------------------------------------------------------
  Geometry optimization: Attempting to predict improved coordinates.

  Net remaining forces (excluding translations, rotations) in present geometry:
  || Forces on atoms   || =   0.900076E-04 eV/A.
  Maximum force component is  0.900076E-04 eV/A.
  Present geometry is converged.

------------------------------------------------------------
  Final atomic structure:
                         x [A]             y [A]             z [A]
  lattice_vector        23.51554312        0.00000000        0.00000000
  lattice_vector         0.00000000       23.51554312        0.00000000
  lattice_vector         0.00000000        0.00000000      106.23550000

            atom        -3.81198767        1.86620072       -0.03073806  C
            atom        -2.36747926        1.87049140        0.06101896  C
            atom        -0.29597211        3.00201470        0.10610220  C
            atom         0.50650345        4.22908672        0.07657996  C
            atom        -4.21519300        0.49818537       -0.05533783  C
            atom        -3.00458427       -0.29247374        0.02786988  C
            atom        -1.87300089       -2.36437195        0.10676424  C
            atom        -1.86166608       -3.83188147        0.08232242  C
            atom        -1.62111149        2.99565436        0.08068180  N
            atom        -2.98345117       -1.64361571        0.05533744  N
            atom         1.86172282        3.83186510        0.08230511  C
            atom         1.87305811        2.36435550        0.10674223  C
            atom         3.00464072        0.29245993        0.02785164  C
            atom         4.21524954       -0.49820091       -0.05534405  C
            atom         2.36753474       -1.87050362        0.06101583  C
            atom         3.81204335       -1.86621486       -0.03073311  C
            atom        -0.50644635       -4.22910430        0.07658659  C
            atom         0.29603075       -3.00203344        0.10610876  C
            atom         2.98351047        1.64360189        0.05531178  N
            atom         1.62116986       -2.99566865        0.08068159  N
            atom        -1.92555495        0.56681651        0.09544702  N
            atom         0.56510397        1.91827776        0.13029048  N
            atom         1.92560971       -0.56682706        0.09543041  N
            atom        -0.56504483       -1.91829730        0.13030606  N
            atom         0.14937404        5.58103939        0.00223944  C
            atom         0.00001894       -0.00001576       -0.03562848  Zn
            atom         2.89046910        4.77696722        0.01696290  C
            atom         1.18027020        6.52792717       -0.05781117  C
            atom         2.53555027        6.13164998       -0.05792735  C
            atom        -0.89960951        5.88073547        0.01755209  H
            atom         3.93529095        4.46369968        0.02066973  H
            atom         3.31529276        6.89483525       -0.08390257  H
            atom         0.93779118        7.59034906       -0.10821322  H
            atom         5.57607328       -0.15298338       -0.14586053  C
            atom         4.76163969       -2.89875655       -0.10211585  C
            atom         6.51543685       -1.18680048       -0.20930138  C
            atom         6.11348551       -2.54997300       -0.19944545  C
            atom         5.88568774        0.89303624       -0.11334778  H
            atom         4.44885187       -3.94322130       -0.06351243  H
            atom         6.87609290       -3.33058259       -0.19961776  H
            atom         7.57974923       -0.95058731       -0.24822870  H
            atom        -5.57601614        0.15296629       -0.14585631  C
            atom        -4.76158497        2.89874064       -0.10213338  C
            atom        -6.51538036        1.18678158       -0.20931255  C
            atom        -6.11343028        2.54995511       -0.19946791  C
            atom        -5.88562952       -0.89305342       -0.11333568  H
            atom        -4.44879908        3.94320628       -0.06353779  H
            atom        -6.87603837        3.33056411       -0.19964673  H
            atom        -7.57969243        0.95056761       -0.24824181  H
            atom        -0.14931909       -5.58105728        0.00223919  C
            atom        -2.89041316       -4.77698289        0.01698485  C
            atom        -1.18021651       -6.52794390       -0.05780906  C
            atom        -2.53549628       -6.13166535       -0.05791362  C
            atom         0.89966422       -5.88075462        0.01754372  H
            atom        -3.93523472       -4.46371459        0.02069911  H
            atom        -3.31523940       -6.89485009       -0.08388652  H
            atom        -0.93773890       -7.59036597       -0.10821508  H
            atom        -7.34860747      -10.28809054       -9.05914426  Ag
            atom        -4.40916458      -10.28809054       -9.05914426  Ag
            atom        -1.46972169      -10.28809054       -9.05914426  Ag
            atom         1.46972120      -10.28809054       -9.05914426  Ag
            atom         4.40916409      -10.28809054       -9.05914426  Ag
            atom         7.34860698      -10.28809054       -9.05914426  Ag
            atom        10.28804987      -10.28809054       -9.05914426  Ag
            atom        13.22749276      -10.28809054       -9.05914426  Ag
            atom        -7.34860747       -7.34864765       -9.05914426  Ag
            atom        -4.40916458       -7.34864765       -9.05914426  Ag
            atom        -1.46972169       -7.34864765       -9.05914426  Ag
            atom         1.46972120       -7.34864765       -9.05914426  Ag
            atom         4.40916409       -7.34864765       -9.05914426  Ag
            atom         7.34860698       -7.34864765       -9.05914426  Ag
            atom        10.28804987       -7.34864765       -9.05914426  Ag
            atom        13.22749276       -7.34864765       -9.05914426  Ag
            atom        -7.34860747       -4.40920476       -9.05914426  Ag
            atom        -4.40916458       -4.40920476       -9.05914426  Ag
            atom        -1.46972169       -4.40920476       -9.05914426  Ag
            atom         1.46972120       -4.40920476       -9.05914426  Ag
            atom         4.40916409       -4.40920476       -9.05914426  Ag
            atom         7.34860698       -4.40920476       -9.05914426  Ag
            atom        10.28804987       -4.40920476       -9.05914426  Ag
            atom        13.22749276       -4.40920476       -9.05914426  Ag
            atom        -7.34860747       -1.46976187       -9.05914426  Ag
            atom        -4.40916458       -1.46976187       -9.05914426  Ag
            atom        -1.46972169       -1.46976187       -9.05914426  Ag
            atom         1.46972120       -1.46976187       -9.05914426  Ag
            atom         4.40916409       -1.46976187       -9.05914426  Ag
            atom         7.34860698       -1.46976187       -9.05914426  Ag
            atom        10.28804987       -1.46976187       -9.05914426  Ag
            atom        13.22749276       -1.46976187       -9.05914426  Ag
            atom        -7.34860747        1.46968102       -9.05914426  Ag
            atom        -4.40916458        1.46968102       -9.05914426  Ag
            atom        -1.46972169        1.46968102       -9.05914426  Ag
            atom         1.46972120        1.46968102       -9.05914426  Ag
            atom         4.40916409        1.46968102       -9.05914426  Ag
            atom         7.34860698        1.46968102       -9.05914426  Ag
            atom        10.28804987        1.46968102       -9.05914426  Ag
            atom        13.22749276        1.46968102       -9.05914426  Ag
            atom        -7.34860747        4.40912391       -9.05914426  Ag
            atom        -4.40916458        4.40912391       -9.05914426  Ag
            atom        -1.46972169        4.40912391       -9.05914426  Ag
            atom         1.46972120        4.40912391       -9.05914426  Ag
            atom         4.40916409        4.40912391       -9.05914426  Ag
            atom         7.34860698        4.40912391       -9.05914426  Ag
            atom        10.28804987        4.40912391       -9.05914426  Ag
            atom        13.22749276        4.40912391       -9.05914426  Ag
            atom        -7.34860747        7.34856680       -9.05914426  Ag
            atom        -4.40916458        7.34856680       -9.05914426  Ag
            atom        -1.46972169        7.34856680       -9.05914426  Ag
            atom         1.46972120        7.34856680       -9.05914426  Ag
            atom         4.40916409        7.34856680       -9.05914426  Ag
            atom         7.34860698        7.34856680       -9.05914426  Ag
            atom        10.28804987        7.34856680       -9.05914426  Ag
            atom        13.22749276        7.34856680       -9.05914426  Ag
            atom        -7.34860747       10.28800969       -9.05914426  Ag
            atom        -4.40916458       10.28800969       -9.05914426  Ag
            atom        -1.46972169       10.28800969       -9.05914426  Ag
            atom         1.46972120       10.28800969       -9.05914426  Ag
            atom         4.40916409       10.28800969       -9.05914426  Ag
            atom         7.34860698       10.28800969       -9.05914426  Ag
            atom        10.28804987       10.28800969       -9.05914426  Ag
            atom        13.22749276       10.28800969       -9.05914426  Ag
            atom        -8.81832891      -11.75781198       -6.98064458  Ag
            atom        -5.87888602      -11.75781198       -6.98064458  Ag
            atom        -2.93944313      -11.75781198       -6.98064458  Ag
            atom        -0.00000024      -11.75781198       -6.98064458  Ag
            atom         2.93944265      -11.75781198       -6.98064458  Ag
            atom         5.87888554      -11.75781198       -6.98064458  Ag
            atom         8.81832843      -11.75781198       -6.98064458  Ag
            atom        11.75777132      -11.75781198       -6.98064458  Ag
            atom        -8.81832891       -8.81836909       -6.98064458  Ag
            atom        -5.87888602       -8.81836909       -6.98064458  Ag
            atom        -2.93944313       -8.81836909       -6.98064458  Ag
            atom        -0.00000024       -8.81836909       -6.98064458  Ag
            atom         2.93944265       -8.81836909       -6.98064458  Ag
            atom         5.87888554       -8.81836909       -6.98064458  Ag
            atom         8.81832843       -8.81836909       -6.98064458  Ag
            atom        11.75777132       -8.81836909       -6.98064458  Ag
            atom        -8.81832891       -5.87892620       -6.98064458  Ag
            atom        -5.87888602       -5.87892620       -6.98064458  Ag
            atom        -2.93944313       -5.87892620       -6.98064458  Ag
            atom        -0.00000024       -5.87892620       -6.98064458  Ag
            atom         2.93944265       -5.87892620       -6.98064458  Ag
            atom         5.87888554       -5.87892620       -6.98064458  Ag
            atom         8.81832843       -5.87892620       -6.98064458  Ag
            atom        11.75777132       -5.87892620       -6.98064458  Ag
            atom        -8.81832891       -2.93948331       -6.98064458  Ag
            atom        -5.87888602       -2.93948331       -6.98064458  Ag
            atom        -2.93944313       -2.93948331       -6.98064458  Ag
            atom        -0.00000024       -2.93948331       -6.98064458  Ag
            atom         2.93944265       -2.93948331       -6.98064458  Ag
            atom         5.87888554       -2.93948331       -6.98064458  Ag
            atom         8.81832843       -2.93948331       -6.98064458  Ag
            atom        11.75777132       -2.93948331       -6.98064458  Ag
            atom        -8.81832891       -0.00004042       -6.98064458  Ag
            atom        -5.87888602       -0.00004042       -6.98064458  Ag
            atom        -2.93944313       -0.00004042       -6.98064458  Ag
            atom        -0.00000024       -0.00004042       -6.98064458  Ag
            atom         2.93944265       -0.00004042       -6.98064458  Ag
            atom         5.87888554       -0.00004042       -6.98064458  Ag
            atom         8.81832843       -0.00004042       -6.98064458  Ag
            atom        11.75777132       -0.00004042       -6.98064458  Ag
            atom        -8.81832891        2.93940247       -6.98064458  Ag
            atom        -5.87888602        2.93940247       -6.98064458  Ag
            atom        -2.93944313        2.93940247       -6.98064458  Ag
            atom        -0.00000024        2.93940247       -6.98064458  Ag
            atom         2.93944265        2.93940247       -6.98064458  Ag
            atom         5.87888554        2.93940247       -6.98064458  Ag
            atom         8.81832843        2.93940247       -6.98064458  Ag
            atom        11.75777132        2.93940247       -6.98064458  Ag
            atom        -8.81832891        5.87884536       -6.98064458  Ag
            atom        -5.87888602        5.87884536       -6.98064458  Ag
            atom        -2.93944313        5.87884536       -6.98064458  Ag
            atom        -0.00000024        5.87884536       -6.98064458  Ag
            atom         2.93944265        5.87884536       -6.98064458  Ag
            atom         5.87888554        5.87884536       -6.98064458  Ag
            atom         8.81832843        5.87884536       -6.98064458  Ag
            atom        11.75777132        5.87884536       -6.98064458  Ag
            atom        -8.81832891        8.81828825       -6.98064458  Ag
            atom        -5.87888602        8.81828825       -6.98064458  Ag
            atom        -2.93944313        8.81828825       -6.98064458  Ag
            atom        -0.00000024        8.81828825       -6.98064458  Ag
            atom         2.93944265        8.81828825       -6.98064458  Ag
            atom         5.87888554        8.81828825       -6.98064458  Ag
            atom         8.81832843        8.81828825       -6.98064458  Ag
            atom        11.75777132        8.81828825       -6.98064458  Ag
            atom        -7.34856687      -10.28693978       -4.98262062  Ag
            atom        -4.41071277      -10.28777214       -4.98681698  Ag
            atom        -1.46821682      -10.28742240       -4.98611033  Ag
            atom         1.47166044      -10.28885130       -4.98672182  Ag
            atom         4.40789377      -10.28766013       -4.98272201  Ag
            atom         7.34897539      -10.28764682       -4.98374714  Ag
            atom        10.28860166      -10.28815621       -4.98290509  Ag
            atom        13.22690017      -10.28894994       -4.98340178  Ag
            atom        -7.34740964       -7.34944191       -4.98475084  Ag
            atom        -4.40525638       -7.34557818       -4.98205354  Ag
            atom        -1.47031806       -7.33951323       -4.97765130  Ag
            atom         1.46723542       -7.34444329       -4.98216201  Ag
            atom         4.40825848       -7.34633536       -4.98536448  Ag
            atom         7.34790828       -7.34726851       -4.98480976  Ag
            atom        10.28678071       -7.34964580       -4.98321119  Ag
            atom        13.22815277       -7.34930683       -4.98317122  Ag
            atom        -7.34781954       -4.40967282       -4.98616545  Ag
            atom        -4.40763636       -4.41176334       -4.98557816  Ag
            atom        -1.47459133       -4.41912433       -4.97789009  Ag
            atom         1.46972401       -4.41681211       -4.99051572  Ag
            atom         4.41275331       -4.40293241       -4.97899583  Ag
            atom         7.34193622       -4.40332103       -4.98052701  Ag
            atom        10.28831070       -4.41271827       -4.98843399  Ag
            atom        13.22876491       -4.40943514       -4.98362017  Ag
            atom        -7.34255183       -1.46512189       -4.98236659  Ag
            atom        -4.42067202       -1.46347457       -4.98817382  Ag
            atom        -1.47180421       -1.47129642       -5.00317747  Ag
            atom         1.47461072       -1.46976119       -5.00073690  Ag
            atom         4.42462281       -1.47669560       -4.96918044  Ag
            atom         7.33380293       -1.47222578       -4.97142651  Ag
            atom        10.28730387       -1.46907682       -4.98996941  Ag
            atom        13.22701269       -1.47326121       -4.98860675  Ag
            atom        -7.33380461        1.47214575       -4.97142730  Ag
            atom        -4.42462310        1.47661449       -4.96918081  Ag
            atom        -1.47461353        1.46967909       -5.00073593  Ag
            atom         1.47180348        1.47121556       -5.00317732  Ag
            atom         4.42067225        1.46339355       -4.98817436  Ag
            atom         7.34255040        1.46504091       -4.98236643  Ag
            atom        10.28853024        1.47317925       -4.98860590  Ag
            atom        13.22823757        1.46899584       -4.98997003  Ag
            atom        -7.34193689        4.40324073       -4.98052816  Ag
            atom        -4.41275494        4.40285195       -4.97899556  Ag
            atom        -1.46972341        4.41672980       -4.99051516  Ag
            atom         1.47459025        4.41904301       -4.97788799  Ag
            atom         4.40763575        4.41168267       -4.98557765  Ag
            atom         7.34781539        4.40959205       -4.98616500  Ag
            atom        10.28677781        4.40935463       -4.98362013  Ag
            atom        13.22723092        4.41263676       -4.98843523  Ag
            atom        -7.34790889        7.34718693       -4.98481041  Ag
            atom        -4.40826010        7.34625337       -4.98536522  Ag
            atom        -1.46723497        7.34436296       -4.98216186  Ag
            atom         1.47031781        7.33943217       -4.97765014  Ag
            atom         4.40525546        7.34549443       -4.98205464  Ag
            atom         7.34740940        7.34936098       -4.98475087  Ag
            atom        10.28738818        7.34922637       -4.98317069  Ag
            atom        13.22876213        7.34956291       -4.98321086  Ag
            atom        -7.34897706       10.28756501       -4.98374734  Ag
            atom        -4.40789390       10.28757862       -4.98272164  Ag
            atom        -1.47166089       10.28876913       -4.98672145  Ag
            atom         1.46821500       10.28734049       -4.98611094  Ag
            atom         4.41071326       10.28769119       -4.98681747  Ag
            atom         7.34856451       10.28685765       -4.98262136  Ag
            atom        10.28864228       10.28886768       -4.98340273  Ag
            atom        13.22694032       10.28807516       -4.98290426  Ag
            atom        -8.81858454      -11.75759310       -3.00997906  Ag
            atom        -5.87775039      -11.75736714       -3.01410515  Ag
            atom        -2.93718360      -11.75908366       -3.01169326  Ag
            atom        -0.00000050      -11.75781442       -3.00718591  Ag
            atom         2.93718329      -11.75654293       -3.01169254  Ag
            atom         5.87774932      -11.75825980       -3.01410516  Ag
            atom         8.81858260      -11.75803455       -3.00997825  Ag
            atom        11.75776849      -11.75781372       -3.00536805  Ag
            atom        -8.81670671       -8.81826227       -3.00997098  Ag
            atom        -5.87272460       -8.81226802       -3.00951922  Ag
            atom        -2.93531734       -8.82223973       -3.01686510  Ag
            atom         0.00197474       -8.82255855       -3.02072365  Ag
            atom         2.93512216       -8.81165120       -3.01108590  Ag
            atom         5.87607346       -8.81626352       -3.01154845  Ag
            atom         8.81646668       -8.81587291       -3.01058865  Ag
            atom        11.75836859       -8.81961396       -3.00977359  Ag
            atom        -8.81652434       -5.87781209       -3.01165571  Ag
            atom        -5.88133444       -5.87738889       -3.00663188  Ag
            atom        -2.95420875       -5.87457061       -3.00132495  Ag
            atom         0.01306152       -5.87120090       -3.00678720  Ag
            atom         2.94489742       -5.87554099       -3.00478404  Ag
            atom         5.87678897       -5.88628695       -3.00497622  Ag
            atom         8.81216858       -5.87221123       -3.01104189  Ag
            atom        11.75560173       -5.87843413       -3.01466275  Ag
            atom        -8.81153636       -2.93509823       -3.01360393  Ag
            atom        -5.87594434       -2.95022286       -3.00855316  Ag
            atom        -2.95057147       -2.92554094       -3.03667909  Ag
            atom        -0.00323702       -2.91799133       -3.06666355  Ag
            atom         2.91958590       -2.94544025       -3.03055645  Ag
            atom         5.88112800       -2.96631644       -2.97964121  Ag
            atom         8.83095427       -2.93684185       -3.02205557  Ag
            atom        11.76056443       -2.93704464       -3.01353742  Ag
            atom        -8.82764267       -0.00277765       -3.02733949  Ag
            atom        -5.87709999       -0.01924593       -2.99160973  Ag
            atom        -2.92177635       -0.00164081       -3.06315720  Ag
            atom        -0.00000114       -0.00004115       -3.01384935  Ag
            atom         2.92177341        0.00155813       -3.06316039  Ag
            atom         5.87709936        0.01916724       -2.99160840  Ag
            atom         8.82764249        0.00269661       -3.02734044  Ag
            atom        11.75776914       -0.00004048       -3.01110937  Ag
            atom        -8.83095686        2.93676041       -3.02205502  Ag
            atom        -5.88113061        2.96623558       -2.97964143  Ag
            atom        -2.91958789        2.94535589       -3.03055744  Ag
            atom         0.00323534        2.91790878       -3.06666331  Ag
            atom         2.95057056        2.92545881       -3.03667918  Ag
            atom         5.87594405        2.95014382       -3.00855423  Ag
            atom         8.81153501        2.93501705       -3.01360267  Ag
            atom        11.75497515        2.93696326       -3.01353778  Ag
            atom        -8.81216955        5.87212981       -3.01104145  Ag
            atom        -5.87679010        5.88620492       -3.00497733  Ag
            atom        -2.94489830        5.87545838       -3.00478260  Ag
            atom        -0.01306226        5.87111821       -3.00678684  Ag
            atom         2.95420959        5.87449052       -3.00132517  Ag
            atom         5.88133461        5.87730773       -3.00663270  Ag
            atom         8.81652375        5.87773069       -3.01165604  Ag
            atom        11.75993854        5.87835266       -3.01466278  Ag
            atom        -8.81646855        8.81579002       -3.01058817  Ag
            atom        -5.87607434        8.81618191       -3.01154791  Ag
            atom        -2.93512206        8.81157001       -3.01108561  Ag
            atom        -0.00197569        8.82247693       -3.02072558  Ag
            atom         2.93531684        8.82215964       -3.01686748  Ag
            atom         5.87272383        8.81218677       -3.00951902  Ag
            atom         8.81670534        8.81817898       -3.00997082  Ag
            atom        11.75717159        8.81953231       -3.00977329  Ag

  Fractional coordinates:
                         L1                L2                L3
       atom_frac        -0.16210502        0.07936031       -0.00028934  C
       atom_frac        -0.10067721        0.07954277        0.00057437  C
       atom_frac        -0.01258623        0.12766087        0.00099875  C
       atom_frac         0.02153909        0.17984219        0.00072085  C
       atom_frac        -0.17925136        0.02118537       -0.00052090  C
       atom_frac        -0.12777014       -0.01243746        0.00026234  C
       atom_frac        -0.07964948       -0.10054507        0.00100498  C
       atom_frac        -0.07916747       -0.16295101        0.00077491  C
       atom_frac        -0.06893787        0.12739040        0.00075946  N
       atom_frac        -0.12687146       -0.06989486        0.00052089  N
       atom_frac         0.07916988        0.16295031        0.00077474  C
       atom_frac         0.07965192        0.10054437        0.00100477  C
       atom_frac         0.12777254        0.01243688        0.00026217  C
       atom_frac         0.17925376       -0.02118603       -0.00052096  C
       atom_frac         0.10067957       -0.07954329        0.00057434  C
       atom_frac         0.16210739       -0.07936091       -0.00028929  C
       atom_frac        -0.02153666       -0.17984294        0.00072091  C
       atom_frac         0.01258873       -0.12766167        0.00099881  C
       atom_frac         0.12687398        0.06989428        0.00052065  N
       atom_frac         0.06894035       -0.12739100        0.00075946  N
       atom_frac        -0.08188435        0.02410391        0.00089845  N
       atom_frac         0.02403108        0.08157489        0.00122643  N
       atom_frac         0.08188668       -0.02410436        0.00089829  N
       atom_frac        -0.02402857       -0.08157572        0.00122658  N
       atom_frac         0.00635214        0.23733406        0.00002108  C
       atom_frac         0.00000081       -0.00000067       -0.00033537  Zn
       atom_frac         0.12291739        0.20314084        0.00015967  C
       atom_frac         0.05019107        0.27760053       -0.00054418  C
       atom_frac         0.10782444        0.26074881       -0.00054527  C
       atom_frac        -0.03825595        0.25007866        0.00016522  H
       atom_frac         0.16734850        0.18981912        0.00019457  H
       atom_frac         0.14098304        0.29320332       -0.00078978  H
       atom_frac         0.03987963        0.32278009       -0.00101862  H
       atom_frac         0.23712288       -0.00650563       -0.00137299  C
       atom_frac         0.20248904       -0.12326981       -0.00096122  C
       atom_frac         0.27706938       -0.05046877       -0.00197016  C
       atom_frac         0.25997637       -0.10843777       -0.00187739  C
       atom_frac         0.25028925        0.03797642       -0.00106695  H
       atom_frac         0.18918772       -0.16768574       -0.00059785  H
       atom_frac         0.29240630       -0.14163324       -0.00187901  H
       atom_frac         0.32232933       -0.04042379       -0.00233659  H
       atom_frac        -0.23712045        0.00650490       -0.00137295  C
       atom_frac        -0.20248671        0.12326913       -0.00096139  C
       atom_frac        -0.27706697        0.05046796       -0.00197027  C
       atom_frac        -0.25997402        0.10843701       -0.00187760  C
       atom_frac        -0.25028678       -0.03797715       -0.00106683  H
       atom_frac        -0.18918547        0.16768510       -0.00059808  H
       atom_frac        -0.29240398        0.14163246       -0.00187928  H
       atom_frac        -0.32232691        0.04042295       -0.00233671  H
       atom_frac        -0.00634980       -0.23733482        0.00002108  C
       atom_frac        -0.12291501       -0.20314151        0.00015988  C
       atom_frac        -0.05018878       -0.27760124       -0.00054416  C
       atom_frac        -0.10782214       -0.26074947       -0.00054514  C
       atom_frac         0.03825828       -0.25007947        0.00016514  H
       atom_frac        -0.16734611       -0.18981975        0.00019484  H
       atom_frac        -0.14098077       -0.29320395       -0.00078963  H
       atom_frac        -0.03987741       -0.32278081       -0.00101863  H
       atom_frac        -0.31250001       -0.43750172       -0.08527417  Ag
       atom_frac        -0.18750001       -0.43750172       -0.08527417  Ag
       atom_frac        -0.06250001       -0.43750172       -0.08527417  Ag
       atom_frac         0.06249999       -0.43750172       -0.08527417  Ag
       atom_frac         0.18749999       -0.43750172       -0.08527417  Ag
       atom_frac         0.31249999       -0.43750172       -0.08527417  Ag
       atom_frac         0.43749999       -0.43750172       -0.08527417  Ag
       atom_frac         0.56249999       -0.43750172       -0.08527417  Ag
       atom_frac        -0.31250001       -0.31250172       -0.08527417  Ag
       atom_frac        -0.18750001       -0.31250172       -0.08527417  Ag
       atom_frac        -0.06250001       -0.31250172       -0.08527417  Ag
       atom_frac         0.06249999       -0.31250172       -0.08527417  Ag
       atom_frac         0.18749999       -0.31250172       -0.08527417  Ag
       atom_frac         0.31249999       -0.31250172       -0.08527417  Ag
       atom_frac         0.43749999       -0.31250172       -0.08527417  Ag
       atom_frac         0.56249999       -0.31250172       -0.08527417  Ag
       atom_frac        -0.31250001       -0.18750172       -0.08527417  Ag
       atom_frac        -0.18750001       -0.18750172       -0.08527417  Ag
       atom_frac        -0.06250001       -0.18750172       -0.08527417  Ag
       atom_frac         0.06249999       -0.18750172       -0.08527417  Ag
       atom_frac         0.18749999       -0.18750172       -0.08527417  Ag
       atom_frac         0.31249999       -0.18750172       -0.08527417  Ag
       atom_frac         0.43749999       -0.18750172       -0.08527417  Ag
       atom_frac         0.56249999       -0.18750172       -0.08527417  Ag
       atom_frac        -0.31250001       -0.06250172       -0.08527417  Ag
       atom_frac        -0.18750001       -0.06250172       -0.08527417  Ag
       atom_frac        -0.06250001       -0.06250172       -0.08527417  Ag
       atom_frac         0.06249999       -0.06250172       -0.08527417  Ag
       atom_frac         0.18749999       -0.06250172       -0.08527417  Ag
       atom_frac         0.31249999       -0.06250172       -0.08527417  Ag
       atom_frac         0.43749999       -0.06250172       -0.08527417  Ag
       atom_frac         0.56249999       -0.06250172       -0.08527417  Ag
       atom_frac        -0.31250001        0.06249828       -0.08527417  Ag
       atom_frac        -0.18750001        0.06249828       -0.08527417  Ag
       atom_frac        -0.06250001        0.06249828       -0.08527417  Ag
       atom_frac         0.06249999        0.06249828       -0.08527417  Ag
       atom_frac         0.18749999        0.06249828       -0.08527417  Ag
       atom_frac         0.31249999        0.06249828       -0.08527417  Ag
       atom_frac         0.43749999        0.06249828       -0.08527417  Ag
       atom_frac         0.56249999        0.06249828       -0.08527417  Ag
       atom_frac        -0.31250001        0.18749828       -0.08527417  Ag
       atom_frac        -0.18750001        0.18749828       -0.08527417  Ag
       atom_frac        -0.06250001        0.18749828       -0.08527417  Ag
       atom_frac         0.06249999        0.18749828       -0.08527417  Ag
       atom_frac         0.18749999        0.18749828       -0.08527417  Ag
       atom_frac         0.31249999        0.18749828       -0.08527417  Ag
       atom_frac         0.43749999        0.18749828       -0.08527417  Ag
       atom_frac         0.56249999        0.18749828       -0.08527417  Ag
       atom_frac        -0.31250001        0.31249828       -0.08527417  Ag
       atom_frac        -0.18750001        0.31249828       -0.08527417  Ag
       atom_frac        -0.06250001        0.31249828       -0.08527417  Ag
       atom_frac         0.06249999        0.31249828       -0.08527417  Ag
       atom_frac         0.18749999        0.31249828       -0.08527417  Ag
       atom_frac         0.31249999        0.31249828       -0.08527417  Ag
       atom_frac         0.43749999        0.31249828       -0.08527417  Ag
       atom_frac         0.56249999        0.31249828       -0.08527417  Ag
       atom_frac        -0.31250001        0.43749828       -0.08527417  Ag
       atom_frac        -0.18750001        0.43749828       -0.08527417  Ag
       atom_frac        -0.06250001        0.43749828       -0.08527417  Ag
       atom_frac         0.06249999        0.43749828       -0.08527417  Ag
       atom_frac         0.18749999        0.43749828       -0.08527417  Ag
       atom_frac         0.31249999        0.43749828       -0.08527417  Ag
       atom_frac         0.43749999        0.43749828       -0.08527417  Ag
       atom_frac         0.56249999        0.43749828       -0.08527417  Ag
       atom_frac        -0.37500001       -0.50000172       -0.06570915  Ag
       atom_frac        -0.25000001       -0.50000172       -0.06570915  Ag
       atom_frac        -0.12500001       -0.50000172       -0.06570915  Ag
       atom_frac        -0.00000001       -0.50000172       -0.06570915  Ag
       atom_frac         0.12499999       -0.50000172       -0.06570915  Ag
       atom_frac         0.24999999       -0.50000172       -0.06570915  Ag
       atom_frac         0.37499999       -0.50000172       -0.06570915  Ag
       atom_frac         0.49999999       -0.50000172       -0.06570915  Ag
       atom_frac        -0.37500001       -0.37500172       -0.06570915  Ag
       atom_frac        -0.25000001       -0.37500172       -0.06570915  Ag
       atom_frac        -0.12500001       -0.37500172       -0.06570915  Ag
       atom_frac        -0.00000001       -0.37500172       -0.06570915  Ag
       atom_frac         0.12499999       -0.37500172       -0.06570915  Ag
       atom_frac         0.24999999       -0.37500172       -0.06570915  Ag
       atom_frac         0.37499999       -0.37500172       -0.06570915  Ag
       atom_frac         0.49999999       -0.37500172       -0.06570915  Ag
       atom_frac        -0.37500001       -0.25000172       -0.06570915  Ag
       atom_frac        -0.25000001       -0.25000172       -0.06570915  Ag
       atom_frac        -0.12500001       -0.25000172       -0.06570915  Ag
       atom_frac        -0.00000001       -0.25000172       -0.06570915  Ag
       atom_frac         0.12499999       -0.25000172       -0.06570915  Ag
       atom_frac         0.24999999       -0.25000172       -0.06570915  Ag
       atom_frac         0.37499999       -0.25000172       -0.06570915  Ag
       atom_frac         0.49999999       -0.25000172       -0.06570915  Ag
       atom_frac        -0.37500001       -0.12500172       -0.06570915  Ag
       atom_frac        -0.25000001       -0.12500172       -0.06570915  Ag
       atom_frac        -0.12500001       -0.12500172       -0.06570915  Ag
       atom_frac        -0.00000001       -0.12500172       -0.06570915  Ag
       atom_frac         0.12499999       -0.12500172       -0.06570915  Ag
       atom_frac         0.24999999       -0.12500172       -0.06570915  Ag
       atom_frac         0.37499999       -0.12500172       -0.06570915  Ag
       atom_frac         0.49999999       -0.12500172       -0.06570915  Ag
       atom_frac        -0.37500001       -0.00000172       -0.06570915  Ag
       atom_frac        -0.25000001       -0.00000172       -0.06570915  Ag
       atom_frac        -0.12500001       -0.00000172       -0.06570915  Ag
       atom_frac        -0.00000001       -0.00000172       -0.06570915  Ag
       atom_frac         0.12499999       -0.00000172       -0.06570915  Ag
       atom_frac         0.24999999       -0.00000172       -0.06570915  Ag
       atom_frac         0.37499999       -0.00000172       -0.06570915  Ag
       atom_frac         0.49999999       -0.00000172       -0.06570915  Ag
       atom_frac        -0.37500001        0.12499828       -0.06570915  Ag
       atom_frac        -0.25000001        0.12499828       -0.06570915  Ag
       atom_frac        -0.12500001        0.12499828       -0.06570915  Ag
       atom_frac        -0.00000001        0.12499828       -0.06570915  Ag
       atom_frac         0.12499999        0.12499828       -0.06570915  Ag
       atom_frac         0.24999999        0.12499828       -0.06570915  Ag
       atom_frac         0.37499999        0.12499828       -0.06570915  Ag
       atom_frac         0.49999999        0.12499828       -0.06570915  Ag
       atom_frac        -0.37500001        0.24999828       -0.06570915  Ag
       atom_frac        -0.25000001        0.24999828       -0.06570915  Ag
       atom_frac        -0.12500001        0.24999828       -0.06570915  Ag
       atom_frac        -0.00000001        0.24999828       -0.06570915  Ag
       atom_frac         0.12499999        0.24999828       -0.06570915  Ag
       atom_frac         0.24999999        0.24999828       -0.06570915  Ag
       atom_frac         0.37499999        0.24999828       -0.06570915  Ag
       atom_frac         0.49999999        0.24999828       -0.06570915  Ag
       atom_frac        -0.37500001        0.37499828       -0.06570915  Ag
       atom_frac        -0.25000001        0.37499828       -0.06570915  Ag
       atom_frac        -0.12500001        0.37499828       -0.06570915  Ag
       atom_frac        -0.00000001        0.37499828       -0.06570915  Ag
       atom_frac         0.12499999        0.37499828       -0.06570915  Ag
       atom_frac         0.24999999        0.37499828       -0.06570915  Ag
       atom_frac         0.37499999        0.37499828       -0.06570915  Ag
       atom_frac         0.49999999        0.37499828       -0.06570915  Ag
       atom_frac        -0.31249828       -0.43745278       -0.04690165  Ag
       atom_frac        -0.18756585       -0.43748818       -0.04694115  Ag
       atom_frac        -0.06243602       -0.43747331       -0.04693450  Ag
       atom_frac         0.06258246       -0.43753407       -0.04694026  Ag
       atom_frac         0.18744597       -0.43748342       -0.04690261  Ag
       atom_frac         0.31251566       -0.43748285       -0.04691226  Ag
       atom_frac         0.43752345       -0.43750451       -0.04690433  Ag
       atom_frac         0.56247479       -0.43753827       -0.04690901  Ag
       atom_frac        -0.31244907       -0.31253550       -0.04692171  Ag
       atom_frac        -0.18733381       -0.31237119       -0.04689632  Ag
       atom_frac        -0.06252537       -0.31211328       -0.04685488  Ag
       atom_frac         0.06239428       -0.31232293       -0.04689734  Ag
       atom_frac         0.18746148       -0.31240339       -0.04692748  Ag
       atom_frac         0.31247028       -0.31244307       -0.04692226  Ag
       atom_frac         0.43744602       -0.31254417       -0.04690721  Ag
       atom_frac         0.56252806       -0.31252975       -0.04690684  Ag
       atom_frac        -0.31246650       -0.18752162       -0.04693502  Ag
       atom_frac        -0.18743502       -0.18761052       -0.04692949  Ag
       atom_frac        -0.06270709       -0.18792355       -0.04685712  Ag
       atom_frac         0.06250011       -0.18782522       -0.04697597  Ag
       atom_frac         0.18765262       -0.18723499       -0.04686753  Ag
       atom_frac         0.31221631       -0.18725151       -0.04688195  Ag
       atom_frac         0.43751108       -0.18765113       -0.04695638  Ag
       atom_frac         0.56255409       -0.18751152       -0.04691106  Ag
       atom_frac        -0.31224249       -0.06230440       -0.04689926  Ag
       atom_frac        -0.18798937       -0.06223435       -0.04695393  Ag
       atom_frac        -0.06258857       -0.06256698       -0.04709516  Ag
       atom_frac         0.06270792       -0.06250169       -0.04707218  Ag
       atom_frac         0.18815737       -0.06279658       -0.04677514  Ag
       atom_frac         0.31187045       -0.06260650       -0.04679628  Ag
       atom_frac         0.43746827       -0.06247259       -0.04697083  Ag
       atom_frac         0.56247957       -0.06265053       -0.04695800  Ag
       atom_frac        -0.31187052        0.06260309       -0.04679629  Ag
       atom_frac        -0.18815738        0.06279313       -0.04677514  Ag
       atom_frac        -0.06270804        0.06249820       -0.04707217  Ag
       atom_frac         0.06258854        0.06256354       -0.04709515  Ag
       atom_frac         0.18798938        0.06223091       -0.04695393  Ag
       atom_frac         0.31224243        0.06230096       -0.04689926  Ag
       atom_frac         0.43752042        0.06264704       -0.04695799  Ag
       atom_frac         0.56253166        0.06246914       -0.04697083  Ag
       atom_frac        -0.31221634        0.18724810       -0.04688196  Ag
       atom_frac        -0.18765269        0.18723157       -0.04686753  Ag
       atom_frac        -0.06250008        0.18782172       -0.04697597  Ag
       atom_frac         0.06270705        0.18792009       -0.04685711  Ag
       atom_frac         0.18743500        0.18760709       -0.04692949  Ag
       atom_frac         0.31246633        0.18751819       -0.04693502  Ag
       atom_frac         0.43744589        0.18750809       -0.04691106  Ag
       atom_frac         0.56248885        0.18764767       -0.04695639  Ag
       atom_frac        -0.31247030        0.31243960       -0.04692227  Ag
       atom_frac        -0.18746155        0.31239990       -0.04692749  Ag
       atom_frac        -0.06239426        0.31231951       -0.04689734  Ag
       atom_frac         0.06252536        0.31210983       -0.04685487  Ag
       atom_frac         0.18733377        0.31236763       -0.04689633  Ag
       atom_frac         0.31244906        0.31253205       -0.04692171  Ag
       atom_frac         0.43747185        0.31252633       -0.04690683  Ag
       atom_frac         0.56255397        0.31254064       -0.04690721  Ag
       atom_frac        -0.31251573        0.43747937       -0.04691226  Ag
       atom_frac        -0.18744597        0.43747995       -0.04690260  Ag
       atom_frac        -0.06258248        0.43753058       -0.04694025  Ag
       atom_frac         0.06243594        0.43746982       -0.04693451  Ag
       atom_frac         0.18756587        0.43748474       -0.04694116  Ag
       atom_frac         0.31249818        0.43744929       -0.04690166  Ag
       atom_frac         0.43752518        0.43753477       -0.04690902  Ag
       atom_frac         0.56247650        0.43750107       -0.04690432  Ag
       atom_frac        -0.37501088       -0.49999241       -0.02833308  Ag
       atom_frac        -0.24995172       -0.49998280       -0.02837192  Ag
       atom_frac        -0.12490392       -0.50005580       -0.02834922  Ag
       atom_frac        -0.00000002       -0.50000182       -0.02830679  Ag
       atom_frac         0.12490391       -0.49994775       -0.02834921  Ag
       atom_frac         0.24995167       -0.50002076       -0.02837192  Ag
       atom_frac         0.37501080       -0.50001118       -0.02833307  Ag
       atom_frac         0.49999987       -0.50000179       -0.02828968  Ag
       atom_frac        -0.37493103       -0.37499718       -0.02833301  Ag
       atom_frac        -0.24973800       -0.37474227       -0.02832875  Ag
       atom_frac        -0.12482456       -0.37516632       -0.02839790  Ag
       atom_frac         0.00008398       -0.37517988       -0.02843422  Ag
       atom_frac         0.12481626       -0.37471604       -0.02834350  Ag
       atom_frac         0.24988041       -0.37491218       -0.02834785  Ag
       atom_frac         0.37492082       -0.37489557       -0.02833882  Ag
       atom_frac         0.50002539       -0.37505466       -0.02833115  Ag
       atom_frac        -0.37492327       -0.24995434       -0.02834886  Ag
       atom_frac        -0.25010413       -0.24993634       -0.02830157  Ag
       atom_frac        -0.12562792       -0.24981650       -0.02825162  Ag
       atom_frac         0.00055544       -0.24967320       -0.02830304  Ag
       atom_frac         0.12523195       -0.24985776       -0.02828418  Ag
       atom_frac         0.24991083       -0.25031474       -0.02828599  Ag
       atom_frac         0.37473804       -0.24971616       -0.02834309  Ag
       atom_frac         0.49990773       -0.24998079       -0.02837717  Ag
       atom_frac        -0.37471116       -0.12481524       -0.02836720  Ag
       atom_frac        -0.24987492       -0.12545842       -0.02831966  Ag
       atom_frac        -0.12547324       -0.12440882       -0.02858441  Ag
       atom_frac        -0.00013765       -0.12408777       -0.02886666  Ag
       atom_frac         0.12415558       -0.12525504       -0.02852678  Ag
       atom_frac         0.25009535       -0.12614280       -0.02804751  Ag
       atom_frac         0.37553690       -0.12488939       -0.02844676  Ag
       atom_frac         0.50011877       -0.12489801       -0.02836658  Ag
       atom_frac        -0.37539608       -0.00011812       -0.02849650  Ag
       atom_frac        -0.24992406       -0.00081843       -0.02816017  Ag
       atom_frac        -0.12424873       -0.00006978       -0.02883365  Ag
       atom_frac        -0.00000005       -0.00000175       -0.02836951  Ag
       atom_frac         0.12424860        0.00006626       -0.02883368  Ag
       atom_frac         0.24992403        0.00081509       -0.02816016  Ag
       atom_frac         0.37539607        0.00011467       -0.02849650  Ag
       atom_frac         0.49999990       -0.00000172       -0.02834372  Ag
       atom_frac        -0.37553701        0.12488593       -0.02844675  Ag
       atom_frac        -0.25009546        0.12613936       -0.02804751  Ag
       atom_frac        -0.12415567        0.12525145       -0.02852679  Ag
       atom_frac         0.00013758        0.12408426       -0.02886665  Ag
       atom_frac         0.12547321        0.12440533       -0.02858441  Ag
       atom_frac         0.24987490        0.12545506       -0.02831967  Ag
       atom_frac         0.37471110        0.12481179       -0.02836719  Ag
       atom_frac         0.49988108        0.12489455       -0.02836658  Ag
       atom_frac        -0.37473808        0.24971270       -0.02834308  Ag
       atom_frac        -0.24991088        0.25031125       -0.02828600  Ag
       atom_frac        -0.12523199        0.24985425       -0.02828417  Ag
       atom_frac        -0.00055547        0.24966968       -0.02830303  Ag
       atom_frac         0.12562795        0.24981309       -0.02825162  Ag
       atom_frac         0.25010414        0.24993289       -0.02830158  Ag
       atom_frac         0.37492325        0.24995088       -0.02834887  Ag
       atom_frac         0.50009215        0.24997733       -0.02837717  Ag
       atom_frac        -0.37492090        0.37489204       -0.02833881  Ag
       atom_frac        -0.24988044        0.37490871       -0.02834785  Ag
       atom_frac        -0.12481626        0.37471259       -0.02834350  Ag
       atom_frac        -0.00008402        0.37517640       -0.02843424  Ag
       atom_frac         0.12482454        0.37516291       -0.02839792  Ag
       atom_frac         0.24973796        0.37473882       -0.02832875  Ag
       atom_frac         0.37493097        0.37499363       -0.02833300  Ag
       atom_frac         0.49997449        0.37505118       -0.02833114  Ag
------------------------------------------------------------

------------------------------------------------------------------------------
  Final output of selected total energy values:

  The following output summarizes some interesting total energy values
  at the end of a run (AFTER all relaxation, molecular dynamics, etc.).

  | Total energy of the DFT / Hartree-Fock s.c.f. calculation      :      -37569802.276694588 eV
  | Final zero-broadening corrected energy (caution - metals only) :      -37569802.305927485 eV
  | For reference only, the value of 1 Hartree used in FHI-aims is :             27.211384500 eV
  | For reference only, the overall average (free atom contribution
  | + realspace contribution) of the electrostatic potential after
  | s.c.f. convergence is                                          :             -1.868167831 eV

  Before relying on these values, please be sure to understand exactly which
  total energy value is referred to by a given number. Different objects may
  all carry the same name 'total energy'. Definitions:

  Total energy of the DFT / Hartree-Fock s.c.f. calculation:
  | Note that this energy does not include ANY quantities calculated after the
  | s.c.f. cycle, in particular not ANY RPA, MP2, etc. many-body perturbation terms.

  Final zero-broadening corrected energy:
  | For metallic systems only, a broadening of the occupation numbers at the Fermi
  | level can be extrapolated back to zero broadening by an electron-gas inspired
  | formula. For all systems that are not real metals, this value can be
  | meaningless and should be avoided.

------------------------------------------------------------------------------
  Methods described in the following list of references were used in this FHI-aims run.
  If you publish the results, please make sure to cite these reference if they apply.
  FHI-aims is an academic code, and for our developers (often, Ph.D. students
  and postdocs), scientific credit in the community is essential.
  Thank you for helping us!

  For any use of FHI-aims, please cite:

    Volker Blum, Ralf Gehrke, Felix Hanke, Paula Havu, Ville Havu,
    Xinguo Ren, Karsten Reuter, and Matthias Scheffler
    'Ab initio molecular simulations with numeric atom-centered orbitals'
    Computer Physics Communications 180, 2175-2196 (2009)
    http://doi.org/10.1016/j.cpc.2009.06.022


  The provided symmetry information was generated with SPGlib:

    Atsushi Togo, Yusuke Seto, Dimitar Pashov
    SPGlib 1.7.3 obtained from http://spglib.sourceforge.net
    Licence: New BSD license
    Copyright (C) 2008 Atsushi Togo


  The ELSI infrastructure was used in your run to solve the Kohn-Sham electronic structure.
  Please check out https://wordpress.elsi-interchange.org to learn more.
  If scalability is important for your project, please acknowledge ELSI by citing:

    V. W-z. Yu, F. Corsetti, A. Garcia, W. P. Huhn, M. Jacquelin, W. Jia,
    B. Lange, L. Lin, J. Lu, W. Mi, A. Seifitokaldani, A. Vazquez-Mayagoitia,
    C. Yang, H. Yang, and V. Blum
    'ELSI: A unified software interface for Kohn-Sham electronic structure solvers'
    Computer Physics Communications 222, 267-285 (2018).
    http://doi.org/10.1016/j.cpc.2017.09.007


  For the real-space grid partitioning and parallelization used in this calculation, please cite:

    Ville Havu, Volker Blum, Paula Havu, and Matthias Scheffler,
    'Efficient O(N) integration for all-electron electronic structure calculation'
    'using numerically tabulated basis functions'
    Journal of Computational Physics 228, 8367-8379 (2009).
    http://doi.org/10.1016/j.jcp.2009.08.008

  Of course, there are many other important community references, e.g., those cited in the
  above references. Our list is limited to references that describe implementations in the
  FHI-aims code. The reason is purely practical (length of this list) - please credit others as well.
------------------------------------------------------------
Warnings summary:

At least    1 warnings were raised during execution.
** WARNING:
 * A warning was issued further up regarding the accuracy of onsite integrals.
   An integral with a negative eigenvalue was among the flagged integrals.
   In most standard situations, this warning is probably harmless.
   If needed, this can be verified by adjusting the radial_multiplier flag.
** END OF WARNING
** WARNING:
 * A warning was issued further up regarding the speed of the s.c.f. convergence.
   One or more s.c.f. cycles took more than 50 s.c.f. iterations.
   It might be worth adjusting your convergence settings. For example,
   metals need a larger broadening and a smaller "charge_mix_param" value than semiconduct
ors.
** END OF WARNING

------------------------------------------------------------
          Leaving FHI-aims.
          Date     :  20260304, Time     :  140833.157

          Computational steps:
          | Number of self-consistency cycles          :          139
          | Number of SCF (re)initializations          :            2
          | Number of relaxation steps                 :            1

          Detailed time accounting                     :  max(cpu_time)    wall_clock(cpu1)
          | Total time                                  :     1289.847 s        1300.193 s
          | Preparation time                            :        0.488 s           0.494 s
          | Boundary condition initalization            :        0.182 s           0.183 s
          | Grid partitioning                           :        2.074 s           2.084 s
          | Preloading free-atom quantities on grid     :        0.986 s           0.991 s
          | Free-atom superposition energy              :        0.127 s           0.127 s
          | Total time for integrations                 :      160.840 s         161.845 s
          | Total time for solution of K.-S. equations  :      579.324 s         583.420 s
          | Total time for EV reorthonormalization      :        1.782 s           1.816 s
          | Total time for density & force components   :      351.574 s         353.687 s
          | Total time for mixing & preconditioning     :      111.169 s         109.174 s
          | Total time for Hartree multipole update     :        2.579 s           2.615 s
          | Total time for Hartree multipole sum        :       65.254 s          65.620 s
          | Total time for total energy evaluation      :        0.044 s           0.243 s
          | Total time NSC force correction             :        2.856 s           2.870 s
          | Total time for scaled ZORA corrections      :        0.000 s           0.000 s
          | Total time for vdW-like corrections         :        4.500 s           4.483 s

          Partial memory accounting:
          | Residual value for overall tracked memory usage across tasks:     0.000000 MB (should be 0.000000 MB)
          | Peak values for overall tracked memory usage:
          |   Minimum:       32.639 MB (on task 125 after allocating d_wave)
          |   Maximum:       67.949 MB (on task 104 after allocating d_wave)
          |   Average:       56.111 MB
          | Largest tracked array allocation:
          |   Minimum:        3.527 MB (ovlp on task 247)
          |   Maximum:       11.248 MB (ham_ovlp_work on task 104)
          |   Average:        7.098 MB
          Note:  These values currently only include a subset of arrays which are explicitly tracked.
          The "true" memory usage will be greater.

          Have a nice day.
------------------------------------------------------------
