#===============================================================================
# Created using the Atomic Simulation Environment (ASE)

# Thu May 21 18:39:44 2026

#=======================================================
lattice_vector 23.0233967954339889 0.0000000000000000 0.0000000000000000 
lattice_vector 11.5116983977169944 19.9388465062550679 0.0000000000000000 
lattice_vector 0.0000000000000000 0.0000000000000000 107.0494467868053334 
atom -15.8300000000000001 -9.1400000000000006 -10.0490000000000066 Ag
constrain_relaxation .true.
atom -12.9520754005707524 -9.1400000000000006 -10.0490000000000066 Ag
constrain_relaxation .true.
atom -10.0741508011415029 -9.1400000000000006 -10.0490000000000066 Ag
constrain_relaxation .true.
atom -7.1962262017122551 -9.1400000000000006 -10.0490000000000066 Ag
constrain_relaxation .true.
atom -4.3183016022830056 -9.1400000000000006 -10.0490000000000066 Ag
constrain_relaxation .true.
atom -1.4403770028537561 -9.1400000000000006 -10.0490000000000066 Ag
constrain_relaxation .true.
atom 1.4375475965754898 -9.1400000000000006 -10.0490000000000066 Ag
constrain_relaxation .true.
atom 4.3154721960047393 -9.1400000000000006 -10.0490000000000066 Ag
constrain_relaxation .true.
atom -14.3910377002853753 -6.6476441867181171 -10.0490000000000066 Ag
constrain_relaxation .true.
atom -11.5131131008561276 -6.6476441867181171 -10.0490000000000066 Ag
constrain_relaxation .true.
atom -8.6351885014268781 -6.6476441867181171 -10.0490000000000066 Ag
constrain_relaxation .true.
atom -5.7572639019976304 -6.6476441867181171 -10.0490000000000066 Ag
constrain_relaxation .true.
atom -2.8793393025683809 -6.6476441867181171 -10.0490000000000066 Ag
constrain_relaxation .true.
atom -0.0014147031391314 -6.6476441867181171 -10.0490000000000066 Ag
constrain_relaxation .true.
atom 2.8765098962901146 -6.6476441867181171 -10.0490000000000066 Ag
constrain_relaxation .true.
atom 5.7544344957193641 -6.6476441867181171 -10.0490000000000066 Ag
constrain_relaxation .true.
atom -12.9520754005707524 -4.1552883734362336 -10.0490000000000066 Ag
constrain_relaxation .true.
atom -10.0741508011415029 -4.1552883734362336 -10.0490000000000066 Ag
constrain_relaxation .true.
atom -7.1962262017122551 -4.1552883734362336 -10.0490000000000066 Ag
constrain_relaxation .true.
atom -4.3183016022830056 -4.1552883734362336 -10.0490000000000066 Ag
constrain_relaxation .true.
atom -1.4403770028537561 -4.1552883734362336 -10.0490000000000066 Ag
constrain_relaxation .true.
atom 1.4375475965754934 -4.1552883734362336 -10.0490000000000066 Ag
constrain_relaxation .true.
atom 4.3154721960047393 -4.1552883734362336 -10.0490000000000066 Ag
constrain_relaxation .true.
atom 7.1933967954339888 -4.1552883734362336 -10.0490000000000066 Ag
constrain_relaxation .true.
atom -11.5131131008561276 -1.6629325601543501 -10.0490000000000066 Ag
constrain_relaxation .true.
atom -8.6351885014268781 -1.6629325601543501 -10.0490000000000066 Ag
constrain_relaxation .true.
atom -5.7572639019976304 -1.6629325601543501 -10.0490000000000066 Ag
constrain_relaxation .true.
atom -2.8793393025683827 -1.6629325601543501 -10.0490000000000066 Ag
constrain_relaxation .true.
atom -0.0014147031391332 -1.6629325601543501 -10.0490000000000066 Ag
constrain_relaxation .true.
atom 2.8765098962901181 -1.6629325601543501 -10.0490000000000066 Ag
constrain_relaxation .true.
atom 5.7544344957193641 -1.6629325601543501 -10.0490000000000066 Ag
constrain_relaxation .true.
atom 8.6323590951486135 -1.6629325601543501 -10.0490000000000066 Ag
constrain_relaxation .true.
atom -10.0741508011415029 0.8294232531275334 -10.0490000000000066 Ag
constrain_relaxation .true.
atom -7.1962262017122551 0.8294232531275334 -10.0490000000000066 Ag
constrain_relaxation .true.
atom -4.3183016022830056 0.8294232531275334 -10.0490000000000066 Ag
constrain_relaxation .true.
atom -1.4403770028537579 0.8294232531275334 -10.0490000000000066 Ag
constrain_relaxation .true.
atom 1.4375475965754898 0.8294232531275334 -10.0490000000000066 Ag
constrain_relaxation .true.
atom 4.3154721960047393 0.8294232531275334 -10.0490000000000066 Ag
constrain_relaxation .true.
atom 7.1933967954339888 0.8294232531275334 -10.0490000000000066 Ag
constrain_relaxation .true.
atom 10.0713213948632383 0.8294232531275334 -10.0490000000000066 Ag
constrain_relaxation .true.
atom -8.6351885014268781 3.3217790664094160 -10.0490000000000066 Ag
constrain_relaxation .true.
atom -5.7572639019976304 3.3217790664094160 -10.0490000000000066 Ag
constrain_relaxation .true.
atom -2.8793393025683809 3.3217790664094160 -10.0490000000000066 Ag
constrain_relaxation .true.
atom -0.0014147031391332 3.3217790664094160 -10.0490000000000066 Ag
constrain_relaxation .true.
atom 2.8765098962901146 3.3217790664094160 -10.0490000000000066 Ag
constrain_relaxation .true.
atom 5.7544344957193641 3.3217790664094160 -10.0490000000000066 Ag
constrain_relaxation .true.
atom 8.6323590951486100 3.3217790664094160 -10.0490000000000066 Ag
constrain_relaxation .true.
atom 11.5102836945778595 3.3217790664094160 -10.0490000000000066 Ag
constrain_relaxation .true.
atom -7.1962262017122551 5.8141348796913004 -10.0490000000000066 Ag
constrain_relaxation .true.
atom -4.3183016022830056 5.8141348796913004 -10.0490000000000066 Ag
constrain_relaxation .true.
atom -1.4403770028537561 5.8141348796913004 -10.0490000000000066 Ag
constrain_relaxation .true.
atom 1.4375475965754898 5.8141348796913004 -10.0490000000000066 Ag
constrain_relaxation .true.
atom 4.3154721960047393 5.8141348796913004 -10.0490000000000066 Ag
constrain_relaxation .true.
atom 7.1933967954339888 5.8141348796913004 -10.0490000000000066 Ag
constrain_relaxation .true.
atom 10.0713213948632347 5.8141348796913004 -10.0490000000000066 Ag
constrain_relaxation .true.
atom 12.9492459942924842 5.8141348796913004 -10.0490000000000066 Ag
constrain_relaxation .true.
atom -5.7572639019976304 8.3064906929731848 -10.0490000000000066 Ag
constrain_relaxation .true.
atom -2.8793393025683809 8.3064906929731848 -10.0490000000000066 Ag
constrain_relaxation .true.
atom -0.0014147031391332 8.3064906929731848 -10.0490000000000066 Ag
constrain_relaxation .true.
atom 2.8765098962901146 8.3064906929731848 -10.0490000000000066 Ag
constrain_relaxation .true.
atom 5.7544344957193641 8.3064906929731848 -10.0490000000000066 Ag
constrain_relaxation .true.
atom 8.6323590951486135 8.3064906929731848 -10.0490000000000066 Ag
constrain_relaxation .true.
atom 11.5102836945778595 8.3064906929731848 -10.0490000000000066 Ag
constrain_relaxation .true.
atom 14.3882082940071090 8.3064906929731848 -10.0490000000000066 Ag
constrain_relaxation .true.
atom -14.3910377002853753 -8.3092147289060385 -7.6991844043982240 Ag
constrain_relaxation .true.
atom -11.5131131008561276 -8.3092147289060385 -7.6991844043982240 Ag
constrain_relaxation .true.
atom -8.6351885014268781 -8.3092147289060385 -7.6991844043982240 Ag
constrain_relaxation .true.
atom -5.7572639019976286 -8.3092147289060385 -7.6991844043982240 Ag
constrain_relaxation .true.
atom -2.8793393025683809 -8.3092147289060385 -7.6991844043982240 Ag
constrain_relaxation .true.
atom -0.0014147031391332 -8.3092147289060385 -7.6991844043982240 Ag
constrain_relaxation .true.
atom 2.8765098962901146 -8.3092147289060385 -7.6991844043982240 Ag
constrain_relaxation .true.
atom 5.7544344957193641 -8.3092147289060385 -7.6991844043982240 Ag
constrain_relaxation .true.
atom -12.9520754005707524 -5.8168589156241559 -7.6991844043982240 Ag
constrain_relaxation .true.
atom -10.0741508011415029 -5.8168589156241559 -7.6991844043982240 Ag
constrain_relaxation .true.
atom -7.1962262017122534 -5.8168589156241559 -7.6991844043982240 Ag
constrain_relaxation .true.
atom -4.3183016022830056 -5.8168589156241559 -7.6991844043982240 Ag
constrain_relaxation .true.
atom -1.4403770028537579 -5.8168589156241559 -7.6991844043982240 Ag
constrain_relaxation .true.
atom 1.4375475965754898 -5.8168589156241559 -7.6991844043982240 Ag
constrain_relaxation .true.
atom 4.3154721960047393 -5.8168589156241559 -7.6991844043982240 Ag
constrain_relaxation .true.
atom 7.1933967954339888 -5.8168589156241559 -7.6991844043982240 Ag
constrain_relaxation .true.
atom -11.5131131008561276 -3.3245031023422724 -7.6991844043982240 Ag
constrain_relaxation .true.
atom -8.6351885014268781 -3.3245031023422724 -7.6991844043982240 Ag
constrain_relaxation .true.
atom -5.7572639019976286 -3.3245031023422724 -7.6991844043982240 Ag
constrain_relaxation .true.
atom -2.8793393025683809 -3.3245031023422724 -7.6991844043982240 Ag
constrain_relaxation .true.
atom -0.0014147031391332 -3.3245031023422724 -7.6991844043982240 Ag
constrain_relaxation .true.
atom 2.8765098962901146 -3.3245031023422724 -7.6991844043982240 Ag
constrain_relaxation .true.
atom 5.7544344957193641 -3.3245031023422724 -7.6991844043982240 Ag
constrain_relaxation .true.
atom 8.6323590951486135 -3.3245031023422724 -7.6991844043982240 Ag
constrain_relaxation .true.
atom -10.0741508011415029 -0.8321472890603889 -7.6991844043982240 Ag
constrain_relaxation .true.
atom -7.1962262017122551 -0.8321472890603889 -7.6991844043982240 Ag
constrain_relaxation .true.
atom -4.3183016022830056 -0.8321472890603889 -7.6991844043982240 Ag
constrain_relaxation .true.
atom -1.4403770028537561 -0.8321472890603889 -7.6991844043982240 Ag
constrain_relaxation .true.
atom 1.4375475965754898 -0.8321472890603889 -7.6991844043982240 Ag
constrain_relaxation .true.
atom 4.3154721960047393 -0.8321472890603889 -7.6991844043982240 Ag
constrain_relaxation .true.
atom 7.1933967954339888 -0.8321472890603889 -7.6991844043982240 Ag
constrain_relaxation .true.
atom 10.0713213948632383 -0.8321472890603889 -7.6991844043982240 Ag
constrain_relaxation .true.
atom -8.6351885014268781 1.6602085242214937 -7.6991844043982240 Ag
constrain_relaxation .true.
atom -5.7572639019976304 1.6602085242214937 -7.6991844043982240 Ag
constrain_relaxation .true.
atom -2.8793393025683809 1.6602085242214937 -7.6991844043982240 Ag
constrain_relaxation .true.
atom -0.0014147031391332 1.6602085242214937 -7.6991844043982240 Ag
constrain_relaxation .true.
atom 2.8765098962901146 1.6602085242214937 -7.6991844043982240 Ag
constrain_relaxation .true.
atom 5.7544344957193641 1.6602085242214937 -7.6991844043982240 Ag
constrain_relaxation .true.
atom 8.6323590951486135 1.6602085242214937 -7.6991844043982240 Ag
constrain_relaxation .true.
atom 11.5102836945778630 1.6602085242214937 -7.6991844043982240 Ag
constrain_relaxation .true.
atom -7.1962262017122551 4.1525643375033781 -7.6991844043982240 Ag
constrain_relaxation .true.
atom -4.3183016022830056 4.1525643375033781 -7.6991844043982240 Ag
constrain_relaxation .true.
atom -1.4403770028537561 4.1525643375033781 -7.6991844043982240 Ag
constrain_relaxation .true.
atom 1.4375475965754934 4.1525643375033781 -7.6991844043982240 Ag
constrain_relaxation .true.
atom 4.3154721960047393 4.1525643375033781 -7.6991844043982240 Ag
constrain_relaxation .true.
atom 7.1933967954339888 4.1525643375033781 -7.6991844043982240 Ag
constrain_relaxation .true.
atom 10.0713213948632383 4.1525643375033781 -7.6991844043982240 Ag
constrain_relaxation .true.
atom 12.9492459942924878 4.1525643375033781 -7.6991844043982240 Ag
constrain_relaxation .true.
atom -5.7572639019976304 6.6449201507852607 -7.6991844043982240 Ag
constrain_relaxation .true.
atom -2.8793393025683827 6.6449201507852607 -7.6991844043982240 Ag
constrain_relaxation .true.
atom -0.0014147031391332 6.6449201507852607 -7.6991844043982240 Ag
constrain_relaxation .true.
atom 2.8765098962901146 6.6449201507852607 -7.6991844043982240 Ag
constrain_relaxation .true.
atom 5.7544344957193641 6.6449201507852607 -7.6991844043982240 Ag
constrain_relaxation .true.
atom 8.6323590951486100 6.6449201507852607 -7.6991844043982240 Ag
constrain_relaxation .true.
atom 11.5102836945778595 6.6449201507852607 -7.6991844043982240 Ag
constrain_relaxation .true.
atom 14.3882082940071090 6.6449201507852607 -7.6991844043982240 Ag
constrain_relaxation .true.
atom -4.3183016022830056 9.1372759640671433 -7.6991844043982240 Ag
constrain_relaxation .true.
atom -1.4403770028537579 9.1372759640671433 -7.6991844043982240 Ag
constrain_relaxation .true.
atom 1.4375475965754934 9.1372759640671433 -7.6991844043982240 Ag
constrain_relaxation .true.
atom 4.3154721960047393 9.1372759640671433 -7.6991844043982240 Ag
constrain_relaxation .true.
atom 7.1933967954339888 9.1372759640671433 -7.6991844043982240 Ag
constrain_relaxation .true.
atom 10.0713213948632347 9.1372759640671433 -7.6991844043982240 Ag
constrain_relaxation .true.
atom 12.9492459942924842 9.1372759640671433 -7.6991844043982240 Ag
constrain_relaxation .true.
atom 15.8271705937217337 9.1372759640671433 -7.6991844043982240 Ag
constrain_relaxation .true.
atom -15.8300000000000001 -7.4784294578120782 -5.3493688087964557 Ag
atom -12.9520754005707506 -7.4784294578120782 -5.3493688087964557 Ag
atom -10.0741508011415029 -7.4784294578120782 -5.3493688087964557 Ag
atom -7.1962262017122551 -7.4784294578120782 -5.3493688087964557 Ag
atom -4.3183016022830056 -7.4784294578120782 -5.3493688087964557 Ag
atom -1.4403770028537561 -7.4784294578120782 -5.3493688087964557 Ag
atom 1.4375475965754934 -7.4784294578120782 -5.3493688087964557 Ag
atom 4.3154721960047429 -7.4784294578120782 -5.3493688087964557 Ag
atom -14.3910377002853753 -4.9860736445301947 -5.3493688087964557 Ag
atom -11.5131131008561276 -4.9860736445301947 -5.3493688087964557 Ag
atom -8.6351885014268781 -4.9860736445301947 -5.3493688087964557 Ag
atom -5.7572639019976304 -4.9860736445301947 -5.3493688087964557 Ag
atom -2.8793393025683809 -4.9860736445301947 -5.3493688087964557 Ag
atom -0.0014147031391314 -4.9860736445301947 -5.3493688087964557 Ag
atom 2.8765098962901146 -4.9860736445301947 -5.3493688087964557 Ag
atom 5.7544344957193641 -4.9860736445301947 -5.3493688087964557 Ag
atom -12.9520754005707524 -2.4937178312483113 -5.3493688087964557 Ag
atom -10.0741508011415029 -2.4937178312483113 -5.3493688087964557 Ag
atom -7.1962262017122534 -2.4937178312483113 -5.3493688087964557 Ag
atom -4.3183016022830056 -2.4937178312483113 -5.3493688087964557 Ag
atom -1.4403770028537561 -2.4937178312483113 -5.3493688087964557 Ag
atom 1.4375475965754934 -2.4937178312483113 -5.3493688087964557 Ag
atom 4.3154721960047393 -2.4937178312483113 -5.3493688087964557 Ag
atom 7.1933967954339888 -2.4937178312483113 -5.3493688087964557 Ag
atom -11.5131131008561276 -0.0013620179664287 -5.3493688087964557 Ag
atom -8.6351885014268781 -0.0013620179664287 -5.3493688087964557 Ag
atom -5.7572639019976304 -0.0013620179664287 -5.3493688087964557 Ag
atom -2.8793393025683827 -0.0013620179664287 -5.3493688087964557 Ag
atom -0.0014147031391332 -0.0013620179664287 -5.3493688087964557 Ag
atom 2.8765098962901181 -0.0013620179664287 -5.3493688087964557 Ag
atom 5.7544344957193641 -0.0013620179664287 -5.3493688087964557 Ag
atom 8.6323590951486135 -0.0013620179664287 -5.3493688087964557 Ag
atom -10.0741508011415029 2.4909937953154557 -5.3493688087964557 Ag
atom -7.1962262017122534 2.4909937953154557 -5.3493688087964557 Ag
atom -4.3183016022830056 2.4909937953154557 -5.3493688087964557 Ag
atom -1.4403770028537579 2.4909937953154557 -5.3493688087964557 Ag
atom 1.4375475965754934 2.4909937953154557 -5.3493688087964557 Ag
atom 4.3154721960047429 2.4909937953154557 -5.3493688087964557 Ag
atom 7.1933967954339888 2.4909937953154557 -5.3493688087964557 Ag
atom 10.0713213948632383 2.4909937953154557 -5.3493688087964557 Ag
atom -8.6351885014268781 4.9833496085973401 -5.3493688087964557 Ag
atom -5.7572639019976286 4.9833496085973401 -5.3493688087964557 Ag
atom -2.8793393025683809 4.9833496085973401 -5.3493688087964557 Ag
atom -0.0014147031391332 4.9833496085973401 -5.3493688087964557 Ag
atom 2.8765098962901181 4.9833496085973401 -5.3493688087964557 Ag
atom 5.7544344957193676 4.9833496085973401 -5.3493688087964557 Ag
atom 8.6323590951486135 4.9833496085973401 -5.3493688087964557 Ag
atom 11.5102836945778630 4.9833496085973401 -5.3493688087964557 Ag
atom -7.1962262017122534 7.4757054218792227 -5.3493688087964557 Ag
atom -4.3183016022830056 7.4757054218792227 -5.3493688087964557 Ag
atom -1.4403770028537561 7.4757054218792227 -5.3493688087964557 Ag
atom 1.4375475965754898 7.4757054218792227 -5.3493688087964557 Ag
atom 4.3154721960047393 7.4757054218792227 -5.3493688087964557 Ag
atom 7.1933967954339888 7.4757054218792227 -5.3493688087964557 Ag
atom 10.0713213948632383 7.4757054218792227 -5.3493688087964557 Ag
atom 12.9492459942924878 7.4757054218792227 -5.3493688087964557 Ag
atom -5.7572639019976286 9.9680612351611053 -5.3493688087964557 Ag
atom -2.8793393025683809 9.9680612351611053 -5.3493688087964557 Ag
atom -0.0014147031391314 9.9680612351611053 -5.3493688087964557 Ag
atom 2.8765098962901146 9.9680612351611053 -5.3493688087964557 Ag
atom 5.7544344957193641 9.9680612351611053 -5.3493688087964557 Ag
atom 8.6323590951486135 9.9680612351611053 -5.3493688087964557 Ag
atom 11.5102836945778630 9.9680612351611053 -5.3493688087964557 Ag
atom 14.3882082940071125 9.9680612351611053 -5.3493688087964557 Ag
atom -15.8300000000000001 -9.1400000000000006 -2.9995532131946732 Ag
atom -12.9520754005707524 -9.1400000000000006 -2.9995532131946732 Ag
atom -10.0741508011415029 -9.1400000000000006 -2.9995532131946732 Ag
atom -7.1962262017122551 -9.1400000000000006 -2.9995532131946732 Ag
atom -4.3183016022830056 -9.1400000000000006 -2.9995532131946732 Ag
atom -1.4403770028537561 -9.1400000000000006 -2.9995532131946732 Ag
atom 1.4375475965754898 -9.1400000000000006 -2.9995532131946732 Ag
atom 4.3154721960047393 -9.1400000000000006 -2.9995532131946732 Ag
atom -14.3910377002853753 -6.6476441867181171 -2.9995532131946732 Ag
atom -11.5131131008561276 -6.6476441867181171 -2.9995532131946732 Ag
atom -8.6351885014268781 -6.6476441867181171 -2.9995532131946732 Ag
atom -5.7572639019976304 -6.6476441867181171 -2.9995532131946732 Ag
atom -2.8793393025683809 -6.6476441867181171 -2.9995532131946732 Ag
atom -0.0014147031391314 -6.6476441867181171 -2.9995532131946732 Ag
atom 2.8765098962901146 -6.6476441867181171 -2.9995532131946732 Ag
atom 5.7544344957193641 -6.6476441867181171 -2.9995532131946732 Ag
atom -12.9520754005707524 -4.1552883734362336 -2.9995532131946732 Ag
atom -10.0741508011415029 -4.1552883734362336 -2.9995532131946732 Ag
atom -7.1962262017122551 -4.1552883734362336 -2.9995532131946732 Ag
atom -4.3183016022830056 -4.1552883734362336 -2.9995532131946732 Ag
atom -1.4403770028537561 -4.1552883734362336 -2.9995532131946732 Ag
atom 1.4375475965754934 -4.1552883734362336 -2.9995532131946732 Ag
atom 4.3154721960047393 -4.1552883734362336 -2.9995532131946732 Ag
atom 7.1933967954339888 -4.1552883734362336 -2.9995532131946732 Ag
atom -11.5131131008561276 -1.6629325601543501 -2.9995532131946732 Ag
atom -8.6351885014268781 -1.6629325601543501 -2.9995532131946732 Ag
atom -5.7572639019976304 -1.6629325601543501 -2.9995532131946732 Ag
atom -2.8793393025683827 -1.6629325601543501 -2.9995532131946732 Ag
atom -0.0014147031391332 -1.6629325601543501 -2.9995532131946732 Ag
atom 2.8765098962901181 -1.6629325601543501 -2.9995532131946732 Ag
atom 5.7544344957193641 -1.6629325601543501 -2.9995532131946732 Ag
atom 8.6323590951486135 -1.6629325601543501 -2.9995532131946732 Ag
atom -10.0741508011415029 0.8294232531275334 -2.9995532131946732 Ag
atom -7.1962262017122551 0.8294232531275334 -2.9995532131946732 Ag
atom -4.3183016022830056 0.8294232531275334 -2.9995532131946732 Ag
atom -1.4403770028537579 0.8294232531275334 -2.9995532131946732 Ag
atom 1.4375475965754898 0.8294232531275334 -2.9995532131946732 Ag
atom 4.3154721960047393 0.8294232531275334 -2.9995532131946732 Ag
atom 7.1933967954339888 0.8294232531275334 -2.9995532131946732 Ag
atom 10.0713213948632383 0.8294232531275334 -2.9995532131946732 Ag
atom -8.6351885014268781 3.3217790664094160 -2.9995532131946732 Ag
atom -5.7572639019976304 3.3217790664094160 -2.9995532131946732 Ag
atom -2.8793393025683809 3.3217790664094160 -2.9995532131946732 Ag
atom -0.0014147031391332 3.3217790664094160 -2.9995532131946732 Ag
atom 2.8765098962901146 3.3217790664094160 -2.9995532131946732 Ag
atom 5.7544344957193641 3.3217790664094160 -2.9995532131946732 Ag
atom 8.6323590951486100 3.3217790664094160 -2.9995532131946732 Ag
atom 11.5102836945778595 3.3217790664094160 -2.9995532131946732 Ag
atom -7.1962262017122551 5.8141348796913004 -2.9995532131946732 Ag
atom -4.3183016022830056 5.8141348796913004 -2.9995532131946732 Ag
atom -1.4403770028537561 5.8141348796913004 -2.9995532131946732 Ag
atom 1.4375475965754898 5.8141348796913004 -2.9995532131946732 Ag
atom 4.3154721960047393 5.8141348796913004 -2.9995532131946732 Ag
atom 7.1933967954339888 5.8141348796913004 -2.9995532131946732 Ag
atom 10.0713213948632347 5.8141348796913004 -2.9995532131946732 Ag
atom 12.9492459942924842 5.8141348796913004 -2.9995532131946732 Ag
atom -5.7572639019976304 8.3064906929731848 -2.9995532131946732 Ag
atom -2.8793393025683809 8.3064906929731848 -2.9995532131946732 Ag
atom -0.0014147031391332 8.3064906929731848 -2.9995532131946732 Ag
atom 2.8765098962901146 8.3064906929731848 -2.9995532131946732 Ag
atom 5.7544344957193641 8.3064906929731848 -2.9995532131946732 Ag
atom 8.6323590951486135 8.3064906929731848 -2.9995532131946732 Ag
atom 11.5102836945778595 8.3064906929731848 -2.9995532131946732 Ag
atom 14.3882082940071090 8.3064906929731848 -2.9995532131946732 Ag
atom 0.0000000000000000 0.0000000000000000 0.0004467868053268 Fe
atom 2.9686751362759995 1.6173129003260005 0.0007827348383245 N
atom 1.6173976824680008 -2.9688665400180003 -0.0002312830956726 N
atom -0.5417623087269998 -1.8382072104649998 0.0063973376983171 N
atom -1.8381765418249998 0.5419478019550006 -0.0056533851876850 N
atom 0.5417622912300022 1.8382072151309998 0.0063942433143183 N
atom 1.8381765409900002 -0.5419477971609989 -0.0056502427976852 N
atom -1.6173976709149986 2.9688665564559997 -0.0002389112456740 N
atom -2.9686751266540004 -1.6173128961759993 0.0007829870373257 N
atom -3.7711805127179989 1.8455369275619997 -0.0304492779566772 C
atom -2.3213979529699991 1.8492435524940003 -0.0128438223456726 C
atom -0.2949575446920001 2.9527646682089994 0.0129005355563265 C
atom 0.4942066242850007 4.1689006897079999 0.0306071616833208 C
atom -4.1687658542339996 0.4940500768699998 -0.0286147151796854 C
atom -2.9526454222089988 -0.2948014101470005 -0.0113324082876716 C
atom -0.1360929688450003 -5.5214734699390000 0.0456432703843177 C
atom -2.8798090242559997 -4.7139856918719998 0.0427032397613232 C
atom -1.1672885060570000 -6.4607744573629997 0.0595626314063225 C
atom -5.5211640547219982 0.1352907604159999 -0.0411680336466844 C
atom -4.7146086520209991 2.8792614072950009 -0.0462064239156774 C
atom -6.4608506749999997 1.1659504224070005 -0.0567418539616824 C
atom -2.5225397418819995 -6.0624016728000001 0.0578180361803220 C
atom -1.8491123898010002 -2.3212527320460001 0.0126049571283176 C
atom -1.8455631126849994 -3.7711032656359995 0.0297170091333214 C
atom 1.8455631034050004 3.7711033353829997 0.0297099029923231 C
atom 1.8491123694850007 2.3212527456450012 0.0126020260993158 C
atom -6.0628138310979995 2.5213225480840009 -0.0597315138006849 C
atom 2.9526454160380009 0.2948013972709997 -0.0113301718776739 C
atom 4.1687658739789999 -0.4940501153649990 -0.0286112188636736 C
atom 2.3213979550140014 -1.8492435657410002 -0.0128385559656721 C
atom 3.7711805245470007 -1.8455369563749997 -0.0304442674436842 C
atom -0.4942066216259988 -4.1689006055219995 0.0306173121173146 C
atom 0.2949575320220017 -2.9527646211079999 0.0129076203533174 C
atom 0.1360929932169999 5.5214736136260001 0.0456276550743269 C
atom 2.8798090367009994 4.7139857616900009 0.0426942842823195 C
atom 1.1672885431539992 6.4607746116830000 0.0595450319443245 C
atom 2.5225397804109999 6.0624018028140014 0.0578038033773254 C
atom 5.5211640520899987 -0.1352907707189992 -0.0411652382926775 C
atom 4.7146086795570010 -2.8792614266149998 -0.0462009657386773 C
atom 6.4608506963590013 -1.1659504308919999 -0.0567385554036832 C
atom 6.0628138480030014 -2.5213225538539996 -0.0597270979946813 C
atom 5.8185148195219991 0.9134982528159998 -0.0386998297296799 H
atom 4.3972597114300012 -3.9221657385409996 -0.0481268199316816 H
atom 6.8273401218290015 -3.2993475085079993 -0.0727437401786801 H
atom -5.8185148933789996 -0.9134982392589990 -0.0387015776496753 H
atom -4.3972595944839998 3.9221656893930010 -0.0481331298256720 H
atom -6.8273401152959998 3.2993474921370005 -0.0727482711306777 H
atom -7.5248409538869989 0.9252389555300002 -0.0669513316746730 H
atom 0.9123941823200017 -5.8198667412439997 0.0467063574833162 H
atom -3.9224632634559988 -4.3958201584589993 0.0406260506213272 H
atom -3.3008278572149994 -6.8267571025139997 0.0684228972203158 H
atom -0.9270411866819988 -7.5248792439409993 0.0721380368013200 H
atom -0.9123941296910001 5.8198669934420000 0.0466879923723269 H
atom 3.9224632696819999 4.3958201842539992 0.0406188762513153 H
atom 3.3008279100940019 6.8267572370620009 0.0684068386863146 H
atom 0.9270412453860022 7.5248794625169992 0.0721158258773187 H
atom 7.5248409563589984 -0.9252389446830005 -0.0669487654666767 H
